188
energy=-1016.73259991 config_type=nep2xyz pbc="T T T" virial="-4.9611623045147395 -7.919245377030126 1.2063838996686993 -7.919245377030126 -6.842906984198216 -2.445207774780031 1.2063838996686993 -2.445207774780031 -13.993541527079865" Lattice="12.4 0.0 0.0 0.0 12.4 0.0 0.0 0.0 12.4" volume=1906.6240000000003 Properties=species:S:1:pos:R:3:force:R:3
H 4.15533 12.1872 5.00028 -0.021925 0.365015 0.059615
H 4.00413 1.37623 5.10081 -0.10888 -0.456952 -0.438949
H 7.85296 10.4218 1.48278 -0.669344 0.48113 -0.133496
H 6.81628 1.90013 0.53903 0.466652 -0.291343 -0.40538
H 2.46595 0.37154 3.60236 -1.004109 -0.294842 -1.226519
H 5.24982 6.69187 6.28684 0.114348 0.567756 -0.507732
H 1.57281 11.5404 3.41536 -0.078456 0.455963 -0.289
H 10.6091 7.82564 7.36257 0.459237 -0.57855 0.190015
H 6.17628 1.21375 11.7208 0.890782 0.443131 -0.467677
H 5.29275 6.83045 4.74229 -0.412494 -0.024699 -1.117469
H 9.13953 12.2032 1.00239 0.593153 0.690242 0.590919
H 6.03804 8.6155 11.4322 0.397148 0.170324 -0.252166
H 3.09041 8.51001 10.0131 0.105046 -0.588581 -0.344274
H 4.60665 8.61112 9.72317 -0.460499 0.102472 -0.664329
H 0.44147 3.46591 2.16937 0.133337 -0.618637 -0.170605
H 1.4683 4.63571 2.35299 -0.636432 -1.06364 -1.23684
H 3.03207 10.0175 0.98953 0.440778 -0.033187 0.052315
H 9.54982 8.58381 6.64248 -0.219878 -0.553756 0.224888
H 1.90548 5.71058 4.63238 -0.375201 0.079667 0.809136
H 9.46006 11.592 9.50601 -0.594957 -0.561021 -0.384681
H 8.22652 11.3342 8.44353 0.596503 0.070106 0.570541
H 6.93451 9.93001 5.66948 0.476953 -0.001516 -0.850521
H 5.95533 8.61723 5.97563 0.390207 -1.024733 -0.727137
H 6.97457 8.3159 10.1082 -0.440876 0.152603 0.893382
H 3.6575 7.30285 8.16976 0.385519 -0.459979 -0.361721
H 3.87609 6.11506 3.37698 -2.010293 -0.409121 0.459641
H 5.16412 5.27789 3.72324 0.140387 -1.261774 0.356552
H 4.96112 3.73435 4.95386 -0.356863 -0.388133 0.358242
H 8.30449 9.07921 1.9879 -0.853864 0.316074 0.323252
H 5.97489 3.38463 3.82175 0.270719 -0.948041 -0.634986
H 12.1644 0.71636 10.5896 -0.399727 -0.154379 0.049842
H 6.29271 8.85647 1.59449 0.774453 1.118827 0.514529
H 5.83964 7.55405 0.94896 -0.250023 -1.279524 -0.083938
H 9.55889 7.24512 1.81467 -0.151487 -0.165726 0.359925
H 9.54902 0.56449 3.49944 -0.661493 0.421642 0.347089
H 9.87825 8.23578 0.5718 -0.127345 -0.192648 1.131696
H 10.6654 9.00491 2.40469 0.635996 1.219851 0.7698
H 12.1348 9.19015 2.91391 0.168435 0.275558 0.005568
H 1.59275 8.98831 3.70753 -1.068939 -1.153256 -0.373956
H 8.09072 11.7453 4.31773 -0.32222 0.465594 0.698915
H 7.62418 10.5213 3.57217 -0.396716 -0.291521 1.203076
H 1.3945 10.5953 7.61826 0.959552 0.634382 0.656952
H 8.46808 0.95827 8.43178 0.174743 0.544062 -0.017813
H 7.41215 2.21285 8.29438 0.269528 -0.180041 -0.218286
H 9.06465 7.86674 8.90831 0.226287 -0.051815 -1.287843
H 10.6019 11.4298 6.07173 0.215641 0.064936 0.184092
H 9.21456 5.7186 4.03833 0.28007 0.041898 -0.159055
H 9.01109 3.73073 6.09894 -0.37539 -0.943911 -0.151967
H 10.2766 5.73003 2.76999 1.534131 -0.0844 0.074541
H 8.86217 2.25599 6.82835 -0.18458 0.773104 0.014939
H 9.61171 2.60955 9.29807 -0.947473 -0.378397 -1.022368
H 10.5547 2.31324 10.4355 -0.147836 0.443118 -0.626585
H 2.84009 3.08431 6.16068 0.670209 -0.009875 0.20786
H 10.2626 11.9236 7.51969 0.626039 0.479155 -1.055843
H 7.46411 1.64185 3.0107 -0.710271 0.436411 -0.930336
H 5.98047 12.0686 9.50596 -0.564033 1.027147 0.058492
H 4.22366 3.10243 6.97186 -0.221807 -0.694669 -0.786152
H 2.96683 6.17293 7.27291 1.03253 0.203924 0.051066
H 8.35309 6.68076 9.72218 0.409592 0.601883 -0.084999
H 8.66731 6.35065 6.25574 -0.009737 0.983347 0.416227
H 0.58666 3.58448 7.59498 0.516386 -0.044731 0.252513
H 0.32845 3.02295 6.17795 -0.690305 -0.859825 -0.842363
H 1.02425 3.6387 12.1795 0.999928 0.537531 -0.981945
H 12.2317 5.37353 1.69964 0.315822 -1.014663 -0.442409
H 12.1451 6.84927 1.99022 -1.147581 -0.858725 -0.396435
H 3.13467 10.2512 8.75541 -0.14442 0.810204 0.123611
H 7.43628 5.71673 5.43211 -0.217736 0.507503 0.353269
H 2.496 11.8175 8.94269 0.513547 -0.738637 -0.186852
H 1.82446 2.87527 11.0662 0.224066 -0.354068 -0.254226
H 2.8729 10.5222 4.97052 -1.779515 -0.744922 -0.279556
H 10.8511 1.8928 0.43037 -0.952274 0.647791 0.691186
H 10.4151 2.51896 1.79151 0.31588 -0.060243 0.418718
H 8.39961 4.53629 9.25872 0.941021 -0.672733 -0.852376
H 4.7758 5.67447 8.73384 -1.058127 0.632929 -0.790117
H 11.9295 2.03388 3.70774 0.598182 -0.820449 -0.407709
H 7.02313 5.09653 9.52 -1.490381 0.178768 -0.059919
H 0.52045 1.11861 2.83426 0.595184 -0.14663 0.413254
H 4.90407 4.99554 10.1539 -0.679052 0.318908 0.409478
H 9.2629 10.999 11.6227 -0.058339 0.176019 -0.05866
H 1.35577 10.4934 5.44738 -0.593094 -0.046875 0.883476
H 10.7313 2.32666 5.53147 0.475029 0.046886 -0.520378
H 11.5849 1.30633 6.15242 0.366017 -0.248241 -1.516229
H 0.0519 11.231 7.15765 -3.201702 3.840124 0.604078
H 4.56831 0.05757 9.91392 -1.109107 0.016503 0.031004
H 2.81915 4.74053 11.6107 1.054075 0.194478 0.343107
H 4.24097 5.45692 12.3633 -0.362185 -0.740503 -0.175576
H 2.29047 12.2411 1.3 0.275937 -0.340105 -0.559324
H 2.58931 12.2429 12.0675 0.030541 -0.308243 1.17406
H 5.60385 3.56957 8.58637 -0.258493 1.046996 1.181312
H 6.12663 5.17071 1.12067 -0.114468 0.091369 -0.304846
H 2.44385 8.29273 12.0468 0.051018 -0.22724 0.05454
H 4.99716 5.9576 1.91271 0.730332 -0.284341 -0.957986
H 6.11531 1.10969 2.40954 0.435059 1.24635 -0.460376
H 2.84696 6.86157 11.4984 -0.363823 0.594728 -0.617603
H 5.45153 1.9454 8.86403 -0.113748 0.991964 -0.381929
H 7.91096 0.14858 12.3821 0.839196 -0.284571 0.798593
H 4.10312 8.768 1.2934 -0.276475 0.829335 -0.338744
H 0.73962 7.20746 10.7728 0.508542 0.33222 -0.139194
H 0.07667 6.11135 9.91477 -0.345245 -0.048779 -0.097176
H 3.9386 10.9275 6.83622 0.194041 0.102055 -1.058988
H 1.79726 6.53767 3.34694 -0.446109 1.080365 -0.065767
H 0.1411 7.71703 8.35767 -0.231899 0.667594 0.111809
H 12.30961 8.8236 7.18876 0.888403 2.337976 0.026335
H 5.16199 10.2896 5.96895 -0.436603 0.138313 0.014163
H 9.73976 7.92654 10.8986 0.514793 0.84893 0.533281
H 10.9473 11.3953 2.51487 1.019154 -2.347622 0.410692
H 11.2343 7.78202 11.1882 0.146573 0.253607 0.044024
H 8.33809 4.7466 1.93587 -0.315514 -0.062568 0.112744
H 7.39907 3.48134 1.8402 -0.279201 -0.676446 0.406902
H 11.1888 0.52742 2.40659 0.338684 0.308865 0.058913
H 0.91414 5.00944 6.42258 1.12689 1.11744 -0.267841
H 0.96001 6.66893 6.54819 -0.425106 -0.100378 -0.140261
H 4.618 12.38733 2.81465 0.045041 0.029389 0.586683
H 0.53165 3.96962 9.94938 1.264389 -0.27964 1.166631
H 11.564 3.86797 9.31283 1.309282 0.771745 -0.409523
H 4.52003 11.9563 1.36322 0.767979 0.122733 0.577102
H 10.137 9.79704 11.0794 0.335225 -0.220682 -0.16783
H 8.82848 1.55774 4.6871 0.260297 -0.399345 -0.769165
H 9.28347 10.2207 4.95073 -1.414092 0.391772 0.164036
H 10.5789 9.63968 4.65835 0.853287 -0.316902 -0.326502
H 10.9033 12.1516 10.862 0.172742 0.839261 -0.027064
H 6.71656 10.0549 9.26794 -0.090621 0.947261 -0.461694
H 6.51298 10.1761 7.75597 -0.366553 -0.406943 -1.306705
H 2.06391 8.53104 2.42042 0.280166 -0.089245 -1.487749
O 3.94881 0.61172 4.46572 -0.134935 0.165499 0.370625
O 3.71938 8.61794 9.24719 0.460726 0.498189 0.737796
O 7.52592 9.73957 2.10674 1.899026 -0.353694 -0.034686
O 1.7132 0.02143 2.95699 1.415092 -0.007676 1.634503
O 9.63493 7.78706 7.23414 -0.643899 0.848064 -0.482323
O 5.73811 7.12876 5.53898 0.238869 -0.462157 2.081929
O 11.2745 9.66616 2.9313 -0.753559 -1.438554 -0.713062
O 7.03019 1.6353 12.0006 -1.172177 -0.224002 0.844428
O 0.94884 4.09905 1.62654 0.784986 1.31238 1.71695
O 3.86073 6.49104 7.60652 -1.331658 0.275041 0.066317
O 3.14377 9.07441 1.22963 -0.478087 -0.4963 -0.015192
O 9.07116 11.8559 8.62897 -0.230236 0.384816 -0.272085
O 6.25188 9.51595 6.21289 0.375013 0.436796 1.56096
O 6.18853 8.8121 10.4808 0.213691 -0.353131 -0.443381
O 4.81809 6.11842 3.35962 0.848407 2.018215 -0.826711
O 5.65421 4.09143 4.37308 0.362267 0.350558 0.620445
O 5.6123 8.4789 1.03097 -0.771445 -0.168334 -1.046859
O 8.70682 0.98181 3.87698 0.165095 0.127837 0.491659
O 11.2009 0.70808 10.803 0.379861 -0.507043 0.226023
O 9.5576 8.17921 1.56138 0.436871 0.371216 -1.486445
O 7.69468 10.8716 4.53753 0.67066 -0.073292 -2.059824
O 8.36749 1.9497 8.22641 -0.509785 -0.679781 0.661151
O 10.8842 12.1144 6.72247 -0.741687 -0.174988 1.087785
O 9.37978 5.81332 3.07696 -2.051922 -0.187978 0.001298
O 10.1405 3.08637 9.93953 1.067578 -0.409618 1.619465
O 9.08511 2.74683 5.97954 0.68421 0.516121 -0.626687
O 6.67342 1.97581 2.43007 0.393134 -1.758855 1.178888
O 3.81606 2.93292 6.07623 -0.388537 0.469253 0.520329
O 8.61101 7.64761 9.73054 -0.86847 -0.850696 1.36347
O 8.34121 5.60797 5.74861 0.592558 -1.453681 -0.693461
O 1.00092 3.45478 6.70539 0.216384 0.613338 0.805667
O 11.569 6.07962 1.69498 0.879612 2.00405 0.651242
O 2.83319 11.1016 8.32274 0.181586 -0.522692 0.186151
O 1.51041 3.76794 11.3026 -1.087622 -0.319436 1.602241
O 10.1648 2.46938 0.87236 0.581513 -0.639549 -1.623549
O 12.2241 1.81232 2.77808 -0.921273 1.066641 0.125008
O 7.88697 4.96162 9.9234 0.627942 0.538581 1.089829
O 5.43796 0.43898 9.86167 1.534608 -0.776483 -0.249117
O 1.88411 10.3087 4.66067 2.51809 0.423285 -0.50404
O 5.36328 5.20902 9.32836 1.618828 -1.029544 0.433021
O 0.62005 10.546 7.05658 2.006903 -4.533496 -1.676206
O 11.6445 1.92792 5.35034 -1.41575 0.256864 2.052093
O 3.66856 5.27306 11.5521 -0.671105 0.573406 -0.564551
O 2.79705 11.8161 0.55237 -0.145842 0.455423 -0.585352
O 5.59648 2.69628 8.21061 0.387208 -2.098891 -0.515159
O 5.34581 5.74656 0.95228 0.190669 0.340947 1.003729
O 2.31871 7.70457 11.2624 0.463981 -0.555958 1.023818
O 8.51305 11.8422 0.37883 -1.381691 -0.307164 -0.827538
O 7.69861 4.25794 1.36198 0.559296 0.976498 -0.421488
O 12.3768 7.05119 10.1768 0.080326 -0.483091 -0.144717
O 2.09153 5.68582 3.67678 0.658093 -0.845534 -1.20271
O 12.2008 7.93694 7.46838 -0.120389 -2.82164 0.151377
O 4.28598 10.8114 5.90287 -1.478888 0.776241 0.66291
O 10.4781 8.34967 11.4872 -1.063461 -1.594283 -0.526283
O 10.5188 12.2214 2.43357 -1.536592 1.798875 -0.525507
O 1.40971 5.88613 6.18198 -0.28268 -0.576109 0.584628
O 0.10036 4.26893 9.15545 -2.812892 -0.197459 -1.018939
O 5.19171 12.0673 2.10037 -0.845206 0.123438 -0.927009
O 9.75596 10.6662 10.8336 0.093551 0.969953 0.038432
O 10.0427 9.87411 5.43258 0.464913 -0.146544 0.093023
O 1.2988 8.29509 2.97646 0.592154 1.186503 1.845635
O 6.73731 10.7195 8.51614 0.296469 -0.480037 2.061348
Na 8.75414 3.5377 11.7944 -0.346166 -0.017754 0.008483
Cl 2.06051 0.96242 10.1255 -0.149981 -0.07686 0.355242
188
energy=-1016.24923203 config_type=nep2xyz pbc="T T T" virial="-0.4406529166050039 -3.6726431478742687 -2.785351508483908 -3.6726431478742687 -2.4124345934267626 -0.3425356761337987 -2.785351508483908 -0.3425356761337987 -8.723473542983372" Lattice="12.4 0.0 0.0 0.0 12.4 0.0 0.0 0.0 12.4" volume=1906.6240000000003 Properties=species:S:1:pos:R:3:force:R:3
H 2.70592 1.29483 3.68721 0.548427 0.407318 0.273481
H 3.40142 1.71162 4.99045 0.60505 -0.904047 2.944931
H 7.52345 12.112 11.2096 0.320093 -0.143016 0.414997
H 6.38953 4.58804 10.4199 -0.306497 0.019897 -0.225565
H 3.49689 11.8608 2.93795 -1.710458 0.960269 0.255417
H 5.41581 6.81537 6.62257 -0.337011 -0.369192 -0.42795
H 1.93919 11.5423 3.33229 0.073292 0.633777 -0.096504
H 10.634 6.62814 5.8775 1.13787 0.024075 0.189591
H 7.78821 4.02495 10.4901 0.435676 -0.471814 -0.560766
H 6.09543 6.32225 5.23329 -0.834941 0.316869 0.191521
H 9.07776 1.30982 1.31048 -0.1137 -0.21151 0.087022
H 6.38704 7.51215 11.3979 -0.933925 0.425597 0.809672
H 3.47128 7.07961 10.5271 -0.152062 1.057049 -0.871943
H 3.60852 8.62023 9.86023 -0.359984 -1.343124 -0.073644
H 12.1798 3.61126 3.19822 -0.285335 -0.044224 0.164708
H 1.26442 4.14796 3.1592 -0.601354 -0.357132 -0.666817
H 1.85753 9.0767 11.7148 0.60484 0.059155 0.110419
H 9.97358 8.02063 5.55339 -0.212755 -0.861395 0.472015
H 4.56412 7.54363 3.48263 0.231306 -1.660096 -0.023064
H 9.27243 11.4475 9.68166 -0.060243 -0.20157 0.007846
H 7.85073 10.7007 9.35927 0.379953 -0.521107 -0.202539
H 7.04851 7.99843 6.09223 0.496564 1.312782 -0.550089
H 6.80124 9.5999 5.81812 0.412783 -1.065977 -0.237929
H 7.31836 6.39867 10.9471 0.096401 -0.937253 -0.205985
H 3.56816 6.71949 8.23437 -0.239873 0.460533 0.249971
H 4.17612 5.46185 4.11234 -0.785126 -0.660034 -0.180615
H 5.36605 5.54932 3.10601 0.404986 -1.186349 -1.990226
H 2.1649 4.67965 4.99563 0.335196 0.184704 -1.556423
H 7.12139 11.5271 0.278 0.19643 0.744951 -0.794303
H 2.7656 3.55989 4.08036 0.317389 -0.14294 -0.084156
H 11.7303 12.1325 10.3344 1.467856 2.055763 1.415339
H 7.83185 9.80503 1.38736 0.952899 -0.486098 0.782107
H 6.38045 9.38229 0.9461 -0.61505 -0.499307 -0.633019
H 9.24865 8.33254 2.26693 -0.248725 0.995019 -0.734327
H 8.48372 1.83314 3.26181 -0.468323 1.686259 0.985093
H 9.29197 8.84593 0.77442 0.639513 0.221424 1.199231
H 10.1458 10.2172 2.73031 0.754968 0.476875 1.195262
H 11.5156 10.6804 3.52836 1.225938 -0.330936 -0.137708
H 2.36585 8.15727 2.62823 0.522662 -0.049957 0.188933
H 5.48543 0.09374 2.77446 -0.205079 0.829591 0.002101
H 5.82309 11.0921 2.27732 0.407419 -0.693991 -0.46083
H 1.89028 10.2527 6.3691 -0.171684 -0.716213 -0.399932
H 7.71834 0.51414 8.87486 -0.317679 -0.185172 -0.301738
H 6.49064 1.51395 8.40807 0.336819 -0.192039 0.659671
H 10.8028 3.62339 7.82058 0.335441 -0.657834 -0.710085
H 10.7781 10.819 6.70575 0.813056 0.670249 0.374421
H 9.51204 6.98195 3.8099 -0.216309 -0.609401 -0.223982
H 8.54671 3.40553 6.31539 0.338994 1.057789 -0.250486
H 10.4743 6.68658 2.67303 0.150126 -0.374343 -0.447818
H 8.17128 2.10452 6.93001 -0.585247 -1.116233 0.945387
H 11.1769 1.92516 0.0874 0.089584 0.143181 0.120427
H 11.6231 3.03117 1.05014 0.121843 0.003052 0.074084
H 2.50822 1.62542 7.19127 -0.882858 0.633309 0.77234
H 11.416 11.4529 8.04912 -0.107706 0.146589 1.025552
H 4.95772 2.32418 3.25745 0.254109 -0.984374 -1.546488
H 4.60319 11.0182 9.93581 -0.432624 -0.693705 -0.02989
H 4.04772 1.34103 7.51492 -1.040695 0.539598 -0.190494
H 3.13474 5.87808 6.9373 0.502186 0.72518 0.761067
H 9.84418 4.83172 7.80019 0.226672 -0.123504 0.008195
H 8.8788 5.81713 5.96715 -1.017007 -0.470305 1.196761
H 0.90624 2.14557 8.86734 0.561918 0.567062 -1.901851
H 0.27376 2.05978 7.43933 -0.548295 -0.104438 -0.51373
H 1.51549 4.22129 0.95502 0.047966 -0.355976 -0.16181
H 0.02943 5.55287 2.33782 0.187695 -0.421037 0.271578
H 0.1618 7.11197 2.25156 2.513995 2.677762 0.512772
H 3.68009 10.8625 7.79593 0.069386 -0.750026 -0.021148
H 7.50705 5.34432 6.66026 -1.372969 0.902453 -0.02004
H 3.30774 11.9372 6.80957 -0.315182 1.566336 -0.465746
H 1.73509 3.04871 12.326 0.261964 0.810267 0.08365
H 0.94087 9.71585 3.04745 -0.035815 -0.060367 -0.436854
H 11.4679 5.20404 11.4785 0.423964 -0.004943 -0.597032
H 11.4072 5.74894 0.56123 -0.434386 -0.078773 -0.561983
H 9.40935 3.5023 9.22484 0.219262 -0.020981 0.218361
H 4.8574 4.98308 8.52977 -0.44399 0.280128 0.912162
H 10.1014 3.13774 4.16081 0.051563 0.269921 0.020725
H 8.46806 2.21222 9.26536 -0.098255 1.101425 0.695688
H 11.2194 2.68118 5.15317 -0.111868 1.225519 -1.151491
H 4.5667 4.95164 10.2186 -0.050941 0.034777 -1.224585
H 12.2657 8.45204 10.2853 -0.524566 0.571298 0.87485
H 0.88293 10.0643 4.5443 -0.353308 0.524477 0.311775
H 10.3017 1.77357 6.34909 0.748814 -0.163814 0.265683
H 11.3622 0.57072 6.54632 -0.044793 0.818492 -0.028488
H 0.42641 10.2109 6.61105 -1.603665 0.928788 0.450717
H 5.34348 9.86807 9.22387 0.822247 -0.507489 -0.376149
H 3.21307 4.90987 11.9881 0.222836 0.096886 -0.907582
H 4.29771 5.82253 0.0757 0.473152 -0.119015 -1.319989
H 2.22042 12.1129 1.08273 -0.077772 0.336789 -0.196565
H 1.77979 0.20396 11.9769 0.224963 -0.570059 0.741761
H 4.77141 2.67227 9.33442 -0.104997 1.611989 0.263222
H 6.67925 4.92862 1.59771 0.528683 -0.295385 -0.12388
H 4.37854 8.61207 0.09099 0.394629 -0.102996 0.304575
H 5.37591 4.10092 1.31705 0.336827 0.555765 0.380825
H 6.33554 2.26242 2.45892 -2.081292 -0.942966 -0.054646
H 5.03881 8.14274 1.43012 -0.342296 -0.01307 -0.005171
H 4.70369 1.15334 9.71628 0.105462 0.08616 0.011342
H 7.90251 1.25315 0.27716 0.38324 0.254787 0.755177
H 2.60548 10.2617 12.3165 -0.032392 0.667818 0.063875
H 1.32298 7.33417 9.38752 -1.36423 0.03032 -0.160742
H 0.31736 6.21953 9.7133 -0.488059 0.032381 -0.235293
H 4.57445 10.3473 5.48847 1.116419 -0.910955 0.096974
H 4.51965 8.98936 3.56994 0.173861 0.553787 -0.270796
H 12.2067 7.34727 7.60574 0.218915 -0.503227 0.141342
H 0.45078 8.11697 6.47889 0.408434 0.184052 -0.609086
H 5.43257 10.7051 4.33899 0.580142 0.407408 -0.919879
H 8.63307 8.02549 11.6801 -0.067 -0.322818 -0.628812
H 10.0763 0.05239 3.14501 1.123381 -2.856472 1.001354
H 9.85264 7.15284 11.9986 0.62395 -1.742921 0.220256
H 8.72047 5.32725 2.25427 -0.225071 -0.747291 0.068051
H 8.23292 3.72504 2.4648 0.272012 2.042112 -0.782225
H 10.5146 1.37282 2.43722 0.599452 0.243582 -0.209772
H 1.22372 4.35565 7.03129 0.170715 0.178591 -0.091375
H 0.77148 5.84827 6.53679 1.315666 -0.623438 0.002603
H 5.66547 12.1735 11.5331 -0.038855 0.387037 0.039038
H 12.2699 3.9274 9.81712 -0.230603 -0.421228 -0.28483
H 0.80426 4.39215 11.0154 -0.220544 0.09846 -1.073319
H 4.10908 12.2624 11.7485 -0.898039 -0.090707 0.543363
H 11.3142 8.72905 11.5114 0.013874 0.357891 -0.410443
H 8.03436 2.45035 4.66727 0.179306 0.281544 -0.26078
H 9.03214 9.65519 6.0142 -1.058274 -0.785941 0.832715
H 9.93778 10.1799 4.99358 1.136121 0.124691 -0.962262
H 11.5185 10.6231 10.1988 0.308763 -0.900227 0.62471
H 7.36046 8.46781 9.40998 0.020159 -1.085225 0.639953
H 7.18024 9.00802 7.9159 0.35328 0.040226 0.163139
H 1.89342 8.6477 1.2579 -0.114284 0.037666 0.500573
O 3.15144 2.06211 4.17575 -0.824369 0.743213 -2.848502
O 3.23675 7.68087 9.75415 0.311759 0.05117 0.840683
O 7.16071 12.3772 12.091 -0.356085 -1.559669 -0.020643
O 2.55798 12.2884 3.0577 1.365885 -1.966211 -0.677654
O 9.83082 7.01321 5.543 -0.50365 1.330953 -0.870052
O 6.24926 6.74945 6.10582 0.5642 -0.344758 0.377861
O 10.554 10.6611 3.55897 -2.681885 0.160997 -1.486489
O 7.20172 4.65217 10.9466 0.020594 0.441594 0.590027
O 0.47894 3.84821 2.54475 0.85234 0.772121 0.644614
O 3.86806 6.41882 7.36365 -0.204901 -1.040993 -0.879519
O 2.67417 9.29034 12.2258 -0.940766 -0.6164 -0.324706
O 8.29841 11.5267 9.64077 -0.150132 0.802187 0.335582
O 7.52525 8.93297 6.00027 -0.916295 -0.048813 0.934567
O 7.1457 7.34741 10.849 0.883607 0.593035 -0.333685
O 4.97328 5.93581 3.86909 0.163635 1.691698 2.53144
O 2.54641 4.53687 4.03672 -0.823506 0.178274 1.882224
O 6.95106 10.1307 1.15507 -1.047618 1.924258 -0.168931
O 8.09013 2.68409 3.70624 0.297362 -2.017993 -1.231471
O 11.2757 11.4912 9.85422 -2.118867 -1.269214 -2.178451
O 9.17816 9.20694 1.73152 0.609249 -1.341049 0.142317
O 5.23635 11.5604 2.88692 -0.239687 0.165692 0.187145
O 7.46863 1.36097 8.42184 -0.009114 -0.169181 -0.541662
O 11.4743 11.4812 7.08917 -0.599376 -0.918569 -1.285846
O 9.50722 6.74963 2.8427 0.057906 0.823429 0.752146
O 10.8404 2.52557 0.78071 1.018816 -0.084601 0.069683
O 8.63695 2.44876 6.16882 0.311431 -0.012077 -0.023421
O 5.36409 1.90503 2.42523 1.985588 1.670862 1.557368
O 3.32565 1.29088 6.82951 1.827231 -0.996355 -0.606094
O 10.5973 4.42346 8.29232 -0.662209 0.751884 0.217839
O 8.43051 5.16778 6.6219 2.352332 -0.68114 -0.702959
O 1.04589 2.43623 7.88443 -0.081946 -0.414907 2.378361
O 12.0301 6.39561 2.05255 -2.537617 -2.425358 -0.864491
O 3.32177 10.9845 6.88787 0.177632 -1.121244 0.170861
O 1.95421 4.00581 0.10604 -0.712966 -0.695558 -0.011563
O 10.8631 5.43455 12.1868 -0.396829 0.478671 0.970416
O 10.9604 3.44285 4.51114 0.333564 -1.285909 0.60169
O 8.88178 2.9475 9.83493 0.110977 -0.435716 -0.1475
O 4.45902 10.2246 9.32729 -0.548546 0.850648 0.432019
O 0.68123 10.4508 3.64542 0.785752 -0.187266 -0.355252
O 4.91275 4.49957 9.3821 0.25847 -0.368044 0.467657
O 1.0493 9.78716 6.03471 2.0173 -0.302044 0.567646
O 11.286 1.58835 6.39549 -0.970439 -0.692475 0.162104
O 3.93662 5.49486 11.6016 -0.514127 0.290683 2.087744
O 2.30489 11.9415 0.12286 0.295283 0.08053 -0.168305
O 4.83289 1.79199 8.98197 0.262976 -1.859149 -0.240619
O 5.69695 4.9738 1.63176 -0.750406 -0.488765 -0.655739
O 5.22086 8.25693 0.46569 -0.296959 -0.091267 -0.59799
O 8.45634 1.86997 0.83595 -1.460674 -0.182151 -0.940108
O 8.29631 4.53868 1.81748 0.010826 -0.711441 0.803997
O 0.32127 7.15117 9.37055 2.131457 0.336314 0.17895
O 4.33977 8.28829 2.91298 -0.46658 1.009008 0.491007
O 0.03792 7.25438 6.65794 -0.670629 0.090038 0.382095
O 5.37983 9.98737 4.98755 -2.227046 0.744761 1.073857
O 9.58337 8.05481 11.9236 -0.710299 1.442014 -0.326818
O 9.79758 0.87505 2.83169 -1.207887 2.103715 -0.591867
O 1.51506 5.12915 6.50632 -0.850833 0.212664 0.067518
O 0.32717 4.68117 10.1814 0.779799 0.215205 1.745654
O 4.78357 12.1649 11.0773 0.418978 0.193132 -0.833749
O 11.9817 9.17093 10.9516 0.636718 -0.917926 -0.508091
O 9.98562 9.7199 5.85541 0.116211 0.155294 0.300327
O 1.55161 8.38141 2.15766 -0.155794 0.064045 -0.576298
O 7.1379 9.22417 8.87577 -0.484397 1.266975 -0.904918
Na 9.15662 3.68598 12.2731 -0.108868 0.320732 0.021568
Cl 0.63565 1.45782 11.0234 -0.131946 0.376923 -0.170278
188
energy=-1015.14633966 config_type=nep2xyz pbc="T T T" virial="-14.606878406871973 1.9248829448997433 2.1859973767274186 1.9248829448997433 5.00577619590668 -4.312350895450995 2.1859973767274186 -4.312350895450995 -12.16502649162049" Lattice="12.4 0.0 0.0 0.0 12.4 0.0 0.0 0.0 12.4" volume=1906.6240000000003 Properties=species:S:1:pos:R:3:force:R:3
H 2.42957 3.31847 4.60344 0.243969 -0.430498 -0.559588
H 4.2099 4.10898 3.02744 -0.625561 0.355104 0.952047
H 2.60396 12.0768 3.6456 -0.299518 0.476579 0.577474
H 1.82972 0.64631 4.63412 -0.594202 2.82176 -0.041072
H 3.3751 0.1154 1.39014 0.06192 -1.225976 0.167306
H 6.59685 6.20708 12.1466 -0.253713 0.184061 -0.872687
H 4.13792 11.1836 1.99111 -0.484489 0.552898 -0.193272
H 12.1407 2.1909 3.08257 0.325125 0.029121 1.396008
H 0.44727 2.36892 1.66563 0.329095 -0.251131 0.424893
H 8.9921 6.76366 11.2258 -0.383802 0.570391 -0.035627
H 8.06893 6.34005 12.37903 1.064936 0.921406 0.111864
H 2.19538 6.48376 1.25568 -0.262295 -0.554181 0.649855
H 4.40794 5.25336 4.11709 -0.038159 -0.013349 0.3138
H 5.3824 6.66275 1.13701 -0.31806 0.404837 1.17527
H 4.95764 8.11482 1.55207 -0.089394 0.025672 0.594911
H 2.7605 5.44337 9.98339 -1.035425 0.510998 0.177511
H 7.52419 10.3961 0.06591 0.042912 -0.087746 -1.470915
H 7.42368 9.85736 1.49728 0.149747 -0.453041 0.420207
H 11.5369 0.64298 1.69921 0.062916 0.379352 0.30358
H 7.82589 4.61558 1.65585 0.568847 -0.007606 0.458733
H 10.4965 5.43797 3.81913 0.059251 -0.137521 0.538948
H 12.1761 4.8891 2.20551 -0.961836 0.474942 0.00246
H 2.28167 5.28942 3.21533 0.018523 -0.169486 0.250325
H 1.15657 6.34966 3.39399 0.163383 0.629817 0.697935
H 11.2707 3.72793 1.9816 -0.445892 -0.201102 0.252
H 1.40208 6.17022 9.63345 -0.687199 1.0071 -0.895821
H 1.06248 8.39614 4.79503 -0.605066 1.1739 0.272354
H 1.82368 12.1452 12.1705 -1.012531 -0.561873 -0.216486
H 3.20256 0.06001 11.5379 0.592612 -0.295079 -0.237908
H 3.17319 12.1217 5.74246 1.288252 -0.086919 0.933979
H 10.9776 7.79915 1.79347 0.06168 -0.394638 -0.613497
H 11.878 11.8843 0.71667 -0.08188 -0.431829 -0.075086
H 7.2281 7.86378 2.07144 -0.951551 -1.196123 -0.468112
H 10.9185 8.80811 2.91578 -0.129487 1.129421 0.60771
H 5.74964 9.57785 5.85446 0.933475 -0.778627 -1.077098
H 4.36437 11.4116 6.58153 0.478374 -1.536345 -0.026526
H 1.19927 10.675 5.05855 -0.78918 -0.068757 -0.181288
H 9.05529 8.71406 12.3875 1.1846 1.922337 0.460274
H 12.0798 10.208 4.77279 0.028085 0.331312 -0.460783
H 8.73746 11.8038 4.68205 0.058199 1.049662 0.965062
H 1.22333 3.00672 5.41502 -0.360322 -0.741422 -0.2515
H 11.5 11.0814 2.90084 -1.044744 -0.896762 0.887292
H 7.05469 4.22199 4.89656 -1.363626 -0.542763 -0.03861
H 10.9137 12.1151 9.14972 -0.596491 -0.206466 0.068894
H 12.3098 0.37047 9.17483 -0.273592 -0.588279 0.527316
H 12.2798 4.05259 6.58369 -0.207593 1.36839 -0.782917
H 5.56294 3.57183 4.43523 0.722721 0.438359 0.519046
H 5.34002 1.92065 1.47978 -0.489335 0.279682 0.210263
H 4.91443 0.47614 2.10363 1.438045 1.001083 -0.454844
H 5.8491 4.06886 9.46348 1.633677 -1.057855 -0.376742
H 7.17939 1.20255 1.08247 0.957427 -0.528986 0.27591
H 8.44617 1.95209 1.66059 -0.252069 -0.924891 -0.569493
H 10.0805 1.37074 5.12685 0.503718 0.466512 0.092795
H 8.49731 11.9155 9.44655 0.911207 1.198326 -0.632429
H 8.96489 1.03069 9.56877 0.119019 -0.95565 -0.493888
H 11.0826 2.57111 5.3336 -0.617446 -0.783902 -0.744683
H 9.14806 2.35807 3.72098 -0.125282 1.412996 -1.493362
H 8.38265 6.07388 4.87104 0.549456 -0.176683 0.8446
H 11.3543 5.94874 5.73072 0.435315 -0.288355 0.315346
H 0.4244 6.31634 5.62523 -0.47728 -0.419539 0.788374
H 4.39499 7.04 5.7483 -0.684564 0.486438 0.227544
H 3.90501 6.74996 7.21608 -0.083199 0.033439 0.091495
H 0.16265 6.75715 7.88713 -0.326263 -0.244902 -0.387218
H 7.42587 8.75276 3.96626 0.05071 -0.309088 -0.296093
H 9.17678 5.32344 2.1725 -1.278246 -0.325928 -0.67348
H 5.32608 6.83338 3.55141 0.096198 0.744034 -1.422028
H 6.16536 6.43524 4.86839 -0.600351 -0.113637 -0.507632
H 6.03723 9.14345 8.27611 -0.672627 0.729479 -0.704366
H 10.324 6.89728 3.82847 0.277117 0.942046 -0.195597
H 7.70847 2.81407 3.49872 -0.117799 0.225381 -0.367559
H 7.3727 5.06475 8.59951 0.174042 -0.160083 0.235344
H 8.64259 5.96867 8.66263 1.543022 0.076269 0.947569
H 10.108 10.9384 3.76919 1.122726 -1.23569 -0.380435
H 2.09649 7.40668 5.39779 -0.45377 0.039672 -0.385395
H 6.5398 2.4724 6.00881 -0.14209 -0.061692 -0.078237
H 0.58703 9.85834 7.29788 0.143623 -0.072706 0.554014
H 7.39984 8.1781 5.42236 0.116643 0.485657 -0.31939
H 4.02793 10.9621 10.0885 0.725448 0.568114 -0.096175
H 4.57475 8.84144 6.73466 0.437478 0.168107 -1.143975
H 5.795 1.26007 6.55497 -2.075348 -1.544796 -0.259562
H 4.27888 0.04335 9.76675 -0.24235 0.797907 -0.805103
H 8.00997 1.08327 6.34955 0.524662 -1.083636 -0.244936
H 7.26138 10.0621 9.94381 -0.02028 -0.714013 -0.204641
H 9.00269 0.26096 7.19301 -0.00815 0.038918 -0.738848
H 0.26864 8.04762 8.76991 0.210961 -0.053603 -0.20264
H 8.03447 10.6006 4.18327 0.698623 0.014784 -0.322568
H 3.38766 3.45789 1.10134 0.830183 -0.330867 0.805833
H 1.35189 3.08802 0.0224 -0.487204 0.540572 -0.231167
H 0.2193 3.0196 7.58571 -0.235072 -1.14367 0.047694
H 1.49869 1.46287 8.77729 -0.484453 0.484837 0.712585
H 0.61668 2.29409 9.91427 0.048604 -0.62903 -1.184291
H 4.77983 4.06277 0.70099 -0.36747 -0.599055 1.476364
H 6.59357 2.95206 8.6174 -0.383608 -1.301857 -1.620265
H 3.32759 0.7359 7.78829 0.403726 -0.569078 -0.366112
H 8.3657 1.92553 11.9243 -0.066242 -0.726124 1.001276
H 3.31652 2.15235 8.34845 0.438946 0.530877 -0.326904
H 7.78041 2.63934 10.6116 1.584334 -0.355519 0.640182
H 10.4391 9.44077 12.1073 -1.046038 0.151085 0.979018
H 9.72159 3.32842 11.341 -2.052733 -1.86877 -0.242353
H 10.292 4.46581 12.31142 -0.158217 -0.355398 -0.109324
H 0.81315 10.3665 11.8587 0.324947 -0.346554 0.28352
H 2.15809 6.41048 12.0548 -0.025705 -0.874198 -0.739142
H 11.8394 3.70404 11.3632 1.106523 0.158641 -0.392915
H 0.84691 4.37736 10.8042 0.676621 1.611093 -0.708174
H 5.43683 5.71455 11.1793 0.392484 0.345546 0.359511
H 7.11293 8.08895 8.28377 -0.354398 0.529088 1.117906
H 3.97147 4.09325 7.71459 0.588037 1.55029 0.868692
H 2.42682 3.71634 7.61088 0.994376 0.375603 -0.21119
H 7.81122 5.89196 6.47445 0.239206 -0.09757 -1.324343
H 11.2005 6.79152 9.7247 0.76611 0.518601 -0.89836
H 10.6006 5.55201 10.3615 -0.265525 -0.548914 0.309473
H 0.3446 7.47158 0.11734 -0.05226 0.265621 0.374068
H 2.22935 1.93336 0.38551 0.381495 -1.321103 -0.100612
H 3.59989 8.81364 8.75784 -0.307865 0.819358 1.030279
H 2.28629 9.64737 8.7675 0.200874 0.210175 0.524641
H 6.50986 11.2952 10.4387 0.348234 -0.451855 0.467263
H 3.99891 9.76676 0.57409 -0.67 -0.079092 -0.671616
H 8.72281 8.324 2.29579 1.030637 -0.420258 -0.003307
H 5.56617 9.92561 0.94229 -1.019406 -0.062092 0.376259
H 0.18479 10.5287 8.67077 0.099259 0.102118 -0.032724
H 2.55401 8.53922 12.2686 -0.345092 0.175212 -0.009493
H 12.2115 11.1815 10.9845 -0.280373 0.595002 -0.851428
H 11.4704 7.09908 11.7802 -0.579377 -0.026393 -0.211016
H 2.75434 9.53549 11.0429 -0.202574 -0.412935 0.614034
O 3.93139 4.40194 3.96492 0.435631 -0.599659 -1.434533
O 1.67916 2.69216 4.60011 0.185107 0.633761 0.540762
O 2.07266 12.1648 4.4834 1.0805 -2.96461 -0.69656
O 3.79608 12.0994 2.20075 -0.823941 -0.689364 0.44311
O 12.0254 2.10584 2.14955 -0.490857 0.326355 -1.603632
O 8.23715 7.10689 11.7684 0.259031 -1.102816 0.466816
O 9.59048 9.58376 0.21604 -0.11558 -2.180246 -1.458403
O 5.31345 7.25902 1.94257 0.488149 -0.967512 -1.525294
O 5.82436 5.63425 12.0814 -0.771041 -0.577232 0.113848
O 7.09271 10.5473 0.90129 -0.675713 0.467224 0.854556
O 10.2729 6.15444 4.46009 -0.554125 -1.083089 -0.417898
O 11.1975 4.70344 2.09081 1.229688 -0.062034 -0.056777
O 1.52781 5.71709 2.7764 0.006228 -0.656861 -1.087625
O 1.24884 7.45328 4.88095 1.414957 -1.124341 0.298832
O 1.82354 5.64398 10.304 1.764923 -1.262496 0.978409
O 2.645 0.21237 12.3124 0.468479 1.109304 0.30311
O 3.87319 12.2146 6.4868 -1.619884 1.582357 -0.90712
O 11.2971 12.1205 1.4684 0.04204 -0.134512 -0.052861
O 10.5344 7.96698 2.63945 -0.227127 -0.436489 -0.32376
O 7.79477 8.52067 2.44964 0.081124 1.213458 0.411866
O 0.51918 9.9822 5.24002 1.048876 -0.2229 0.917995
O 11.0251 10.4751 3.57647 0.393018 1.350411 -0.777044
O 6.47499 3.4009 4.79955 0.479045 0.70691 -0.576914
O 5.71606 1.09266 1.79196 0.303657 -0.185369 0.0679
O 8.19684 1.27555 0.92929 -0.89407 0.910912 0.873425
O 10.587 2.06519 4.6226 0.113508 -0.155815 1.245646
O 9.06222 0.22705 8.9735 -0.909713 -0.461133 1.563199
O 3.76963 7.3707 6.47413 0.210152 -0.44383 -0.308038
O 12.212 5.74787 6.20754 -0.041744 0.824712 -0.450577
O 8.25972 5.46929 1.80378 0.664443 0.348 -0.09254
O 5.25427 6.60929 4.48116 0.738551 -0.599172 1.782561
O 7.33418 9.00574 4.90976 -0.278069 -0.091555 0.930949
O 8.57074 2.86054 3.0287 0.399369 -1.239499 1.622221
O 0.18322 7.0663 8.81119 0.074947 0.507845 -0.032614
O 7.63373 5.85196 5.46493 -0.484466 0.171042 0.817943
O 11.8269 11.895 9.39456 0.431816 0.350592 -0.490317
O 5.08557 9.6639 6.51857 -1.253777 0.799919 2.082742
O 6.57343 1.74433 6.68871 1.89823 1.586867 0.858891
O 4.56999 11.7526 10.3615 -0.519507 -1.17296 0.488429
O 8.80481 0.44884 6.23363 -0.378442 0.741983 0.506525
O 7.81306 5.86052 8.24672 -1.40046 0.278362 -1.553482
O 8.70454 11.2639 3.88722 -1.304641 -0.317584 -0.117486
O 1.816 2.69077 0.80001 0.204723 0.886929 0.197073
O 0.56719 1.77753 9.03592 0.934454 0.604597 0.661097
O 0.00727 3.10038 6.63692 0.176435 -0.073299 0.727158
O 4.34335 3.53321 1.44545 -0.455721 1.152946 -2.323096
O 3.21986 1.23082 8.62821 -0.645654 -0.623569 0.756661
O 6.72378 3.5365 9.33924 -1.319113 2.210078 1.727583
O 10.3504 4.02607 11.4435 2.303652 2.688614 0.654012
O 0.25461 11.1607 11.8384 0.461265 -0.156592 0.557387
O 8.63051 2.27829 11.049 -1.699049 0.794585 -2.246007
O 2.19173 6.96997 0.42568 0.00273 1.323521 -0.219747
O 3.34612 3.49464 7.34956 -1.799619 -1.44751 -0.792156
O 6.69443 8.77883 8.86197 1.040408 -1.182504 -0.489827
O 0.45795 3.61905 11.2159 -1.519695 -2.175419 0.771931
O 10.469 6.50569 10.2807 -0.737835 -0.355579 0.50864
O 11.7906 7.69986 0.0679 0.67849 -0.11306 0.118815
O 3.13862 9.51834 9.28615 0.131571 -0.874321 -1.158952
O 0.71903 9.78342 8.28352 -0.471824 -0.002828 -0.922275
O 7.32004 10.7536 10.6198 -0.288994 1.253174 -0.460786
O 4.64702 9.57699 1.26157 1.572194 0.992567 0.031815
O 2.47518 9.48716 11.9976 0.368923 0.126113 -0.743858
Na 9.16889 11.6054 1.28061 -0.256393 0.104907 0.113361
Cl 4.53659 5.82168 9.0435 0.234071 -0.308776 0.280857
188
energy=-1016.32086045 config_type=nep2xyz pbc="T T T" virial="-11.45366757304593 2.4394480726104666 -1.8030247832957236 2.4394480726104666 -16.691295581699787 1.8470793647662394 -1.8030247832957236 1.8470793647662394 -14.232343063106024" Lattice="12.4 0.0 0.0 0.0 12.4 0.0 0.0 0.0 12.4" volume=1906.6240000000003 Properties=species:S:1:pos:R:3:force:R:3
H 1.97527 3.1335 3.67453 1.519753 0.673659 -0.087478
H 4.31678 3.34725 2.54878 -0.06073 0.016919 0.246799
H 4.43009 2.28687 1.01698 0.481776 -0.410689 -0.044829
H 5.6287 3.27939 0.72336 -0.343481 0.181202 0.734608
H 5.3117 12.366 2.64249 -1.041766 -0.15865 -0.509903
H 7.42724 4.61693 0.41287 0.143658 -0.427477 0.477234
H 6.49703 11.6967 3.29253 -0.258816 1.451461 -0.450483
H 1.17141 2.60563 1.74623 0.120499 0.824538 -0.294301
H 1.09703 3.38884 0.18009 0.200414 -1.404601 1.745178
H 9.16225 3.51984 0.46755 0.914148 -0.345183 -1.049617
H 8.87817 4.07362 1.92451 0.210477 -0.259544 0.110493
H 1.7789 6.28813 1.17488 -0.862949 0.153084 -0.049065
H 3.43443 4.50205 3.19498 -0.340236 0.037616 -0.289085
H 2.72877 6.81473 3.16515 0.743891 -0.824555 -0.532677
H 3.79211 6.10482 2.13144 0.135341 0.79673 -0.3528
H 3.45772 8.59748 11.2015 0.044703 -0.052118 0.029097
H 5.37624 7.48701 1.69615 0.131079 -0.712085 -0.407985
H 5.68443 6.15163 0.79868 -0.399186 0.391422 0.099724
H 7.63007 7.91914 3.13192 -0.444482 0.082125 -0.034462
H 5.74272 6.1412 3.47064 -0.146169 -0.218955 -0.154122
H 9.80965 7.6692 2.5158 1.387139 0.775374 -1.688302
H 9.44111 5.59716 3.53326 -0.242796 -0.033573 0.142124
H 11.6578 7.66183 1.37506 0.994481 -0.646266 -0.394796
H 10.4597 8.09656 0.41544 0.815093 0.103654 0.513226
H 10.3153 4.40095 4.03113 0.421781 0.029138 0.121819
H 3.94718 7.62443 0.0878 -0.986847 0.437854 -1.587289
H 2.48997 8.70996 4.37473 -0.223481 -0.756675 0.028676
H 2.04991 10.1288 0.44352 0.316939 -0.189343 -0.00056
H 0.80699 10.7342 1.22125 0.132043 -0.310434 -0.397122
H 2.10411 11.1345 3.93335 0.000847 0.018933 0.267557
H 3.33831 10.5538 2.29416 0.519442 0.350063 -0.915099
H 6.83345 8.84575 2.20015 -0.036347 0.884607 -0.327042
H 5.71287 10.282 1.07763 1.59023 0.14932 0.393093
H 3.59787 11.6745 1.16032 0.490702 -0.633289 0.291601
H 6.49844 9.16001 4.62706 0.616681 0.222562 -1.108614
H 0.90876 10.3786 3.25357 0.266909 -0.099484 -0.079571
H 11.2697 11.3313 2.83115 -0.507454 -0.202873 0.06134
H 7.87259 11.399 0.90724 0.902606 0.947025 0.85169
H 11.5155 10.0011 1.9455 -1.202556 -1.221933 -0.568373
H 9.28857 11.9448 2.66257 0.744085 0.552795 1.138942
H 0.4145 3.32631 3.81198 1.185535 -1.14926 0.016968
H 2.23601 0.96973 4.47278 0.526475 -1.819687 0.87748
H 3.80839 3.20651 5.27824 0.645241 1.230159 1.275471
H 12.1718 0.01872 7.03016 0.769049 0.268017 0.245061
H 1.07497 0.54831 7.81904 -0.342729 -0.21435 -0.171016
H 1.21049 4.3391 8.19984 0.161786 -0.666783 0.344933
H 4.9763 3.21102 6.2739 0.757808 -0.410352 0.253479
H 6.92775 2.22448 5.37288 0.179842 -0.462723 -0.05836
H 5.85671 1.19054 5.98703 0.486153 0.183525 0.031602
H 6.82537 2.83984 7.7159 0.526283 -0.553006 -0.226828
H 8.61057 3.06828 4.05841 0.273143 1.252664 -0.085726
H 9.02551 1.61685 4.19227 0.208778 -0.666236 -0.058793
H 10.755 1.94155 6.9078 0.959403 1.501824 0.58952
H 9.94836 11.9454 6.65144 0.326105 1.061107 0.648723
H 9.82815 0.2237 8.02311 -0.552224 0.220781 1.067375
H 11.9617 3.00494 7.51899 -1.066122 -0.259079 0.23164
H 11.5953 3.67391 5.76985 0.33159 0.444698 -1.610779
H 9.77128 4.06523 7.59429 -0.297719 0.623061 0.454603
H 1.29235 6.76239 5.12695 -0.597355 -0.032663 1.013799
H 1.51652 5.93585 6.3863 0.781715 -0.711784 0.896447
H 3.12653 4.50794 6.8264 -0.391758 -0.100535 0.116341
H 3.17674 5.34652 8.06188 -0.386265 0.539462 0.03482
H 12.3548 7.00274 7.00069 0.519454 -0.180286 -0.606245
H 5.32061 6.90331 5.60834 -0.65153 0.479381 1.280728
H 5.17585 4.81371 4.19623 0.0522 0.305572 -0.286538
H 7.40646 6.01416 5.80735 -0.364234 -0.067627 -0.64725
H 8.39085 5.63918 6.95505 0.216224 0.226391 0.152785
H 7.534 7.70084 7.56549 0.437462 -0.047972 -0.627399
H 9.6861 7.82838 4.05792 0.023911 0.097611 0.1693
H 12.2267 5.03896 5.1152 0.127476 -0.61591 0.056341
H 9.29719 7.57224 6.15276 0.336518 0.97961 -0.516589
H 10.6676 8.15465 6.51031 0.480067 -0.0774 0.266896
H 2.01792 0.00607 5.6858 -1.330925 -0.046431 1.272298
H 3.3304 7.70609 5.28902 -0.024961 -0.09527 -0.225002
H 4.09692 12.3275 5.69955 0.321217 -0.287108 -0.217378
H 0.76934 10.7661 8.18127 -0.146401 0.275235 -0.295866
H 4.87253 7.36537 7.18419 0.223315 -0.463644 -1.394587
H 3.9703 10.8457 9.1009 -0.272789 -0.687052 -0.058573
H 5.69223 9.01454 5.79098 -0.287437 0.109981 0.958326
H 5.30769 11.3477 5.39801 0.020485 -0.198487 0.389033
H 4.6739 11.4684 7.75821 -0.187266 0.201935 1.578629
H 7.88315 10.8052 5.83821 -0.614566 -0.677047 0.236209
H 7.50528 9.82224 8.71058 -0.827995 0.403737 -0.276698
H 9.30833 10.1003 5.86567 -0.312339 -1.051599 0.000615
H 12.2859 8.29805 7.96131 -0.799809 -1.588485 -0.523811
H 9.41933 11.7491 4.27326 0.18162 -0.22164 -0.171642
H 2.59116 1.28477 0.30513 0.552458 0.290614 0.225404
H 0.54776 1.39037 0.0392 0.301279 -0.358063 -0.056284
H 1.06055 2.96254 9.00317 0.60488 -1.039313 0.207263
H 2.48133 1.36991 9.64031 0.057638 -0.140426 0.173291
H 1.06099 0.82346 10.214 0.294429 0.412835 0.165971
H 3.7786 0.91826 11.7901 0.261679 0.138711 -0.578656
H 8.05993 3.55926 8.34182 0.825162 1.041777 -0.031505
H 4.79779 2.20509 9.94868 0.136033 0.606354 0.275944
H 8.00634 1.03797 9.27502 -0.153289 1.288373 -0.330399
H 4.51948 0.7007 9.49789 -0.047889 -0.36737 -0.302978
H 8.06595 11.9232 9.35877 0.219146 -0.460884 -0.143686
H 9.15357 12.32621 0.52449 -0.329063 0.019922 0.064604
H 10.2036 2.28402 11.405 -0.568497 -0.438333 0.13173
H 10.7972 3.70101 11.3669 -0.380717 -0.071511 0.076731
H 9.54974 0.40064 10.6328 0.842475 -0.02698 1.141098
H 1.77935 7.02976 12.28547 -0.321091 0.467529 -0.132232
H 0.68119 4.40666 10.6976 1.198772 0.046126 -1.970488
H 0.47292 5.34362 12.0216 0.807024 0.766961 0.028096
H 6.34082 4.67732 11.7053 -0.192607 -0.349106 -0.665476
H 6.52311 7.65784 8.67348 0.986053 1.377281 -0.571831
H 5.28017 4.37973 9.94424 -0.863419 1.277113 -0.573369
H 6.32904 3.34147 9.64128 0.554364 -0.054258 0.182666
H 9.54274 5.17842 8.72052 0.072627 -0.157756 0.218541
H 11.0511 6.39458 9.04097 -0.733546 -0.338962 1.278206
H 11.1341 5.55806 10.388 0.407259 -0.445701 0.313309
H 10.0942 7.38867 10.5636 -0.452415 0.104977 0.453292
H 0.7317 12.1456 12.2031 -0.322044 1.57754 -0.447689
H 3.49566 8.70633 9.1414 0.457351 -1.235289 -0.607856
H 2.23122 9.61781 9.26971 -0.254226 -0.090115 -0.206749
H 6.25746 10.8562 8.97531 -0.668631 -0.076405 -0.281158
H 6.57455 7.78172 11.0805 0.432757 0.061804 0.157703
H 6.75257 9.53001 0.25501 0.591558 -0.72892 -1.031662
H 7.13853 9.10924 10.5222 0.204415 -0.412315 0.648917
H 0.12097 10.0464 9.49637 0.848497 0.088427 -1.584703
H 12.2075 10.3602 11.549 0.634116 -0.096337 0.614454
H 11.0473 0.26242 11.6284 -2.81244 0.888549 -0.78109
H 8.94558 8.41583 11.2729 2.187229 -1.210447 -0.571042
H 11.0634 9.49934 10.9909 -0.587106 -0.320375 0.062987
O 3.71503 3.57414 3.31516 0.25089 0.218797 0.690204
O 1.16676 2.71046 3.44276 -2.651195 -0.131782 -0.042328
O 5.20458 2.73898 1.44029 0.241518 -0.035248 -0.979529
O 6.16466 0.19147 2.99275 1.048432 -1.541209 1.011407
O 1.40898 2.60046 0.77135 -0.594023 0.777056 -1.184876
O 8.51151 3.55297 1.18023 -0.660525 0.458487 1.11445
O 8.5173 12.0954 1.26792 -0.489455 -0.557495 -1.122309
O 2.89592 6.06868 2.50197 -1.012745 0.074761 0.967504
O 6.48812 4.83251 0.2446 -0.356598 0.788141 0.099508
O 4.97671 6.82457 1.07785 0.961898 0.210181 0.625908
O 9.279 7.4421 3.25912 -1.436592 -0.920926 1.928452
O 9.44709 4.62069 3.63803 -0.139406 0.146397 -0.33876
O 10.9033 8.23393 1.3189 -1.394784 0.598395 -0.560295
O 2.61259 7.74406 4.6036 0.18341 1.127426 -0.213827
O 3.23126 7.86286 11.7911 0.624101 -0.449168 1.410127
O 1.18484 10.5307 0.32672 -0.582507 0.603623 0.403987
O 1.87235 10.2938 3.4861 0.301275 -0.169088 0.007917
O 6.71054 8.29383 2.98439 0.484444 -1.137281 0.640473
O 3.97382 10.8392 1.56629 -0.859747 0.394849 0.514209
O 6.72171 10.0866 1.03398 -2.517547 0.667607 0.355388
O 11.9154 10.6993 2.43745 1.288016 1.221438 0.60905
O 2.56251 0.0978 4.91013 0.200355 2.211545 -2.097646
O 4.14733 3.68083 6.11362 -0.988482 -1.075445 -2.155823
O 6.35253 2.03456 6.13764 -0.845534 0.157045 0.052078
O 8.25052 2.18676 4.13977 -0.465952 -0.394641 -0.040207
O 11.081 2.91677 7.03267 -0.208318 -1.112582 -0.356676
O 10.4171 0.20619 7.26335 0.009718 -0.90346 -1.84969
O 2.51116 5.06863 7.39613 0.516978 -0.081941 0.196266
O 0.789 6.2749 5.85438 -0.137833 0.781647 -1.905924
O 5.85933 5.5116 4.19178 0.278725 0.213791 0.784755
O 8.02999 6.39978 6.42157 0.108053 0.196245 0.187861
O 4.86468 7.58752 6.19034 0.053357 -0.449364 -0.375976
O 11.8975 4.13412 4.86387 -0.876613 0.032512 1.21324
O 11.7944 7.44374 7.66281 0.144571 2.075343 1.664686
O 9.09982 4.71411 7.97582 0.953105 -0.86275 -0.595452
O 0.77002 0.04377 7.02078 -0.211966 -0.154774 0.370086
O 6.29173 9.68761 5.40726 -0.197955 0.178884 -0.167759
O 4.96694 12.0018 6.03857 -0.327122 0.428276 0.103835
O 4.62324 11.4917 8.78166 1.006479 0.743158 -1.889374
O 8.82431 10.9216 5.7131 1.045145 1.267829 -0.200875
O 9.92271 8.33011 5.91099 -1.081647 -0.818611 -0.096153
O 9.87388 12.1498 3.49886 -0.782737 -0.201257 -1.023491
O 0.36665 0.62335 11.8284 0.104481 -1.752315 0.277022
O 1.52603 1.23825 9.45093 -0.344025 0.042068 -0.5676
O 0.59562 3.75048 8.72223 -0.558875 1.317835 -0.515624
O 3.52638 0.96088 0.32333 -0.77296 -0.270432 0.289883
O 4.14075 1.49732 9.91313 -0.50976 -0.682108 0.328204
O 7.46169 2.82176 8.45649 -1.791019 -1.078821 0.721814
O 9.93611 3.23328 11.4168 0.975986 0.534589 -0.032036
O 10.0215 0.55636 11.5454 2.065283 -0.625418 0.122968
O 8.63931 0.33892 9.41489 0.326176 -0.5289 -0.074267
O 1.11682 6.61306 0.4904 0.899436 -0.504317 0.35507
O 5.67322 3.61415 10.3385 0.75775 -0.841186 0.111199
O 7.21098 8.29861 8.25631 -1.290848 -1.695637 1.053027
O 0.19728 4.58089 11.473 -2.05038 -0.708207 1.759866
O 10.498 6.02398 9.8347 0.915879 1.005188 -2.179864
O 9.94995 8.14953 11.1932 -1.759613 1.000967 0.613843
O 3.17288 9.49655 9.54365 -0.314998 1.010673 0.854802
O 0.71996 9.90844 8.63203 -1.192231 -0.309908 2.053966
O 7.20845 10.7001 9.06929 1.031978 -0.452888 0.786858
O 7.24653 8.46504 11.2792 -0.918681 0.763699 -0.933643
O 11.511 10.3556 10.8919 0.26549 0.088386 -1.060664
Na 7.36525 1.7893 2.02102 0.023424 -0.240999 -0.019281
Cl 4.8137 6.45559 8.94852 0.114246 0.090601 0.418715
188
energy=-1016.72009925 config_type=nep2xyz pbc="T T T" virial="-11.883800703043711 -0.2755731883070587 -2.643489092030634 -0.2755731883070587 -6.937156656063825 -5.688776911443897 -2.643489092030634 -5.688776911443897 -8.882936371644883" Lattice="12.4 0.0 0.0 0.0 12.4 0.0 0.0 0.0 12.4" volume=1906.6240000000003 Properties=species:S:1:pos:R:3:force:R:3
H 1.88566 12.1406 2.80702 0.025835 -0.072939 0.371218
H 1.21595 0.44294 4.11136 0.576174 -0.094281 -1.018109
H 4.67051 0.33654 11.6035 0.629554 -0.706492 -0.058588
H 10.0399 5.00407 1.16772 0.477207 -0.148516 -0.189442
H 6.59055 2.13506 4.09793 0.007767 -0.563427 0.08492
H 6.43302 4.02317 5.05772 -1.505193 -0.684914 -1.060539
H 6.65387 0.61881 3.5282 0.342011 0.822428 0.400942
H 7.84086 7.91112 7.5675 0.525347 -0.331347 -0.34654
H 10.042 3.90114 0.10422 -0.67519 -0.832406 -1.086525
H 4.96151 3.87425 4.31443 -0.448746 -0.061872 0.602296
H 6.40758 1.46898 12.1306 1.295668 0.843639 -0.086991
H 8.34428 5.4378 2.77789 0.796193 -0.398218 0.158534
H 0.48216 6.73646 0.8038 0.40438 -0.761125 1.247344
H 1.20367 5.67086 1.83848 -0.191964 0.726652 -0.097002
H 0.91776 3.00109 2.41485 -1.782286 -1.414755 -0.696122
H 0.38677 1.50577 2.55277 0.310544 -0.487831 0.12424
H 3.50203 6.18194 0.11964 0.4242 0.489763 0.206269
H 6.36732 7.52528 7.50943 -1.007836 -0.023753 0.588641
H 4.53252 7.07103 1.96514 0.357546 1.049622 0.134207
H 5.90066 9.93358 7.58972 -1.170769 -0.050703 -0.656102
H 4.45817 9.28055 7.74008 -0.67662 -0.36633 0.504748
H 7.23346 4.70987 7.44905 -0.290705 -0.593557 -0.706924
H 7.1664 5.82532 6.43918 -0.634326 -0.482623 -0.045034
H 9.66332 5.90858 3.50119 0.074563 0.121601 -0.044668
H 4.81146 4.76996 7.34772 -0.45152 -0.00276 0.437151
H 3.89411 4.24672 11.0273 -0.064039 -0.205311 0.551213
H 5.07025 4.61614 11.9332 2.009109 0.117576 0.497906
H 2.89134 4.17835 1.34859 1.475267 -0.146552 -1.571735
H 5.94989 11.666 11.6186 -0.635097 1.385579 -0.073274
H 2.65693 4.1689 2.90185 -0.104797 0.120422 -0.152557
H 12.3327 11.5733 11.0594 -1.332533 0.482722 0.511015
H 6.11256 8.9209 2.26084 0.048256 0.011942 -0.04174
H 7.33157 9.44567 1.3818 -0.107014 0.378236 0.667162
H 9.05773 10.6069 0.4377 -0.209961 -0.115569 -0.309579
H 2.48376 11.5549 7.18534 0.509783 0.053465 -0.283862
H 7.86953 10.1423 11.8112 0.367269 -0.202189 0.451118
H 9.59696 0.18364 1.30718 -0.374843 0.841149 0.40011
H 10.6146 11.4497 1.75471 -0.079428 0.488245 -0.1905
H 4.0419 11.2088 2.42641 -0.069406 0.299014 -0.222914
H 5.66043 12.3246 1.42707 -0.130094 0.461764 -1.058832
H 6.24701 11.101 2.18604 -0.297569 0.314014 0.226526
H 10.7976 9.93075 6.36074 -0.412695 0.210401 -0.125923
H 1.65803 1.97147 5.71529 0.616914 -0.555079 0.045301
H 2.8667 0.84365 5.64229 -1.286081 1.403455 -0.854983
H 7.11615 5.78713 10.9442 0.59758 0.145602 0.037588
H 9.28283 12.2291 5.85267 -0.119262 0.434581 0.018887
H 7.32388 8.62661 5.55159 0.477661 0.389536 -0.394714
H 10.8157 5.5964 7.13018 0.415623 0.129983 -0.312085
H 7.53462 9.3299 4.05621 -0.47016 -0.253219 -0.028433
H 10.074 4.5654 6.15487 0.126301 0.798519 0.320661
H 10.238 2.2979 10.7885 -1.277288 0.552685 -0.244103
H 9.34746 3.24801 9.86161 -0.267882 0.19635 -0.386365
H 12.1404 0.64163 7.55892 0.487251 0.74809 -0.45859
H 8.11672 0.86544 5.57546 0.797248 -0.041364 0.499969
H 8.13051 1.80897 2.67381 -0.438155 -0.407284 0.940827
H 8.01349 11.1117 8.58135 -0.363397 -0.187938 -0.245062
H 11.0965 12.2716 8.28072 -1.111919 -0.140601 0.775328
H 4.68391 5.78405 8.45986 -0.670476 -0.197762 0.123095
H 8.17998 6.97747 10.7205 -0.90911 -1.280537 -0.997723
H 10.1076 6.7719 5.46941 -0.602366 -0.716925 1.204042
H 11.2027 2.88889 5.52438 1.186274 -0.309825 0.813235
H 9.80518 2.26085 5.40953 0.24896 -0.213688 -0.018695
H 0.67027 3.50647 8.73863 0.692336 0.505392 1.293697
H 2.67237 4.62351 5.12715 0.056979 0.04635 -0.186676
H 2.86491 3.05626 4.66934 0.304383 0.524971 0.338866
H 8.34157 5.09313 9.22538 -0.513723 0.817239 1.005337
H 9.41609 8.02263 4.6668 0.415498 -0.709922 0.662749
H 9.0902 4.78467 7.95253 0.015942 -0.4241 0.115452
H 0.78767 3.54292 10.3969 0.135669 0.060099 -1.562385
H 11.6115 9.97057 2.97953 0.263999 -0.311345 0.431348
H 2.33911 5.63666 6.87395 -0.00374 0.670851 -0.801664
H 2.86741 6.70694 5.8418 0.481545 0.313616 -0.111063
H 9.2144 0.4694 7.76144 -0.372561 0.082949 -0.622396
H 4.90793 7.91634 9.60638 0.065089 -0.130579 0.321429
H 1.94007 10.1241 5.22621 0.582584 -0.790454 -1.344784
H 9.22602 0.85968 9.23236 -0.020407 0.644929 0.82659
H 1.44676 9.03233 4.04513 0.569814 0.702814 0.885947
H 6.21647 6.97922 9.59162 0.887763 -0.055757 0.816855
H 9.64631 8.70753 11.4891 -0.148584 -0.215391 0.236562
H 12.2036 11.4105 3.20281 0.487818 0.408636 -0.128608
H 11.6651 7.80608 7.02154 0.179503 0.483231 0.055914
H 0.59372 7.06834 6.59434 -0.29365 -0.405621 0.154258
H 11.6113 10.222 7.61009 0.929378 1.497496 0.78242
H 7.99196 9.52362 8.45967 -0.697443 1.533875 -0.144012
H 2.79319 3.2309 9.51576 -0.212659 0.257746 -0.182447
H 4.27143 3.56351 9.18989 -0.53546 -0.213239 -0.134618
H 2.47524 10.7004 0.53158 0.27581 0.294441 1.254406
H 2.34797 11.5015 11.5844 0.174553 0.842542 0.186201
H 2.71819 0.10574 10.0179 -0.96758 -1.065745 -2.599981
H 6.95022 5.04448 0.90239 -0.335366 -0.060759 0.748761
H 6.36745 4.50231 3.04786 0.211477 0.714168 -0.259776
H 7.08061 3.8719 12.2377 0.241029 -1.527371 0.076673
H 8.13584 1.97766 1.14759 -0.47072 0.119628 -0.921938
H 5.95797 6.01933 2.68512 0.561491 0.182728 -0.131114
H 3.19937 1.41241 10.6809 0.073596 0.529415 -0.458856
H 7.68725 1.97416 11.3099 -0.084873 0.502774 0.956052
H 2.63864 7.11843 1.05265 0.443137 -0.024886 -0.385686
H 3.26127 9.14158 9.55393 -0.908392 -1.488339 0.08993
H 2.10928 8.10075 8.79088 1.422295 0.613445 1.118981
H 3.47598 8.63155 5.0076 -0.771013 0.254112 -0.328563
H 4.76278 7.58624 3.4752 -0.142428 0.001247 0.055765
H 9.32957 8.16903 9.30489 0.094485 -0.000784 -1.057902
H 9.96835 8.80163 7.98834 0.051919 0.259783 -0.376143
H 4.67518 8.15825 5.79936 0.590028 0.25213 0.626412
H 11.6887 5.47216 12.176 -0.059092 -0.233617 -0.377102
H 12.2577 2.44994 0.018 -0.154029 -0.052269 -0.564589
H 0.26702 6.22383 11.0604 -0.161989 0.015402 0.006502
H 0.31675 7.81993 2.76635 0.100709 0.296383 1.277807
H 11.8392 7.82874 4.07871 0.219024 0.65596 0.000244
H 12.2285 1.27484 11.3913 -0.636491 0.97722 0.017962
H 1.9019 10.4324 8.89647 -0.037674 -0.082221 -0.070668
H 0.91759 11.6928 8.63182 -0.4354 -0.124197 0.031017
H 6.6576 10.2757 9.88901 0.16927 0.096132 -0.76653
H 1.32944 5.68508 9.74736 0.553398 -1.577034 -0.378798
H 0.66419 6.68489 8.8589 -0.519843 0.21222 -0.616041
H 5.62454 9.83214 11.037 -0.77584 -0.966594 -0.005222
H 10.4908 7.34382 11.2137 0.345029 0.107586 0.197006
H 3.8394 11.221 6.48429 0.245743 -0.454815 0.283695
H 8.9796 10.2907 5.08676 -0.283694 -0.402415 0.12434
H 10.2473 11.0873 4.43808 -0.467971 -0.815785 1.106615
H 10.9354 11.8094 11.8863 -0.365176 -0.405603 1.13647
H 3.71409 8.27603 11.5517 -0.385559 -1.52684 1.215841
H 3.51885 9.76136 11.3149 -0.06279 -0.165572 0.418747
H 2.98788 10.5077 3.37069 -0.445956 0.143409 -1.477093
O 1.05404 0.13105 3.18108 -0.356358 -0.241039 0.729835
O 0.88078 6.61365 1.74391 -0.042628 0.115538 -1.277667
O 5.57555 0.15409 11.9757 -0.307604 -0.684431 -0.046957
O 7.16501 1.32248 4.04056 -0.52407 -0.584222 -0.476426
O 7.13794 7.60129 6.9506 0.328378 -0.024499 -0.87629
O 5.8917 3.58156 4.28552 1.589387 0.884478 1.145767
O 10.1729 11.8952 0.97207 -0.206 -1.279369 0.197708
O 10.6355 4.44999 0.59459 -0.033394 1.02994 1.119588
O 0.08923 2.39109 2.29533 1.266907 2.268082 -0.048453
O 4.20976 4.98293 8.10298 1.259691 0.492297 -0.733115
O 3.5082 7.07858 0.57062 -0.95826 -0.839293 0.137452
O 5.01514 9.76273 7.13213 1.579054 0.648739 -0.120561
O 6.79295 4.91001 6.57522 0.705433 0.723471 0.461323
O 9.33014 5.22895 2.88574 -1.079509 0.642395 -0.222325
O 4.12968 4.64075 11.9031 -2.306767 0.081805 -0.518171
O 2.22291 4.17974 1.99976 -1.356986 0.241278 1.875557
O 6.78236 9.64487 2.19321 0.495977 -0.797023 -0.487552
O 2.94767 11.5573 6.31358 -0.719051 0.442699 0.254953
O 11.5939 12.1877 11.3136 2.506906 -0.270737 -2.200616
O 8.55596 9.8326 0.06728 -0.066226 0.218924 -0.191084
O 5.78614 11.9876 2.31084 0.189463 -0.550381 1.056359
O 2.37432 1.60134 5.12487 0.238681 -1.199816 1.125254
O 8.93216 0.72664 6.14626 -0.731573 0.078724 -0.773646
O 7.92175 9.13772 4.92789 -0.269655 -0.497418 -0.100753
O 9.28812 2.5795 10.5645 1.881484 -0.952727 0.586282
O 9.98921 5.43378 6.64675 -0.299908 -1.112181 -0.425837
O 8.71716 1.90193 1.91455 1.265337 0.105726 -0.104396
O 11.9447 12.143 7.8502 0.656685 -0.882356 -0.185709
O 7.54982 6.33 10.2253 0.818703 0.938818 1.504612
O 10.1899 7.40574 4.76503 0.111183 1.207224 -1.886694
O 10.4153 2.90977 4.998 -1.512346 0.498612 -0.76077
O 3.14803 4.01237 4.51885 0.085702 -0.401588 -0.522931
O 8.56084 4.34481 8.67103 0.504059 -0.180615 -1.078473
O 1.15058 3.94906 9.5415 -0.84481 -0.813815 0.811264
O 2.1349 6.08792 6.0109 -0.347098 -1.032592 1.151304
O 2.24002 9.57995 4.43141 -1.063724 0.2969 1.106955
O 9.40928 0.12148 8.6556 -0.061674 -0.748426 -0.074356
O 7.37107 10.3629 8.46747 1.522089 -1.068502 0.093297
O 11.3712 10.9046 3.08746 -0.704202 -0.092273 -0.187624
O 5.43236 7.27127 9.11317 -1.071711 0.153061 -1.324319
O 11.1538 9.52642 7.18232 -0.604913 -1.492235 -0.818994
O 12.2053 7.01817 7.17931 0.408475 -0.416525 0.125171
O 3.7082 2.94963 9.71593 0.320917 0.06107 0.373085
O 2.38438 10.6324 11.9894 -0.40014 -1.139242 -0.980252
O 3.0454 0.47025 10.8033 1.13899 0.978279 2.828163
O 6.82985 4.78021 12.37818 -0.247436 1.578707 -1.41034
O 6.62636 5.31261 2.49974 0.150441 -0.63183 0.50355
O 7.18223 2.1703 12.1434 -0.888175 -1.336287 -0.885383
O 0.12362 8.37535 3.60535 -0.502845 -1.108836 -1.452189
O 2.78456 8.83284 8.74273 -0.391396 0.724269 -1.240948
O 5.19551 7.48943 2.60009 -0.649423 -0.614861 -0.01641
O 9.16145 8.33434 8.31614 -0.101331 -0.081984 1.887949
O 4.00166 7.83274 5.20356 0.391227 -0.594177 -0.430596
O 12.0568 6.30836 11.8153 -0.130757 0.770345 0.113084
O 12.1242 2.28445 11.4533 0.477158 -0.355452 0.778874
O 1.74975 11.3857 9.05903 0.413303 0.069298 -0.174489
O 1.33979 6.61907 9.54515 -0.247335 1.174041 0.399869
O 6.44663 10.2823 10.8419 0.646342 0.781527 1.291304
O 9.78561 7.93524 10.8992 -0.499151 -0.011607 -0.253168
O 9.77433 10.8191 5.29974 1.405972 1.07565 -1.114539
O 3.10117 10.9297 2.43943 0.407022 -0.087857 1.082919
O 4.10157 8.97868 11.0542 0.591077 1.896115 -1.179275
Na 10.4161 3.30967 2.59004 0.213307 -0.622819 0.52259
Cl 0.21774 2.55254 7.16135 -0.05584 0.214003 -0.425196
188
energy=-1015.78242702 config_type=nep2xyz pbc="T T T" virial="-3.9030431348679624 0.08420589370215258 -0.9475424081600051 0.08420589370215258 3.5122402025363217 0.2249139896792939 -0.9475424081600051 0.2249139896792939 -6.121801792737556" Lattice="12.4 0.0 0.0 0.0 12.4 0.0 0.0 0.0 12.4" volume=1906.6240000000003 Properties=species:S:1:pos:R:3:force:R:3
H 8.57822 5.11908 6.71851 -0.035753 0.117899 0.253543
H 9.81971 6.0871 7.10521 -0.317954 -0.394864 -0.161443
H 10.3563 8.85377 10.1455 0.322102 -0.039818 0.674621
H 11.821 9.17152 10.4116 0.421575 -0.018498 -0.139981
H 6.81187 2.11855 2.41803 -0.010864 0.319591 -0.210623
H 8.15574 2.52039 3.03949 -0.66526 -0.224984 0.050358
H 5.16526 8.67955 7.2636 -0.103172 -0.159295 0.052026
H 6.17681 7.68218 7.85512 1.375928 -0.409566 0.85549
H 5.13607 8.40318 10.5383 -0.350754 0.658956 -0.395538
H 4.91275 9.95796 10.5479 -0.486984 -0.664562 -0.532532
H 8.37277 11.4948 0.53579 -0.085092 -0.049676 0.06933
H 9.92838 11.0954 0.66192 -0.193777 0.235229 -0.243555
H 6.60657 9.23442 4.06218 0.551206 0.173277 0.573666
H 7.94212 9.34715 4.9262 0.24702 -0.321372 0.034648
H 3.06101 8.4515 4.07623 0.647876 -1.05541 -0.032257
H 1.52808 8.52573 3.99639 -1.896752 -1.333976 -0.05441
H 6.85889 2.19258 0.22083 0.111156 -0.047133 -0.023089
H 5.4549 2.04053 0.90918 -0.301747 -0.211164 0.045368
H 8.61329 9.4842 1.37278 -0.428681 -0.123868 0.032956
H 7.21516 10.1593 1.51143 -0.238519 0.722448 0.015351
H 4.70691 11.4247 6.22588 -0.60366 0.267536 -0.452387
H 5.6765 10.2689 5.86188 0.077329 0.358459 0.751346
H 3.35079 6.13678 3.6676 0.779108 0.741794 1.188099
H 3.86305 6.31051 5.20508 0.03321 0.396704 -0.967308
H 2.36904 0.31247 10.7589 0.408102 0.27482 1.606612
H 2.09294 0.01251 0.0021 0.0085 -0.119876 -0.849852
H 4.63185 9.39889 2.68823 0.763872 -0.773724 0.289682
H 4.8147 10.8142 2.04239 -0.372944 -0.925459 0.074202
H 10.1549 2.2032 1.70496 -0.078474 -0.255858 0.677801
H 9.38407 0.81718 1.57874 0.065073 0.390938 0.475273
H 1.92701 5.02865 2.40301 0.382462 0.180341 0.442573
H 1.36935 4.359 3.66438 0.079357 -0.402118 0.215213
H 9.22559 0.96971 8.04195 0.139051 0.746134 0.288515
H 9.65006 2.00747 9.14784 0.194843 -0.180197 0.539136
H 7.31951 7.41199 11.7114 -0.148103 0.041084 0.008076
H 6.67527 8.51882 0.1598 0.378695 0.194839 0.565096
H 11.5473 1.39833 5.83233 -0.843411 -1.001821 -1.373518
H 11.3931 2.09169 7.11092 -0.328768 0.350857 0.868354
H 3.18193 9.07732 11.5758 0.709314 -0.005546 -0.318741
H 3.58279 9.31466 0.72212 0.006268 0.01456 -0.291242
H 1.489 2.16758 3.36059 -0.37379 0.613526 0.795308
H 0.88459 2.56886 4.73072 -0.348507 -0.145329 1.003978
H 7.86216 6.76278 9.36536 -0.111033 0.052281 0.587436
H 8.13176 6.73376 7.87648 0.020992 0.04215 -0.675013
H 3.35658 3.13531 0.92468 -0.015022 0.806313 0.310085
H 3.37526 1.73083 0.25869 -0.039683 -0.216641 0.00035
H 6.50735 2.86382 9.82917 0.234713 0.166042 1.063236
H 5.21675 3.0658 8.88337 1.579299 -0.919527 0.281116
H 7.5702 4.01929 11.6376 -0.272474 -0.697248 -0.387619
H 8.38919 2.79154 11.1418 -1.053806 0.027115 0.584021
H 12.1583 3.1762 0.98758 -0.116132 -0.386027 -0.039632
H 12.1132 2.95298 2.53257 0.403978 -0.119611 1.00949
H 5.01607 1.1009 5.49903 -0.074918 0.483153 0.177264
H 3.48242 1.03128 5.93725 0.530805 -0.493905 -0.202104
H 6.41824 0.06373 1.16414 0.045861 0.169759 -0.180878
H 6.10707 11.4785 0.01862 -0.226499 -0.076445 0.441864
H 2.71601 3.32806 8.05196 1.144494 0.237772 0.547657
H 3.56654 4.62321 8.04829 0.21789 0.287763 -0.336055
H 11.721 11.7868 4.60345 -0.695042 0.581254 -0.038357
H 12.0131 10.4958 3.88377 -0.474954 -0.906018 -0.405031
H 8.30397 11.6738 6.96713 -0.045557 0.20921 0.682671
H 7.65579 11.8486 8.3867 -0.648941 0.037335 0.131247
H 6.57634 2.46161 4.67293 -0.082952 -1.058585 2.090085
H 6.80259 2.78981 6.2404 0.23724 -0.077979 0.273367
H 1.48861 11.457 9.79297 -0.110092 -0.663041 -0.90168
H 2.76979 11.5221 8.87979 0.393405 -0.835071 -0.402164
H 5.93305 0.79482 8.65827 0.124403 1.578237 0.099638
H 5.70412 11.8948 7.81036 0.099696 -0.53672 0.51386
H 8.49076 3.19104 7.73219 -0.096173 0.029147 -0.835839
H 7.11013 3.73312 8.00229 0.803782 0.144848 -1.255016
H 2.26048 4.33327 10.1177 -0.366049 0.406315 0.296871
H 1.02624 5.17398 10.761 -0.918818 0.813164 -0.589079
H 7.28053 0.57966 5.42734 -0.33009 0.869204 0.157536
H 7.425 11.448 4.93595 0.439415 0.222452 0.107942
H 1.29802 10.9449 5.93665 1.237388 -0.313147 -0.3516
H 2.54403 10.2408 5.26855 -0.613897 -0.142871 0.069129
H 10.162 7.35306 2.28758 0.908851 0.483159 0.407515
H 10.0253 8.31342 3.52861 0.253146 -0.061598 0.077329
H 5.0352 7.34888 3.81403 0.529919 0.441895 -0.403192
H 6.39194 7.39455 3.03856 1.817043 -1.409547 -1.09244
H 7.09367 4.4039 2.79378 -0.068429 0.303703 -0.026998
H 8.28788 5.1984 2.27459 -0.854907 0.478722 -0.053086
H 10.7554 4.8906 1.59349 0.571452 -0.765233 0.441477
H 9.72374 5.62741 0.72578 -0.105123 0.130421 0.056128
H 0.73261 6.67612 3.86134 -0.715849 0.291871 -0.207437
H 11.8566 7.62189 3.50171 -0.221849 -0.102779 -0.10839
H 5.60236 6.2145 12.2073 0.479571 0.077901 0.383961
H 6.02882 5.09433 0.8543 0.478725 0.649349 -0.034
H 12.2345 6.44589 7.45057 -1.089065 -0.066426 0.167843
H 11.638 6.07196 8.80432 -0.217225 -0.28197 1.384034
H 10.7027 2.07238 11.4941 2.083124 0.435657 0.662319
H 9.6837 0.9226 11.3411 -0.046116 -1.206938 0.634338
H 0.88272 3.22689 11.3968 0.951674 0.793214 -0.570022
H 0.89805 1.73746 11.9428 0.303726 0.407399 -0.249601
H 4.22576 6.70402 7.02832 -0.066604 -0.438537 0.302024
H 2.70863 6.18823 6.84388 0.411861 0.06777 -0.109483
H 9.2281 7.51332 5.52198 -0.730491 -1.920659 0.555248
H 10.1016 8.70893 5.80332 -0.3077 0.055825 -0.70412
H 11.6929 7.01234 10.5945 -0.026523 0.532661 0.166926
H 10.9315 5.72302 10.8523 1.261477 0.362877 -0.432322
H 8.9347 8.50155 8.73884 -0.268589 1.179473 0.139254
H 8.91289 10.1212 8.37687 0.079297 -0.107933 0.762269
H 1.27915 1.44485 6.78423 -0.933789 -0.3413 0.625282
H 2.48184 1.0403 7.83196 -0.9189 -0.259752 -0.041257
H 10.8337 9.30535 1.54135 1.079294 0.485249 -1.229258
H 11.2372 9.25845 12.3889 -0.367072 -0.815257 -1.212586
H 1.26541 9.43143 9.03241 2.239456 -1.624792 -1.261366
H 12.3074 10.0008 8.60756 0.741911 -0.18716 0.277423
H 4.08896 4.97689 0.66898 0.405245 -0.153964 0.261866
H 2.70473 5.00589 0.20345 -1.201988 -0.05319 -1.070097
H 10.2875 0.91057 3.91793 0.622094 0.015538 -0.41308
H 9.52943 0.15018 4.92247 0.917528 -0.193756 0.399564
H 3.1093 1.36074 2.23719 -0.073303 0.360616 0.928052
H 3.28358 1.04136 3.84224 0.598699 -0.042918 0.338986
H 5.70149 11.8277 10.1406 -0.526872 0.298128 -0.552784
H 4.41071 12.0644 11.1152 0.535745 -0.094057 -0.251569
H 10.5727 9.32949 7.77833 -0.024485 0.30609 0.296875
H 11.6407 8.40586 7.31111 0.511405 -1.179759 0.070976
H 1.51781 7.83114 6.97571 0.16852 -0.765436 0.614049
H 0.93887 7.18143 5.73866 -0.321499 -0.718294 1.042132
H 1.88243 10.3411 0.56176 0.195512 0.049243 -0.294668
H 0.41759 10.7903 0.68956 -0.026832 0.227645 0.291854
H 3.4571 9.08078 8.5792 -0.338545 -0.207177 -0.877366
H 2.77357 9.60256 7.15675 0.235749 0.796915 0.041244
O 8.92023 6.04643 6.67877 0.857968 0.642188 -0.080791
O 11.0992 8.62369 10.7748 -0.348965 0.138134 -0.367398
O 7.1768 2.65032 3.17031 0.674997 0.067664 0.503606
O 5.34299 7.73664 7.40852 -1.27532 0.707524 -0.989047
O 4.5473 9.10575 10.1534 0.475593 0.086499 0.77835
O 9.27583 11.8407 0.58363 0.429648 -0.021444 -0.20831
O 7.14985 9.8423 4.66577 -1.204828 -0.083661 -0.551567
O 2.30776 9.0274 4.13811 1.229711 2.283011 -0.030778
O 6.37302 1.68621 0.9268 -0.283184 0.196416 -0.016418
O 7.6641 9.30674 1.47349 0.76885 -0.940259 0.058195
O 5.16604 10.6617 6.62071 0.613415 -0.474834 -0.511925
O 3.92115 6.73599 4.26288 -1.934365 -1.943335 0.528638
O 2.48911 0.64244 11.7353 -0.099538 -0.213497 -0.451134
O 4.14064 10.131 2.31179 0.126605 1.69656 -0.668041
O 9.52723 1.6002 2.18033 0.135064 -0.148941 -0.422006
O 1.83705 5.1683 3.37124 -0.175864 0.868299 -0.748862
O 9.48286 1.92134 8.20335 0.016604 -0.726344 -0.548977
O 6.47178 7.87743 11.8689 -0.317084 -0.621475 -0.73521
O 12.0719 1.81801 6.4968 0.901659 0.487593 0.318183
O 2.86188 9.16084 0.07974 -0.600876 -0.033186 0.675359
O 0.83949 2.82791 3.81767 0.750094 -0.929135 -1.274087
O 7.70522 7.29859 8.5752 0.323246 -0.040111 0.20525
O 3.69627 2.21841 1.0527 0.390266 -1.114777 -0.456778
O 6.13857 2.60947 8.97696 -2.438261 0.818438 -1.090005
O 7.44266 3.06436 11.3741 1.376534 0.731685 -0.258209
O 11.584 3.22765 1.78636 -0.442508 0.67503 -1.409554
O 4.19785 0.56749 5.40867 -0.548076 0.258596 0.202735
O 6.38469 11.4954 0.97809 -0.159456 0.025226 -0.298198
O 3.42007 3.8131 8.57602 -1.124972 -0.681629 -0.250076
O 0.04565 11.1967 4.34765 1.556031 -0.129003 0.053805
O 8.48823 11.6078 7.95558 0.638427 0.150149 -1.309209
O 6.40207 2.09755 5.67762 0.198517 0.698364 -2.763927
O 2.20689 12.0245 9.45372 -0.35961 1.226189 0.453896
O 5.96641 12.2424 8.70093 0.222676 -0.701301 -1.080487
O 7.83495 3.80346 7.2868 -0.816721 -0.637394 1.679995
O 1.71085 4.52627 10.9158 1.441514 -0.81985 -0.060711
O 7.8953 12.2402 5.32714 0.403934 -1.063233 -0.063896
O 2.28806 10.846 5.99486 -0.809358 0.4181 0.657518
O 10.6064 8.14176 2.7395 -1.57152 -0.642507 -0.703499
O 5.72242 7.95912 3.33956 -1.373849 1.880154 0.780096
O 7.30591 5.29788 2.43254 0.780586 -0.64173 -0.126414
O 10.0483 5.53616 1.65001 -0.705816 0.909735 -0.061903
O 0.16755 7.44238 4.16101 1.658696 -0.837184 0.300535
O 5.50547 5.27372 0.05058 -0.331636 -0.400336 -0.002312
O 11.3498 6.33798 7.93188 0.768694 0.457591 -1.710921
O 9.85777 1.83639 11.1743 -1.779476 0.780937 -1.452284
O 0.37504 2.55516 11.857 -1.555339 -1.326865 0.96531
O 3.65548 5.91034 6.77349 -0.217577 0.213181 -0.036236
O 9.43846 8.35606 5.15026 1.029222 1.900014 0.224893
O 11.8497 6.0495 10.5557 -1.005378 -0.971893 0.398543
O 9.38508 9.39928 8.89517 -0.266146 -1.221422 -0.756599
O 2.19503 1.55156 7.06688 1.9154 0.84992 -0.264317
O 11.2017 9.84314 0.7432 -0.856603 0.53482 2.541903
O 0.57625 9.95858 9.35039 -2.884565 1.785952 0.919192
O 3.18036 4.65833 0.94846 0.223714 0.505408 0.523897
O 10.5016 0.36562 4.7068 -2.120931 0.677169 -0.121139
O 2.66108 1.05131 3.10184 -0.49544 -0.311562 -1.114307
O 5.24217 11.5662 10.9656 -0.406648 -0.373697 1.493014
O 11.3958 9.31949 7.21353 -0.592799 0.713315 -0.285239
O 1.15721 6.94794 6.70095 0.265648 1.648295 -1.626158
O 1.3298 11.1276 0.83569 -0.257971 -0.337462 0.12218
O 2.77194 8.93785 7.86652 -0.10213 -0.436072 1.209455
Na 2.09493 11.1858 3.01236 -0.03673 -0.033772 0.204235
Cl 8.90865 5.89214 11.3089 -0.31335 -0.062683 -0.250639
188
energy=-1016.2912298 config_type=nep2xyz pbc="T T T" virial="-2.0326036557239213 2.7891833764562213 -1.537304969774615 2.7891833764562213 -25.512731662410143 -4.733999174938653 -1.537304969774615 -4.733999174938653 -14.378727559775072" Lattice="12.4 0.0 0.0 0.0 12.4 0.0 0.0 0.0 12.4" volume=1906.6240000000003 Properties=species:S:1:pos:R:3:force:R:3
H 1.96383 2.18553 1.85207 0.547694 1.785847 -0.565332
H 1.12069 0.9889 1.25363 0.326459 0.328416 0.292293
H 0.78007 1.32761 3.54063 0.109234 0.328911 -0.579105
H 3.37093 3.91428 1.75178 -0.120394 -0.480272 0.231257
H 4.17855 3.75724 3.41073 -0.00071 0.606087 0.586185
H 5.74108 2.07804 2.31541 0.060081 -0.031743 -0.109282
H 6.34217 1.38495 0.99478 -0.641761 -0.32404 2.544364
H 8.32794 1.8519 2.13617 -1.160364 -0.282904 -0.103239
H 7.09643 5.07558 1.66139 -0.795001 0.911079 -0.43599
H 9.89173 1.89734 0.4453 -0.844892 -0.041995 0.410715
H 9.02443 3.70248 2.07124 0.306299 -0.109118 0.20912
H 9.70602 1.48146 2.63484 0.223759 0.103101 0.499335
H 8.44089 3.65187 5.29316 -0.827819 -0.575851 -0.281505
H 9.34539 5.21081 2.46831 0.045471 0.10542 0.042853
H 11.2062 0.93438 4.14955 0.420496 -0.074311 0.278265
H 1.98762 4.64977 1.71978 -0.475201 0.295214 -0.04497
H 5.10743 4.26958 2.17503 0.316096 0.147394 0.638573
H 3.55615 7.31162 0.19934 0.099226 -0.045932 -0.14743
H 2.12531 7.24995 12.1219 -1.440991 -1.54886 -2.177194
H 5.90613 5.85873 0.73436 0.425641 -0.533297 0.343378
H 6.00646 6.26414 11.1946 0.037836 0.000479 0.026294
H 6.11613 8.64335 1.33604 0.011445 -0.361555 -0.314889
H 6.02675 6.92438 2.62887 -0.42719 0.446624 -0.113408
H 4.78405 5.19293 11.3072 0.340908 0.636438 0.11788
H 11.7874 6.16156 2.8205 -0.848074 0.162104 0.234985
H 10.3236 7.6403 2.18648 -0.149534 0.361523 -0.716562
H 7.93796 2.17272 5.31001 -0.430206 1.428656 -0.378722
H 10.1607 7.61911 3.77506 -0.0634 -0.041342 -0.205733
H 0.1939 4.92562 3.41667 -0.23883 0.986419 -0.501542
H 2.80534 12.1768 2.36784 1.382037 -0.794429 -0.175101
H 1.97859 10.5489 2.51022 1.104257 -0.245659 0.274428
H 0.54277 10.2372 2.23812 -0.686733 -0.30512 -0.240971
H 3.99885 11.3675 3.11486 0.263395 0.189374 0.01264
H 4.17647 11.1511 0.42682 0.039707 -0.258072 0.133123
H 5.76497 12.2964 3.33931 -0.280303 -0.905252 0.837143
H 5.922 8.27718 3.52269 0.881216 0.481049 1.047917
H 9.12305 10.4692 1.1414 -1.228078 -0.881402 -1.172752
H 7.82601 9.64353 0.47416 0.944747 0.712426 -0.162494
H 5.7658 9.61918 0.09914 0.877787 -0.964825 0.382073
H 12.2009 11.7485 0.21025 0.168039 1.171056 0.018935
H 9.58462 10.2639 3.88568 -0.013322 -0.261437 -0.611596
H 10.8428 10.628 1.75672 0.704699 -0.084139 -0.112317
H 9.82333 11.6978 3.37725 -0.144165 -0.959141 -0.355004
H 11.4442 9.69306 0.57121 0.624363 1.863437 1.500583
H 0.2865 2.9426 4.6949 0.380356 -1.350826 0.114814
H 1.11199 0.88428 4.91824 0.388524 -0.433947 1.298584
H 2.70237 4.81167 5.07177 1.187107 -0.398216 -0.044684
H 1.7418 0.37284 7.06197 -0.054658 0.441679 -0.587606
H 4.10521 4.02948 5.44281 -0.133761 -0.145898 0.168732
H 3.71666 0.48321 6.13943 -0.145367 0.076155 0.122331
H 12.3917 2.1005 7.87475 -1.967464 0.802202 -0.290319
H 4.85219 12.1447 6.93296 0.181742 1.301836 -0.800391
H 8.66728 0.7155 7.24565 1.029405 0.603336 -0.016661
H 10.072 1.66032 7.10447 -1.361594 -0.528413 -0.054362
H 9.89071 0.80856 4.96617 -0.298301 0.142929 0.428313
H 10.7876 3.69661 7.18152 -0.26224 -0.597314 0.365427
H 0.36611 4.35757 5.37551 0.455845 0.480511 0.166739
H 1.45846 6.42808 6.22054 -0.18809 0.277846 -0.39599
H 4.08416 7.65446 3.40931 0.449926 0.262842 -0.514762
H 1.61749 5.05952 6.8249 0.271585 -0.080708 -0.459376
H 0.0505 7.55195 7.99236 -0.742198 0.155934 0.780313
H 3.77555 6.39302 4.10382 -0.076679 -1.053955 0.542407
H 6.09429 3.26307 5.84558 1.853293 0.913517 -1.020696
H 5.30335 2.0868 6.18365 -0.96281 0.0548 0.678817
H 5.53668 3.89299 7.82854 -0.301689 -0.160466 -0.257128
H 7.96747 6.36439 8.23422 0.499284 0.190363 -0.52924
H 4.63072 4.49974 8.93761 -0.047001 -0.173892 -0.264925
H 10.6923 4.18017 5.34451 -0.479498 -0.064844 -0.076738
H 9.85008 5.29802 6.19467 -0.240831 -1.126714 -0.144316
H 10.4688 6.57956 7.84475 -0.552147 0.375232 -0.449166
H 9.76886 7.22865 6.54831 -0.408651 -0.037645 0.345745
H 1.01487 8.6344 6.36519 -0.025306 0.471404 0.151274
H 1.78667 11.4801 6.16431 0.234883 1.103785 -0.19197
H 0.8615 10.1105 4.56718 -0.185434 -0.105281 0.29729
H 1.80485 8.01185 7.66091 0.436232 0.774801 0.076296
H 5.94213 7.92621 7.93717 0.047778 0.529351 -0.380089
H 5.17132 12.193 4.82895 0.200527 -0.351727 -0.323444
H 6.14757 8.79571 5.70093 0.201044 1.056187 -0.759622
H 6.25723 10.1212 4.64557 0.042081 -0.884046 0.666295
H 5.25753 9.40487 7.60474 0.38929 -1.765194 0.039532
H 8.38441 8.66598 5.00147 -1.187333 0.009348 -0.098661
H 12.0686 10.3328 5.58778 -0.289576 0.066689 0.375964
H 10.0356 11.528 6.55089 0.246381 -0.32984 0.533881
H 9.44248 9.24168 5.9698 0.196055 -0.646324 -0.82121
H 10.5824 10.3757 7.57327 0.186007 0.599108 0.132172
H 1.37838 2.50262 8.39959 -1.017738 -2.210702 -1.748594
H 0.65973 0.38194 9.19957 0.369951 0.39947 -0.393226
H 3.08913 3.46612 12.1906 -0.424962 0.079752 0.062522
H 3.03418 3.39835 10.601 0.119813 -0.089655 0.300455
H 4.69401 1.55845 11.5565 1.843397 -0.436848 0.550695
H 6.22024 1.60313 11.2106 1.280579 0.911719 -1.312811
H 7.31121 1.03718 9.14142 -0.089952 -0.447605 0.073736
H 6.41196 3.15011 9.55835 0.480226 -0.151409 0.131926
H 7.98826 2.87142 9.72079 -0.398477 0.08167 0.675539
H 10.996 1.27665 12.053 0.871558 -0.374624 -0.151126
H 10.45 3.35347 8.75214 0.930225 -0.954655 -1.437393
H 9.82911 2.80724 10.8405 0.322287 -1.273966 0.36716
H 1.24863 10.1615 11.2918 -0.240136 0.232124 -0.177886
H 9.60362 4.98598 0.19603 -0.440804 1.226442 -0.202994
H 6.50221 6.1105 8.59227 -1.614306 -2.235397 0.025037
H 7.00711 7.90874 11.6615 0.306662 -0.848748 -1.080183
H 7.29886 7.14993 10.1241 -0.028574 0.696938 -0.613693
H 8.78601 6.05533 11.6687 0.185233 -0.280467 0.326263
H 1.65804 9.1518 12.30905 -0.446012 0.378641 0.319681
H 12.2301 7.20758 9.55107 0.374937 -0.319336 0.260649
H 9.60102 4.25848 10.5862 -0.118587 -0.490461 -0.858479
H 9.632 8.74684 0.20892 0.766224 -0.097562 0.524426
H 10.1771 7.32663 12.29067 0.801455 0.402856 0.961782
H 2.01915 7.24513 9.92567 0.130434 -0.039893 0.105657
H 3.70081 8.05997 8.49008 -0.510697 0.990243 0.362175
H 2.9431 9.32938 9.23686 0.465023 -0.400579 -0.197535
H 2.41118 11.3462 9.84641 -0.068049 0.330973 0.098861
H 3.733 10.9181 10.7228 -0.00686 0.247256 0.013725
H 0.40231 0.2612 11.4582 0.658797 -0.261231 -1.177611
H 5.27649 11.8421 11.9919 -0.520445 -0.544982 -0.387197
H 6.02043 11.3869 8.45766 0.835794 0.562833 0.274789
H 8.07143 12.1195 9.66005 -0.735089 0.736343 -1.589361
H 1.54447 5.75963 10.0228 0.228422 1.029597 0.714466
H 4.49232 11.0415 8.56497 -0.092828 0.0792 0.47981
H 9.73618 0.08185 10.9346 -0.201303 0.201061 0.268945
H 9.18132 11.168 11.5006 -0.698303 -1.395629 2.025225
H 0.00068 11.4452 9.62581 0.394746 -0.311772 -0.114877
H 11.2423 9.17684 9.19281 -0.008647 1.073703 -0.013617
H 10.4164 10.5698 9.69102 1.047928 -0.777445 -0.591794
O 1.66576 1.30694 2.02647 -1.063168 -2.371959 0.142269
O 2.46271 3.9075 1.33942 -0.236276 -0.078511 -0.274758
O 6.33932 1.34394 2.04628 0.442603 0.250931 -2.142851
O 8.90474 4.63934 1.82164 -0.377688 0.121849 -0.160026
O 9.25772 2.00544 1.94659 0.307843 0.18757 0.120143
O 4.60245 3.51887 2.55905 0.673369 -0.54461 -1.056669
O 2.66125 7.63162 0.37526 1.191953 1.317308 2.324387
O 6.21992 5.57607 1.64045 0.553564 -0.615556 0.103064
O 5.10677 6.08881 11.5571 -0.783177 -0.828777 0.325692
O 6.41895 8.88666 0.41535 -1.13602 1.577073 0.002889
O 5.56219 7.80092 2.7764 0.384824 -0.216683 -1.255651
O 0.24726 5.7264 2.81641 1.293663 -1.087024 0.34086
O 7.6339 3.08369 5.02351 1.40118 -0.856955 0.627594
O 10.3557 7.08772 2.98032 -0.069789 -0.404272 0.769023
O 3.41763 11.364 2.32308 -1.554066 1.317572 -0.564919
O 1.27348 9.95409 2.82278 -0.620802 -0.228054 0.293194
O 5.41556 11.6341 4.02335 0.409233 1.340074 -0.371129
O 8.74771 10.0787 0.28304 -0.456587 0.383629 1.728279
O 11.6291 10.5504 1.15111 -1.876302 -1.825041 -0.448238
O 9.60455 10.7548 3.03973 0.220531 1.023012 0.753193
O 0.45525 1.42052 4.46392 -0.143443 -0.595391 -1.128489
O 3.57983 4.43922 4.72344 -0.810952 0.535221 -0.032861
O 2.10681 0.0327 6.21064 -0.669598 -1.501117 0.330151
O 4.68356 0.54641 6.29961 0.386659 -1.642972 0.292255
O 9.40001 1.03987 6.64613 0.216693 -0.150945 0.362068
O 10.2677 0.66513 4.07983 -0.016862 0.010269 -0.494764
O 3.33257 7.16795 3.7701 -0.805212 0.264914 0.363393
O 1.5042 5.4827 5.93546 -0.124282 -0.333007 1.246959
O 12.2228 3.76609 4.83954 -1.092682 1.727668 -0.351871
O 5.28361 3.0691 6.29228 -0.820383 -0.431799 0.612881
O 5.56875 4.36054 8.69188 0.55298 0.353566 0.354528
O 9.825 4.35322 5.80581 0.690779 0.950229 0.010425
O 9.68971 6.50978 7.21737 0.744392 0.04372 0.363814
O 1.10112 7.88343 6.99025 -0.014519 -0.888414 -0.520942
O 0.60226 10.0778 5.53099 0.659414 -0.004661 -0.762179
O 6.62011 9.22466 4.92352 -0.489076 -0.114784 0.082004
O 5.23415 8.38369 7.43258 -0.152581 1.253083 0.073879
O 5.27725 11.0019 7.97688 -0.732492 -0.367329 -0.43456
O 9.25772 8.46838 5.34397 1.23069 0.940029 0.761006
O 10.3944 10.6172 6.63249 -0.331075 -0.08537 -0.855603
O 0.85665 1.71834 7.87261 3.234022 1.404092 2.373657
O 3.47839 3.04818 11.4023 0.528395 -0.227454 -0.419726
O 5.61347 1.12108 11.7487 -3.011275 -0.205262 0.822273
O 7.08728 2.52887 9.96076 -0.310675 0.196081 -0.646492
O 7.54944 0.11271 8.85323 0.649789 -0.519572 1.158725
O 10.112 1.65693 11.9268 0.195699 0.057846 -0.429176
O 10.9694 3.02836 7.8918 -1.023078 0.79835 1.084761
O 9.56603 3.37599 10.0947 0.105177 2.286293 0.196169
O 1.50311 6.64072 10.5051 -0.367609 -0.840474 -0.708717
O 0.96412 9.84314 12.1574 1.65268 -0.902989 -0.830566
O 9.67507 5.67272 11.8743 -0.154634 -0.682864 -0.541571
O 7.14897 6.77895 8.53262 1.051221 1.64897 0.218175
O 7.38943 7.15535 11.0907 0.267273 0.050426 1.771181
O 10.3942 8.13384 0.45434 -0.928448 -0.493126 -1.123964
O 11.7546 7.44925 8.74518 -0.270175 0.277957 -0.585176
O 0.79414 12.012 9.78328 -0.552125 -0.180495 0.115033
O 2.85108 8.39664 8.90282 0.332705 -0.556302 -0.291107
O 3.29682 10.9327 9.83361 -0.050242 -0.565402 -0.497135
O 4.72796 10.9911 12.0298 0.510051 0.708212 0.70743
O 0.04423 0.30473 12.3369 -0.716109 -0.563094 1.512647
O 9.31679 11.6364 10.7016 0.778658 1.168803 -2.596313
O 11.1812 10.1885 9.12886 -1.170237 -0.325707 0.820207
Na 1.59701 7.61508 2.66312 -0.225178 0.010869 -0.387119
Cl 2.6098 4.31517 8.72797 -0.671787 -0.082459 -0.087552
188
energy=-1017.02239049 config_type=nep2xyz pbc="T T T" virial="1.2801652084523831 -2.65048641615399 -2.251662741544897 -2.65048641615399 -7.592156174896525 2.4381628498122994 -2.251662741544897 2.4381628498122994 -8.494382579210036" Lattice="12.4 0.0 0.0 0.0 12.4 0.0 0.0 0.0 12.4" volume=1906.6240000000003 Properties=species:S:1:pos:R:3:force:R:3
H 2.05039 2.95481 1.98244 -0.288692 0.64003 0.31121
H 2.87117 2.87333 12.1942 0.096697 0.303279 -0.712723
H 1.10381 3.79148 0.90909 0.767332 -0.807044 0.33806
H 5.97739 5.36576 12.3462 1.352396 -0.769077 1.74771
H 2.875 2.95615 10.593 -0.437526 0.274049 -0.593378
H 6.33254 1.80937 2.12515 -0.122737 0.553473 -0.12439
H 7.58803 3.99315 4.3882 0.053792 0.334621 -0.508049
H 6.59692 4.35699 2.28809 -0.28203 0.62338 -0.797655
H 5.77243 3.75346 3.5252 0.288978 0.257659 -0.253359
H 0.92402 10.4315 11.4349 -0.017919 0.890282 -0.292686
H 1.29877 11.7459 10.4543 -0.003303 -0.852031 0.352575
H 11.6451 1.89175 4.03302 -0.430622 -0.076131 0.349073
H 8.69369 4.85737 5.1456 0.784503 1.838672 -0.387101
H 9.39004 1.14576 2.883 0.265517 -0.371274 -0.449222
H 10.2642 2.22995 4.71613 0.213316 -0.271928 -0.247691
H 1.25048 1.40329 0.97266 -0.500275 -0.678404 -0.745298
H 1.24302 12.3513 0.11408 -0.100181 -0.023304 -0.159021
H 1.38261 4.413 3.81949 -1.06208 0.59435 -0.552976
H 1.00884 6.38351 0.81643 -0.254161 0.080328 -0.536699
H 1.77783 7.35763 1.67931 0.721817 0.516114 1.326032
H 1.01432 5.14429 5.58686 -0.30879 -0.079453 -0.071135
H 6.6799 6.18644 1.1364 0.080129 0.989466 0.655978
H 3.92434 10.269 7.02378 0.416374 -0.213942 -0.152826
H 4.25886 10.4682 5.49848 0.13388 -0.319571 0.26562
H 8.65131 5.47977 11.2036 -0.155798 0.886871 0.503713
H 6.70795 8.24573 2.99181 0.311992 -0.172635 -1.288522
H 6.56671 8.42985 1.40304 -0.340703 0.120093 0.201975
H 12.2725 5.09319 3.46544 -0.207183 -0.497256 -0.319739
H 8.30743 4.41069 12.3843 -0.023506 0.846878 -1.386605
H 10.7408 3.66092 3.03289 -0.087887 0.14767 -0.401402
H 8.5342 7.09739 2.24191 0.227914 0.429876 -0.14173
H 10.138 5.07191 2.46326 -0.023402 0.131403 0.161639
H 4.46372 11.8952 11.4962 -0.881889 -0.435038 0.743291
H 0.52774 8.54015 0.04282 0.328806 -0.274006 -0.832203
H 1.46981 8.18958 3.84645 -0.66549 0.714059 -0.326888
H 11.8951 8.46796 11.1481 0.438586 1.063264 0.715599
H 6.01578 0.71537 11.1023 -0.044283 0.222837 -0.080788
H 1.65487 6.61592 3.86274 -0.1996 0.170808 -0.414794
H 5.96706 0.89398 0.84222 -0.184742 0.3795 -0.434818
H 5.47548 12.1616 2.73885 0.258517 0.615522 -0.368678
H 9.25534 11.2544 2.05296 -0.985747 -1.517957 0.618869
H 11.6943 8.64503 0.98297 -0.472726 0.736802 0.423966
H 8.22446 10.1556 2.77621 0.344295 0.325291 -0.0755
H 3.133 3.03582 4.05148 0.357398 0.483097 0.407114
H 1.67229 2.4338 4.16687 0.054154 0.133028 -0.074108
H 8.04281 12.1693 6.0928 -0.164781 -1.049251 0.267054
H 5.049 2.62725 5.21074 -0.279945 0.322271 0.199573
H 6.9017 11.3764 6.7717 -1.081512 0.189173 0.796325
H 4.46788 4.11608 5.51093 -0.229741 1.038036 1.072556
H 8.64467 2.65829 5.66665 -0.571586 -0.069159 -0.156406
H 7.44998 4.72232 6.73218 -0.922808 0.16339 0.567807
H 5.54532 0.86429 6.33568 -0.998338 -0.884129 1.431715
H 3.70558 6.24867 6.42498 0.898822 -0.700171 -0.065187
H 10.3705 2.29698 8.93416 0.123573 -0.035589 -0.130946
H 9.17314 1.68027 6.69573 1.035396 -0.175409 1.694599
H 1.151 2.61656 7.77763 0.589929 0.623675 0.347626
H 12.0997 2.03792 7.67855 -0.078855 -0.229016 0.111659
H 0.93344 1.29092 5.86507 -0.656583 0.770386 0.414393
H 1.34141 4.91859 7.12053 1.574868 -0.978278 1.466423
H 9.99698 5.50134 6.50612 -0.633917 1.102559 -1.24336
H 11.9248 10.0843 6.78111 0.162108 -0.545854 -0.232658
H 12.2462 9.48985 5.27696 -0.054749 0.078982 0.751005
H 0.82395 5.30069 9.64796 1.372446 -0.448431 -0.460272
H 3.65406 8.36518 6.26648 -0.148251 -0.150983 -0.484846
H 2.78205 7.67329 5.03495 0.633249 -0.080219 0.48301
H 10.1545 9.20608 6.42823 0.720766 -0.232254 0.107664
H 8.3314 8.01445 7.9928 0.893772 0.44689 -1.1223
H 7.4906 6.69449 8.21011 0.032499 -0.226301 -0.498099
H 8.7612 9.76203 6.56501 -0.960396 0.951133 -0.077542
H 7.34848 10.2444 4.76942 -0.553795 -0.197404 -1.078646
H 11.4667 4.9651 6.68564 1.36834 0.38294 -0.736978
H 9.39183 7.56973 5.61126 -0.580445 -0.057408 -0.216974
H 9.42334 6.82547 4.19804 0.034913 0.223997 -0.301378
H 1.54514 12.2351 2.32591 0.696039 -0.837351 1.367084
H 0.44413 11.4477 8.76267 -0.804611 -0.782194 -0.011553
H 2.93722 11.9119 3.07353 -0.03521 -0.192143 0.106592
H 1.22027 0.58906 4.54532 -0.389566 0.11824 -0.589361
H 6.7847 1.44555 5.83422 0.313856 0.259721 -0.676167
H 5.23527 0.09083 4.22844 0.373814 0.236945 0.098449
H 6.24894 10.6482 3.70362 0.187221 -0.235491 0.278884
H 2.50464 8.7417 8.84129 -0.023691 0.156648 -0.594333
H 7.19006 1.49204 9.72117 0.325893 -0.515187 0.300549
H 10.6099 9.38639 1.89803 0.100936 -0.287436 0.071301
H 12.2783 9.36425 2.96643 0.726125 -0.264878 0.939536
H 1.0155 10.2954 3.5645 1.323081 1.749574 -0.349703
H 9.05499 10.7243 10.8701 0.546147 1.664361 -1.085429
H 9.9986 12.0105 10.9462 -0.125815 -0.116911 -0.198723
H 2.71707 11.0574 8.85117 0.785862 -0.770787 -0.147716
H 3.69447 5.04503 7.41144 -0.207994 -0.47539 0.508826
H 3.92364 10.5413 9.7046 0.02633 -0.231858 0.327291
H 7.21354 3.63944 8.74977 -0.196848 -0.327479 0.773391
H 6.00187 5.11918 7.22911 -1.563525 0.337593 -0.721053
H 4.9465 11.5785 8.06493 0.112014 0.227198 0.096837
H 6.00648 0.21446 8.59955 0.445696 -0.167399 0.550658
H 10.4979 3.25916 7.7796 -0.145018 -0.100481 -0.471842
H 10.1739 0.64736 0.59922 -0.50377 0.15114 0.708166
H 11.7169 0.68649 0.29769 -0.082904 -0.255789 -0.023719
H 8.11041 0.6448 2.09144 0.335164 0.022587 -0.293571
H 11.7986 4.7501 9.75765 0.34743 0.709253 0.045928
H 5.72767 4.68089 10.2535 0.30003 0.121019 -0.001417
H 11.6181 7.07875 9.85153 0.466072 -0.273443 -0.606191
H 12.1245 5.269 11.9363 0.38552 0.077209 1.434179
H 3.11454 7.128 11.6847 -0.275773 -0.021589 0.292055
H 7.67023 3.52615 10.2789 0.25992 0.349424 0.138966
H 4.70358 4.0397 11.1823 -0.219638 0.952447 0.090119
H 3.99969 6.40499 10.6423 0.149477 0.219219 0.287916
H 10.7286 2.20164 11.113 -0.256817 0.181607 0.228214
H 8.09943 7.39439 10.2398 1.307201 -0.280413 0.376235
H 10.1402 7.41983 2.01927 -1.228454 -0.674093 0.967881
H 9.90285 3.56034 10.9214 -0.549219 0.06199 0.335031
H 10.2831 7.66319 10.2418 -0.21639 0.421729 -0.155244
H 8.55696 7.90338 11.6895 0.60381 -0.740217 -1.213827
H 1.12333 0.41087 8.50115 0.136099 0.109053 -0.20537
H 11.8067 5.01501 1.15944 -0.656469 -0.363053 -0.003107
H 4.79792 1.64311 11.5812 -1.397334 2.075308 -0.709024
H 11.2577 9.55481 9.0306 0.631387 0.217292 -0.152998
H 4.95002 9.74699 12.206 -0.095558 1.156248 -0.012727
H 5.06484 8.26883 12.0229 1.439383 1.225428 0.378692
H 7.29117 9.3604 11.9072 0.904264 0.375755 0.053275
H 2.01407 7.5684 9.54475 -0.04294 -0.45579 0.017428
H 7.93711 0.0961 10.1598 0.89108 -0.397214 -0.093642
H 3.02801 11.1086 11.6796 -1.33735 0.398708 -0.256542
H 8.46894 9.71939 0.52215 0.03997 0.095725 -0.60415
H 10.4981 10.8394 9.07002 -0.241748 0.810896 0.33583
O 1.70661 2.99989 1.05937 -0.3228 0.393004 -0.582068
O 3.43455 2.9163 11.3668 0.560082 -0.530022 1.448191
O 6.65358 3.80804 3.0811 -0.505203 -1.1362 1.02965
O 8.20799 4.05393 5.15443 -0.623222 -1.409445 0.699983
O 10.7248 2.19044 3.85564 -0.014166 0.231107 0.027768
O 0.83395 0.49525 0.83742 0.552606 0.727916 1.264724
O 9.0958 0.5636 2.14656 -0.348336 0.335476 0.364609
O 0.74694 5.22627 3.86245 1.589242 -0.381709 0.598338
O 1.53242 7.21953 0.77611 0.360877 0.590124 -0.841598
O 6.57788 5.29285 0.82539 -1.310815 -0.498385 -1.904407
O 4.48815 9.94368 6.28737 -0.458995 0.457508 -0.115446
O 6.91412 7.84058 2.09985 -0.002467 -0.059343 0.96546
O 8.55125 4.53634 11.4261 0.253971 -1.543615 0.81344
O 10.8922 4.451 2.44263 0.031668 0.028602 0.300014
O 9.45056 6.82267 2.46981 1.018462 0.167247 -0.750013
O 6.4146 0.94271 1.7149 0.32561 -0.744179 0.691133
O 6.98864 10.0045 3.86059 0.450139 0.218699 1.046181
O 11.3837 8.76359 1.92608 -0.87547 -0.038613 -0.262253
O 2.23036 3.08075 3.65434 -0.378572 -0.269082 -0.269442
O 7.75072 11.256 6.35882 1.405507 0.743675 -1.136951
O 0.72067 1.36035 4.90825 0.952057 -1.124635 -0.075073
O 4.4587 3.37084 4.91074 0.529575 -1.298706 -1.539286
O 4.19411 5.361 6.65062 -0.070838 1.231331 -0.626619
O 5.85782 1.29294 5.54726 0.884752 0.460912 -0.728161
O 6.88633 4.95219 7.52396 2.334257 -0.522131 0.148439
O 8.65723 1.68718 5.90751 -0.673387 -0.085522 -1.207788
O 0.66746 1.81392 7.57467 -0.165341 -0.754147 -0.270152
O 0.71337 5.24549 6.51025 -1.269014 1.027187 -1.508517
O 12.0116 9.27006 6.2386 -0.02991 0.408154 -0.359238
O 3.05203 7.62567 6.02108 -0.130842 0.045705 0.105884
O 9.23149 8.93376 6.52213 0.47052 -0.490459 0.33483
O 10.5973 5.03076 7.05072 -0.955632 -1.578547 2.250154
O 7.76005 7.54449 8.57806 -1.126199 -0.387173 1.508756
O 9.18695 6.73582 5.13773 0.212105 -0.85288 0.445128
O 2.1183 7.47983 3.71926 0.495149 -0.796019 -0.225945
O 1.97389 11.8249 3.18984 -0.800609 1.103222 -1.493601
O 1.29077 11.9056 8.8597 0.367057 0.843902 -0.160212
O 5.07527 11.8144 3.55007 -0.827388 -0.463862 0.252106
O 7.08542 0.51595 9.97849 -1.139881 1.161824 -0.361618
O 0.50985 9.5361 3.78144 -1.900949 -1.420616 -0.311179
O 9.39754 11.5457 10.3113 -0.643956 -1.571597 1.698596
O 3.52781 10.437 8.82029 -1.01192 0.999294 -0.087109
O 1.44397 11.2886 11.3353 -0.391014 -0.385557 0.264561
O 7.15063 3.08546 9.58242 -0.246792 0.265194 -1.019689
O 5.57557 12.2781 7.80033 -0.510782 -0.247549 -0.625518
O 10.5268 2.28603 7.95011 -0.246848 0.633498 0.251656
O 10.8136 0.68825 12.2867 0.237479 0.199477 -1.009146
O 12.3435 5.56373 9.89632 -1.965441 -0.568113 0.790749
O 5.18494 4.90982 11.0222 -0.317462 -0.839853 -0.205398
O 3.71248 7.29291 10.9415 -0.044575 -0.065993 -0.023611
O 11.1614 7.94257 9.85888 -0.555489 -0.263227 0.651172
O 10.5215 2.94004 10.5006 0.79233 -0.412764 -0.329051
O 8.77172 7.19101 10.9825 -1.186874 0.51477 0.163916
O 12.2753 9.06804 11.9131 0.209354 -0.84169 -0.36499
O 3.97767 11.0377 11.7035 2.331677 -0.437818 -0.465921
O 0.04477 5.32253 0.48942 -0.20891 -0.97587 -1.606735
O 5.24429 0.84281 11.7382 1.707955 -2.015663 0.587404
O 5.63333 9.06619 12.3578 -1.162489 -2.430599 -0.667824
O 1.90362 7.98622 8.67994 0.372081 0.510731 1.070307
O 8.97831 10.2665 2.12452 0.830913 1.034849 -0.761231
O 8.29869 9.48569 11.9538 -1.111576 0.246146 1.025386
O 11.357 10.5041 8.7689 0.059277 -0.93583 -0.388109
Na 0.94291 7.45655 6.87067 -0.259068 0.242685 -0.038149
Cl 2.3907 4.25303 8.7654 -0.044743 -0.337776 0.293349
188
energy=-1016.31473879 config_type=nep2xyz pbc="T T T" virial="-17.186356263427214 -1.973876113974328 -1.8990237861921715 -1.973876113974328 -3.6035148216283948 -3.4828942819781665 -1.8990237861921715 -3.4828942819781665 -18.351839137565346" Lattice="12.4 0.0 0.0 0.0 12.4 0.0 0.0 0.0 12.4" volume=1906.6240000000003 Properties=species:S:1:pos:R:3:force:R:3
H 1.25645 1.66074 2.49405 0.247772 0.07524 1.142175
H 2.01119 1.71564 12.32201 -0.424863 -0.208031 0.697708
H 1.24624 0.47517 0.38781 -0.748267 -1.115795 -0.040567
H 12.36293 4.27166 1.46112 0.123701 0.536632 0.36804
H 0.15409 2.68562 0.36811 1.960737 -2.127612 0.234635
H 4.93417 2.792 3.10849 -0.069467 0.116311 0.013881
H 4.81275 1.50865 2.32998 -0.278927 0.181348 0.137392
H 7.33071 3.41686 1.59937 -0.989458 0.611549 0.772212
H 7.47359 3.59329 3.19655 -0.56895 0.484727 0.283052
H 6.02581 1.79734 0.26063 0.395963 -0.438368 0.644152
H 9.32955 0.24249 1.01802 0.104773 -0.044167 0.501126
H 11.723 3.61002 3.39624 0.204188 1.12099 -1.336493
H 10.6875 1.6036 4.00371 0.329138 0.561082 -0.234234
H 9.59442 0.10499 2.56602 -0.29246 -0.266811 0.152441
H 9.37825 1.16684 4.63583 0.213335 -0.662974 0.027008
H 0.97043 4.61686 2.78686 -1.311921 0.238524 -0.938829
H 3.10264 4.39654 3.14724 -0.229359 -0.447256 -0.188906
H 2.63623 8.65488 2.87555 -0.955769 0.821577 -0.097127
H 1.13804 8.64686 2.53032 -0.696922 -0.205042 -0.322921
H 12.0262 7.72288 3.98122 0.282582 0.004252 0.108218
H 4.24344 6.43226 2.686 0.16416 1.80117 0.234023
H 5.59791 4.54701 2.3284 -0.632755 0.220582 -0.261239
H 4.36992 4.93526 1.21736 0.740917 -0.524636 2.090179
H 7.48367 7.03362 1.81148 -0.187581 -0.8907 -0.428451
H 5.1016 7.77195 2.83918 0.001953 0.093541 -0.198386
H 7.56412 5.42819 1.6567 -0.191072 -0.03409 0.353709
H 6.70122 6.47338 11.9684 0.054115 -0.301638 0.686411
H 12.3762 6.4949 2.23223 -0.252971 -0.025878 -0.08892
H 11.587 7.55303 1.44161 -1.615035 0.14846 -1.134275
H 9.1069 6.8804 0.6181 1.22767 0.736765 0.022753
H 0.96417 0.81019 3.74698 0.074149 -1.286388 0.312762
H 2.70958 10.4381 1.427 -0.191648 -0.266404 -1.770137
H 1.69742 10.5133 4.33911 -0.598831 0.547023 -0.395681
H 7.14229 8.69186 3.89919 -0.566619 -0.418693 -1.621879
H 6.14901 11.0186 1.30639 0.641837 0.243507 0.055208
H 6.67646 11.4575 3.52622 0.15088 0.17751 -0.668045
H 6.76951 9.37891 2.56945 0.106044 1.162415 -0.705473
H 7.75607 11.2618 1.74922 -1.684248 -0.147781 0.84453
H 0.60454 11.4485 5.06051 -0.311131 -0.702057 0.123442
H 9.93338 10.6895 1.06106 0.003582 -0.064514 -0.006952
H 10.1386 9.14387 0.61237 -0.091329 -0.175456 -0.030377
H 4.27208 3.86965 6.14656 -0.53364 0.481267 -0.259822
H 4.54913 2.62515 6.91821 0.182398 -0.062625 -0.536326
H 7.47519 4.34889 5.63097 -0.069415 0.42013 0.311571
H 7.63905 2.42004 5.43133 0.490496 -0.21849 0.032434
H 7.83503 1.36896 7.36465 0.125249 0.024142 0.05763
H 7.40564 0.9 5.25404 0.943878 -0.047507 0.080993
H 8.16896 2.25387 0.05028 -0.62643 0.259943 -0.144679
H 5.95544 0.41607 7.79804 0.706569 -0.273382 -0.011491
H 7.42039 1.94562 8.78243 0.132241 0.479413 0.065009
H 1.25019 2.84969 7.02551 -0.052667 0.546251 -0.393528
H 0.89751 1.39269 6.92486 0.303995 -0.079565 -0.286008
H 12.39047 2.34916 3.97314 0.668601 0.435102 -0.163099
H 11.2429 0.32446 8.38511 0.392508 0.179079 -0.229936
H 2.6146 4.9283 4.40753 0.060986 1.228516 2.083696
H 2.32756 4.8945 6.77312 -0.098247 0.017479 -0.060855
H 3.40186 6.0204 6.47749 -0.209596 -0.547972 -0.533595
H 4.50324 7.67596 4.74379 -1.185007 0.225521 1.57357
H 0.38488 7.98741 5.38882 0.376045 0.262495 -0.147425
H 7.17987 3.18343 11.6582 0.128211 -0.087824 0.012967
H 6.07598 3.63702 5.19352 0.435249 -0.005347 0.403981
H 4.93714 7.8626 6.33594 -1.299331 -0.247766 -1.301852
H 6.88757 6.9455 7.17981 -0.378947 0.541257 0.067495
H 6.06205 7.91864 8.1824 -0.088161 -0.035673 0.244179
H 8.26249 4.95667 7.69284 0.649817 -0.129215 -0.228275
H 11.4822 4.41105 5.18148 -0.492434 0.02628 -0.009996
H 9.39773 5.22495 6.50027 -0.55336 -0.126601 0.517678
H 11.4205 5.96569 5.41779 0.552067 1.279192 -0.460988
H 12.2193 4.60216 7.014 1.343169 -0.346386 0.869466
H 2.72338 8.62864 5.99216 -0.80917 -0.041542 0.038095
H 1.6294 9.83321 5.94896 0.327135 -1.024669 0.222791
H 1.2295 9.09889 8.00829 -0.066861 -0.311624 -0.714038
H 3.71236 11.4347 4.99839 0.001123 0.453542 0.223122
H 4.42609 12.0851 6.24111 0.085271 -0.212396 -0.524894
H 6.99588 9.04154 6.27545 -0.099886 0.105413 0.071936
H 5.74002 12.1152 4.66638 1.815998 -0.839933 -0.447901
H 7.31859 10.395 5.43012 -0.782262 1.289389 -0.247126
H 11.6682 11.9869 7.08586 -0.117829 -0.361999 -1.008135
H 11.0118 11.9797 4.92498 -0.755263 0.62972 -0.217713
H 10.6654 8.5795 5.3915 0.19835 0.29031 0.808654
H 10.4531 8.84471 7.6625 0.068565 -0.608938 1.180645
H 10.9076 10.5486 5.63779 -0.096739 -0.317513 -0.048298
H 9.26576 9.27262 5.67731 -0.388182 0.069112 0.37831
H 3.36676 1.9883 10.2303 -0.174502 -0.860259 -0.506012
H 3.41243 3.1256 11.2046 -0.673873 -0.783005 0.623543
H 2.94966 1.84359 7.90052 0.761845 0.319431 0.380767
H 4.24147 0.99553 8.01836 -0.216727 0.270035 0.84329
H 0.75256 12.1412 9.08717 -0.133211 -0.123859 -0.427281
H 4.57176 1.57614 12.37431 0.243656 -0.52624 0.924135
H 6.03509 0.41647 10.1008 -0.034369 0.203539 -0.403846
H 12.0107 3.56168 11.6362 0.449418 0.745844 -1.207705
H 5.45048 1.82095 9.68884 -0.645829 1.072114 -2.153786
H 9.31679 0.83308 9.27391 -1.142512 0.854976 -0.911932
H 10.5682 2.06162 0.13841 0.205417 0.327043 -0.308133
H 9.83664 1.11356 11.4389 0.380118 0.492381 0.257627
H 1.02179 6.77349 0.18078 0.289008 -0.182069 -0.01503
H 3.03764 5.38567 11.8214 0.533576 -0.273025 0.329419
H 1.90364 7.28986 11.4376 0.808853 1.736658 -0.760181
H 0.68016 5.57212 10.5861 -0.952882 -1.687905 -0.560991
H 3.73422 8.69927 10.4125 0.140747 -0.280023 -0.312363
H 4.60313 5.22744 11.5513 -0.069019 0.336876 0.241574
H 6.46383 5.62866 10.7295 1.792323 -2.080891 -2.12001
H 5.67676 7.57925 10.2789 -0.183475 0.275965 -0.149858
H 0.51956 4.2263 8.48741 -0.105142 0.707316 -0.838857
H 11.5993 5.29771 9.99499 2.032489 -0.806023 0.51081
H 9.51473 5.51282 10.0693 1.302855 1.681164 -0.062282
H 10.0813 6.99406 9.52564 0.404861 -0.964547 0.394251
H 10.151 7.12168 11.8681 -0.006066 0.008734 0.297653
H 1.86916 10.8238 0.16395 -0.202666 0.02172 0.006857
H 1.15389 10.6524 9.41657 -0.205957 0.821821 0.126701
H 1.71666 8.86275 9.41833 0.605105 -0.293472 1.038581
H 0.44002 11.6122 11.213 0.220723 -0.872647 1.717936
H 2.87903 9.50374 11.4333 -0.291305 -0.642496 -0.325316
H 4.46207 10.8693 0.32101 0.286778 0.888763 -0.611716
H 5.23971 12.3653 0.34287 0.041667 -0.891817 -0.223428
H 5.36952 11.6607 8.58285 0.226449 -0.851337 0.801964
H 5.85234 9.16949 10.061 -0.620634 -0.965587 -0.998795
H 5.90915 11.1201 10.9155 0.180575 -0.303344 0.035653
H 7.30054 10.918 10.0874 -1.241135 -0.396473 0.014798
H 11.509 8.61736 8.81024 1.483167 0.196389 0.307717
H 11.8403 10.8457 12.2472 0.922962 0.318861 0.445302
H 9.59574 11.9255 9.95316 0.389627 -0.097311 0.099503
H 9.33704 9.73767 9.69122 0.302233 -0.168499 -0.361207
H 9.32133 10.0789 11.2381 -0.514558 1.011509 -1.533595
O 1.22144 1.69458 3.51117 0.641826 -0.286716 -2.120846
O 1.37585 1.38477 0.63508 0.906928 1.548851 -0.259665
O 2.33172 4.31169 3.7621 0.214618 -0.874756 -2.136056
O 5.25688 1.2823 0.65595 -1.43425 1.389507 -1.286765
O 4.48504 1.94017 3.15046 0.431597 -0.164642 -0.373388
O 6.99645 3.9323 2.41433 1.655382 -1.056212 -1.513327
O 10.1567 0.79395 4.12485 -0.952647 -0.198929 -0.117737
O 11.8998 3.30918 0.1467 -2.15102 1.12422 0.866331
O 0.07968 4.82653 2.28362 1.467279 -0.427143 0.758485
O 1.82942 9.26553 2.79394 2.086842 -0.584303 0.584494
O 4.17144 7.45791 2.87806 0.242476 -1.587802 0.047429
O 4.64732 4.86781 2.23544 -0.989768 0.455205 -1.950342
O 7.59838 6.26943 1.16428 0.335127 1.624087 0.244175
O 12.1932 7.47112 2.15442 1.682999 -0.318491 1.304988
O 9.96189 7.40584 0.39342 -1.015694 -0.914496 -0.35761
O 1.56998 11.3128 4.9004 0.882509 -0.229845 -0.290817
O 6.85653 8.48883 2.92797 0.503857 -1.18239 2.296999
O 6.81869 10.9704 2.06992 1.252838 -0.294227 -0.853973
O 9.1955 12.028 1.78927 0.540003 0.487776 -0.504009
O 10.2904 10.079 0.3713 -0.102576 0.149291 -0.433263
O 4.63973 2.98006 5.9909 0.269654 -0.189929 0.776859
O 7.24405 2.67114 0.08946 1.647958 0.148674 -0.305794
O 8.07074 1.5382 5.65987 -1.307296 -0.128172 -0.368094
O 7.5964 1.12919 8.29993 -0.00955 -0.297724 -0.406167
O 5.24574 12.1443 7.76718 -0.347927 0.712027 -0.999336
O 11.5916 2.91517 4.02261 -1.483914 -0.182275 1.733627
O 1.59086 2.02147 6.60885 -0.237502 -0.806883 0.708389
O 11.9472 0.27678 7.69467 -0.020521 0.67954 1.527973
O 3.11732 5.10602 6.22986 0.100725 1.036808 0.605295
O 4.1226 7.81711 5.68649 2.145478 -0.163402 -0.208538
O 7.00744 3.83985 4.93581 -0.073067 -0.348624 0.006356
O 6.27577 7.71658 7.23993 0.599313 -0.428788 -0.182488
O 8.44984 5.28483 6.78522 -0.213923 0.258563 -0.615573
O 0.67604 4.30029 7.49689 -1.056385 0.186232 0.155946
O 11.9731 7.65102 4.95667 -0.520952 -0.381256 -0.28891
O 11.0909 5.12898 5.7291 -0.159884 -1.480547 0.691151
O 1.75559 8.86541 6.1848 0.26731 0.936636 -0.003426
O 0.90748 9.0083 8.91826 -0.576466 0.368335 -0.553189
O 4.26831 12.1863 5.269 -0.377796 -0.031554 0.474972
O 6.72612 11.8427 4.42465 -1.691646 1.083226 1.88536
O 7.45558 9.45556 5.52273 0.999734 -1.522487 -0.257483
O 11.4648 11.3533 5.50932 0.764712 0.063573 0.17341
O 10.1952 9.23508 5.9926 -0.272805 -0.701372 -0.663016
O 3.85133 1.85771 8.35969 -1.131313 -0.413275 -1.090667
O 3.07409 2.18064 11.1323 0.829559 1.828155 0.226726
O 5.69472 1.27402 10.3877 0.836241 -1.05656 2.553554
O 9.98797 0.4248 9.80267 0.638799 -0.756345 0.834477
O 9.76387 1.55305 12.3328 -0.952401 -0.727037 -0.299225
O 1.64068 6.50072 11.8819 -0.86721 -1.336027 0.626419
O 3.82735 4.79754 11.9643 -0.53332 0.01925 -0.152151
O 6.04506 6.21428 11.3011 -1.654177 2.086534 1.215298
O 5.40447 8.32927 9.68309 0.817859 0.798538 1.112255
O 0.13017 4.80799 10.1738 -1.140414 2.152873 0.170877
O 10.2705 6.22613 10.1555 -1.865123 -0.651721 -0.549488
O 2.81318 8.80881 10.7159 0.288783 0.500905 0.739192
O 2.79729 10.5925 0.4271 -0.136887 -0.221529 1.827231
O 1.25126 11.6007 9.71934 -0.024034 -0.434023 0.350265
O 0.32639 11.3162 12.2227 -0.72242 0.389552 -2.316876
O 5.31499 11.3366 0.11108 -0.376053 -0.733866 -0.214059
O 6.28679 10.8982 10.0116 0.852841 0.358188 0.549365
O 10.5809 8.54949 8.6311 -1.93864 0.34027 -1.291263
O 8.96079 10.3895 10.3056 0.586314 -0.691467 1.973231
Na 3.04992 1.89051 4.7558 -0.027348 -0.021489 0.264559
Cl 7.80792 4.20766 9.53338 -0.137625 0.013676 0.467686
188
energy=-1015.30473118 config_type=nep2xyz pbc="T T T" virial="-4.86012951232547 -3.0408609408862417 -0.06202390022267089 -3.0408609408862417 -2.359764259124088 2.182189309177293 -0.06202390022267089 2.182189309177293 -0.344558712019803" Lattice="12.4 0.0 0.0 0.0 12.4 0.0 0.0 0.0 12.4" volume=1906.6240000000003 Properties=species:S:1:pos:R:3:force:R:3
H 3.79578 10.2138 3.76579 0.511218 -0.247778 0.194145
H 3.40027 10.9466 2.50256 -0.005761 -0.225447 -2.145493
H 3.55361 3.38447 9.93131 1.040425 -0.521149 0.079054
H 0.18834 5.01667 1.84652 0.411891 -0.308428 0.256169
H 4.47061 0.25394 1.40763 -0.975473 1.219088 0.654245
H 7.12982 3.09617 5.52354 -0.053246 0.926893 -0.422849
H 5.91121 12.2232 1.19523 -0.515867 -0.354715 0.121391
H 3.61612 7.0826 7.99215 0.092216 -0.367481 -0.231512
H 0.81522 3.56372 2.24528 0.216286 -0.798294 -0.684142
H 5.84497 3.53907 4.7004 -0.192098 0.217839 -0.126826
H 8.95099 2.08917 11.1527 -0.370216 0.557837 0.385894
H 9.62202 6.07835 3.66067 -0.07215 -0.279515 0.055981
H 11.835 5.51467 0.03776 -0.276197 0.10643 0.162091
H 0.96959 5.85339 0.18881 -0.852828 0.317598 0.369642
H 0.57264 1.53334 1.2188 0.415764 0.027113 0.718864
H 2.00196 1.72949 1.93719 1.057187 -0.314441 -0.365375
H 3.06824 4.57531 12.2969 -0.137721 1.083114 -0.085917
H 4.84168 7.54938 8.92168 -0.566629 0.369249 0.113147
H 5.64154 7.33344 1.87053 0.363312 0.568515 -0.05204
H 7.78109 7.24083 6.5617 0.968322 1.322915 -0.748488
H 7.78841 8.77907 6.34979 0.313966 -0.560983 -0.26584
H 5.35284 5.72279 7.1822 0.439269 0.265769 -0.51479
H 6.35274 4.87047 6.09442 -0.207212 1.536039 1.117352
H 10.6286 6.49502 4.75887 -0.033821 0.83281 1.150585
H 3.36673 2.34962 7.90478 -0.047118 -0.018936 0.03449
H 4.80205 3.42763 11.7092 -0.346452 -0.12337 0.815372
H 5.56797 4.22383 0.42253 -0.495579 0.010291 0.08259
H 4.20281 2.31276 1.56837 -0.790103 -0.527306 -0.009444
H 5.13463 3.31483 9.67787 0.220968 0.153727 -0.217383
H 3.79927 1.76784 2.92375 0.402341 0.502167 2.23162
H 0.67986 11.1647 11.272 -1.561289 -0.406931 -0.103795
H 9.87146 1.91621 2.56838 -0.116057 0.322525 0.908827
H 10.4452 0.91272 1.60381 0.938341 -0.864004 0.045569
H 10.3363 0.71458 9.06032 1.264434 -0.647018 1.658624
H 3.50498 12.2285 6.65264 0.312151 0.241049 0.220548
H 11.4732 12.2919 10.1002 -0.486693 -1.608788 1.75111
H 12.2315 11.8616 2.02547 0.487026 -0.626357 0.379571
H 11.5251 11.9572 0.61412 0.373541 -0.798597 -0.418348
H 3.74359 9.13251 1.01924 -0.101339 0.849327 -0.252872
H 7.9214 0.1694 2.01947 1.518305 1.124643 -0.433276
H 7.35187 11.134 1.91546 0.169237 -0.265057 -0.274897
H 7.16949 10.5976 9.59173 0.415355 -0.238112 -0.831258
H 0.15536 0.6507 8.01338 0.011275 0.039529 -0.308549
H 1.45051 0.21505 7.19347 0.396187 0.335154 0.279182
H 7.76314 5.83041 11.3536 -0.389002 0.67158 -1.159493
H 8.11467 11.485 5.35301 1.195307 -0.902917 0.659329
H 10.4031 11.2742 5.36311 0.210764 0.292674 -0.18559
H 7.10952 3.38868 8.7609 2.035472 -2.317721 -0.073857
H 9.72482 10.6848 6.64063 0.258693 -0.305996 -1.721527
H 6.57954 4.67633 8.06681 -0.107241 -0.079978 0.268832
H 7.9156 1.00447 5.68555 -0.383751 -0.806662 -0.334811
H 8.55143 1.77859 6.91655 -0.281299 -0.104961 0.283104
H 9.34904 10.4537 8.60298 0.27934 0.272596 0.341487
H 7.37323 11.8585 4.10131 -0.508519 0.672176 1.014695
H 10.7753 1.20193 4.49005 0.476219 -0.226002 -0.061653
H 6.4108 9.93984 7.4782 -0.231116 -0.007935 -0.944794
H 10.831 11.1782 8.45844 0.556329 1.294802 0.942203
H 4.82167 2.55916 7.50409 0.421908 0.057769 0.267555
H 7.16867 5.57688 9.92507 1.051377 0.477831 0.324606
H 9.68744 8.22828 3.54815 -0.281293 0.241272 0.42648
H 0.882 3.81101 6.46646 -0.419667 -0.917646 -0.27229
H 0.45456 2.26419 6.42445 0.103707 0.274557 0.2672
H 12.001 2.14705 9.92516 0.835651 1.691548 0.301153
H 3.59172 3.78114 4.18763 -0.144623 -0.056674 0.196885
H 4.08124 2.61924 5.17706 -0.148112 0.391241 -1.509694
H 10.3879 6.87586 8.95251 -0.359026 0.462738 -0.604171
H 10.0499 9.62504 4.19063 -0.406731 -0.163182 0.367093
H 9.56532 6.54275 10.3117 -0.697963 0.14006 -0.933555
H 11.787 3.59248 10.6602 0.942924 -0.67477 -0.342173
H 0.47977 9.97938 3.25898 -0.056238 -0.933404 -0.23087
H 2.47369 6.1691 4.47416 -0.5438 -0.790428 0.038534
H 1.57068 5.12362 3.66336 0.681699 -0.300396 0.641936
H 4.25927 12.1417 4.56726 0.588216 0.900197 0.462054
H 8.15141 9.68597 0.41054 -0.11249 -0.301502 0.40359
H 1.75667 7.9389 5.43787 -0.714363 -0.067902 0.070435
H 5.52116 12.3761 5.45148 0.449345 -0.151455 -0.078656
H 1.52817 7.80649 3.87181 -0.525174 0.2564 -0.269775
H 7.08557 9.11054 1.41875 -0.284012 -0.403974 0.13951
H 10.5827 8.50205 0.19206 0.09973 0.3574 -0.240935
H 1.8837 10.8824 3.53809 -2.18709 -0.141771 -0.937571
H 10.0413 8.12311 6.98631 -0.690081 -0.613648 -0.632336
H 10.845 8.96099 7.85043 0.206234 0.734453 0.63758
H 7.79491 11.4156 8.38756 -0.295974 -0.153382 0.355727
H 5.25582 8.98861 7.2742 -0.229128 -0.391439 -0.313491
H 1.43862 3.7563 9.59044 -0.491837 -0.158621 0.166365
H 2.27627 4.82727 8.67374 0.161919 -0.770186 0.896609
H 2.63127 10.554 11.6454 0.483968 -0.90467 1.435089
H 2.98358 11.7158 10.7396 0.395542 0.497637 -0.461512
H 3.93166 0.0747 8.99273 -0.266409 -0.311495 -0.771018
H 7.7542 5.0976 1.10272 -0.317454 0.02316 0.03046
H 7.58223 5.23217 3.92137 -0.254387 -0.152379 -0.151411
H 7.68758 4.07293 12.324 0.095211 0.18076 0.294443
H 9.6478 2.12486 5.0358 0.220148 -0.1594 -0.670511
H 7.18147 6.49504 3.03684 0.388753 -0.050771 -0.065931
H 4.42111 0.96716 10.1527 0.031133 -0.379856 -0.028168
H 9.22263 2.14893 0.3284 0.017484 0.27303 0.285269
H 2.51843 5.38831 11.0888 -0.033683 -0.274069 -0.718829
H 5.1722 7.10533 12.1287 -0.04873 0.102079 0.244092
H 3.92174 6.4927 0.43286 1.047404 0.132632 0.198375
H 3.94326 8.56162 4.72126 -1.384184 -1.036236 0.200556
H 5.71304 8.11377 3.25852 0.618736 0.108007 -1.035417
H 5.73616 8.7321 10.8392 -0.403693 -0.696407 -0.517922
H 6.46495 7.40566 10.4763 0.669625 -0.531454 0.099637
H 5.25286 9.22009 5.10087 0.648115 0.483756 0.689675
H 11.2496 7.84732 10.8809 -0.953872 -0.709236 -1.461894
H 10.2154 3.79179 11.638 -0.707766 0.074611 0.246845
H 12.2625 7.61115 11.9148 0.39903 -0.151606 0.479093
H 0.37029 7.38046 1.73703 -0.600065 0.711926 0.983649
H 11.6568 7.8707 2.758 0.760173 0.19219 -0.149864
H 10.7538 5.07377 10.8154 -0.653695 1.100112 -1.679169
H 1.15435 8.98146 7.1462 -0.089436 -0.181519 0.53329
H 12.3625 7.92098 7.04641 -1.356714 0.305938 0.20037
H 6.16851 10.6233 11.6913 0.361755 -0.23069 -0.225695
H 2.72611 5.37075 6.61806 -0.289509 -0.356559 -1.392114
H 1.84461 6.5489 7.30635 0.493162 -0.260742 -0.649658
H 5.32083 11.1528 10.5104 -0.00769 0.226476 -0.37178
H 9.87464 8.90538 1.50044 0.262114 0.446284 1.507137
H 2.8688 11.1397 7.69843 0.272085 0.246352 0.065767
H 12.1825 0.16637 5.71141 0.577225 0.483907 1.329701
H 12.3685 11.8182 4.35444 -0.627487 0.044009 0.044551
H 11.9765 10.0375 11.2145 -0.077329 -0.697094 0.17757
H 3.21347 9.16094 8.49319 -0.29297 0.071591 -0.239924
H 2.43568 10.161 9.40319 -0.277723 0.260373 0.093159
H 4.20007 10.6652 0.8776 0.633777 0.283041 -0.246539
O 3.37235 11.0337 3.43511 -0.556355 0.550171 2.161738
O 0.04171 6.16349 0.48556 1.689342 -0.802831 -0.720481
O 4.41555 2.871 10.1629 -0.954288 0.221064 -0.029367
O 4.99258 12.0632 0.87496 1.532847 -0.883212 -0.918514
O 4.21414 7.8168 8.20649 0.861082 0.454893 0.436885
O 6.65313 3.91122 5.13548 0.373637 -1.40024 0.350259
O 11.6928 0.0088 1.44684 -0.171956 0.669774 -0.518281
O 0.61577 4.47187 2.54483 -0.754685 1.087503 0.452007
O 1.1051 2.0535 1.85577 -1.68964 0.445353 -0.309192
O 3.96122 2.34301 7.14581 -0.303787 0.408459 -0.360451
O 2.60918 5.43336 12.0424 0.040584 -0.671927 1.046861
O 8.36722 7.99514 6.20495 -1.314707 -1.031111 0.951642
O 6.26906 5.71132 6.84233 -0.155079 -1.463209 -0.732988
O 10.5616 6.01683 3.95214 -0.233393 -0.752327 -1.115576
O 4.7327 3.72111 0.27024 0.422467 -0.237694 -0.529939
O 3.65229 1.60277 2.0129 0.680897 0.264687 -2.245351
O 9.68147 1.48125 1.73254 -1.587271 0.532976 -0.665534
O 3.03653 12.1133 7.50876 -0.264704 -0.0671 -0.516689
O 12.0678 10.9907 11.3169 1.431802 1.736036 -0.146593
O 11.2829 0.49042 9.39935 -0.725572 2.263854 -3.076023
O 7.28662 11.9899 2.39834 -1.172011 -0.720983 0.727092
O 0.61059 0.73597 7.14476 -0.381879 -0.194278 0.223068
O 7.33116 11.9787 5.11784 -0.628373 0.270662 -1.78041
O 9.65612 10.683 5.60619 -0.221435 0.077799 1.526103
O 8.2961 1.85422 5.98175 0.148741 1.243675 0.251222
O 6.52186 4.0893 8.88207 -1.811824 2.368021 0.049376
O 10.3538 2.06825 4.33116 -0.572984 0.837456 0.276824
O 10.2294 10.5264 8.14609 -0.86244 -1.547585 -0.770718
O 7.7471 6.24246 10.4079 -0.664618 -1.259978 0.898917
O 10.1441 9.0639 3.40061 0.270637 -0.283293 -0.615001
O 0.23429 3.17 6.103 0.541573 0.769783 0.30232
O 4.17487 2.99325 4.23739 0.137973 -0.136943 1.744957
O 10.4233 6.56892 9.85887 0.952374 -0.416871 1.374144
O 0.04731 3.04495 10.1389 -1.227889 -1.405782 -0.212307
O 2.18983 5.20495 4.46188 0.235821 0.254169 -0.280195
O 2.18671 7.75839 4.58159 1.197226 0.456295 -0.186713
O 4.68252 0.38679 5.2072 -1.174773 -1.015146 -0.528085
O 5.84365 9.559 6.74303 0.587359 0.292909 1.301372
O 0.81659 10.8704 3.27311 1.929637 1.285181 0.928778
O 7.27715 9.86023 0.82627 0.182388 0.523298 -0.454305
O 7.68887 10.4937 8.7086 -0.379974 0.735334 0.45786
O 10.8524 8.05327 7.51547 -0.251004 -0.628997 0.034143
O 2.30465 4.20942 9.46727 0.101474 0.996539 -0.88742
O 2.31371 11.0243 10.8849 -0.889068 0.146779 -0.679711
O 4.25604 0.02258 9.90649 0.387876 0.954885 0.761346
O 7.28583 4.91144 0.26421 0.591536 -0.565912 -0.055856
O 7.84202 5.75491 3.1463 0.213628 0.309407 -0.008272
O 8.96896 2.69911 11.9356 0.270081 -0.411902 -0.690303
O 0.19171 8.01586 2.48705 0.163696 -0.706699 -0.323089
O 4.82616 6.87112 0.628 -1.42076 -0.281126 -0.561603
O 6.26615 7.87439 2.45036 -0.648047 -0.561018 1.108758
O 5.5745 7.76552 10.625 -0.146208 1.193885 0.098045
O 4.70108 8.98677 4.34658 0.651252 0.282193 -0.616856
O 11.8185 8.34133 11.456 0.725667 0.570371 0.475948
O 10.8357 4.56066 11.5993 0.713267 -0.877974 1.413501
O 0.87746 8.11082 6.81927 2.02373 -0.247652 -0.364915
O 2.63947 5.95241 7.36024 -0.820143 0.5625 1.585735
O 6.03156 10.5085 10.7265 -0.208588 0.059152 0.745951
O 9.7281 8.76265 0.58088 -0.704643 -0.315948 -1.076744
O 11.6924 12.2879 4.94375 0.013437 -0.881631 -1.418781
O 3.43282 10.0538 0.85021 -0.356177 -1.357609 0.109537
O 2.51463 9.86654 8.46598 0.201756 -0.80311 0.124372
Na 11.7025 3.95738 4.33508 -0.243366 -0.102414 -0.336057
Cl 8.2797 1.42612 9.17539 0.289738 -0.229904 -0.406504
188
energy=-1016.10192276 config_type=nep2xyz pbc="T T T" virial="-14.402980189984934 0.525239617062169 -6.325140699703169 0.525239617062169 -18.619927093094187 -0.2837962341731112 -6.325140699703169 -0.2837962341731112 -15.21838265415558" Lattice="12.4 0.0 0.0 0.0 12.4 0.0 0.0 0.0 12.4" volume=1906.6240000000003 Properties=species:S:1:pos:R:3:force:R:3
H 2.35536 1.83176 0.65055 -0.537361 -0.028366 0.358487
H 1.00785 0.86469 0.65038 0.96787 1.015297 1.063065
H 1.29878 1.50227 3.03843 -0.325195 0.30884 -0.183834
H 3.82849 4.80365 1.61148 -1.369762 0.12317 -0.810738
H 4.62364 4.77124 3.45138 -0.305164 0.885353 0.814953
H 5.88249 2.67711 2.7739 -0.321583 0.444343 0.353848
H 6.06106 1.77398 1.56792 -0.134916 -0.554579 -0.111852
H 8.19397 2.08962 2.45425 -2.117861 -0.293886 0.386841
H 8.21798 5.46983 2.33828 -0.31379 0.284941 -0.400302
H 9.57775 1.54392 0.92493 0.18374 -1.032085 -1.151636
H 9.78627 4.16103 2.94309 0.015352 0.153038 -0.1075
H 9.61207 1.84172 3.05258 -0.159413 -0.153955 -0.269074
H 8.63228 3.74863 6.1449 -0.136602 -0.356172 -0.782139
H 8.9934 4.49206 4.1938 0.463459 0.497745 -0.82503
H 11.6718 0.98448 4.22743 -1.675231 0.118768 0.158873
H 2.93993 5.93662 0.81214 0.127926 -1.060276 0.095506
H 5.80736 4.90311 2.38731 1.754486 1.515313 -0.223624
H 3.52766 7.90955 0.5106 -0.582532 0.032786 -0.30879
H 2.19315 7.31357 12.1627 0.7596 0.359119 1.007832
H 7.38867 5.80409 0.92426 0.331366 -0.338976 0.531571
H 6.8801 6.20082 11.0709 0.092137 -0.071842 0.314977
H 5.66914 8.60415 0.57446 0.027569 -0.297262 -0.197809
H 7.28556 7.77908 1.85471 0.231478 -1.106273 0.203248
H 6.90488 4.65295 11.4789 -0.489441 -1.134938 -0.378243
H 1.41782 4.99759 1.89014 1.171563 -0.786695 -0.534307
H 10.3713 6.26192 4.11694 -0.015611 0.360325 0.158783
H 8.43672 2.30412 5.60726 0.133951 0.6957 -0.243823
H 10.5085 7.68529 4.84905 -0.240573 -0.339671 -0.403887
H 0.49023 5.01733 3.25255 0.607327 0.442938 -1.869541
H 2.51187 12.3436 1.93164 0.171072 -1.020481 -0.24838
H 1.37575 10.5303 2.77845 -0.244256 -0.474106 -0.097514
H 12.2157 10.2484 2.86517 -0.49233 0.051411 0.120224
H 3.64408 11.6294 2.71597 -0.200502 -0.094024 -0.651081
H 3.60532 11.2569 0.47088 -0.531343 -0.01329 1.150757
H 5.59706 0.52404 3.05763 -0.578198 -0.044434 -0.117665
H 6.74142 9.14473 2.23687 -0.564608 0.806859 1.465712
H 8.03708 9.11984 0.1884 -0.155474 -0.193905 0.208666
H 8.00506 8.71912 11.0629 0.737724 0.565738 1.347451
H 4.78244 9.69087 12.3294 -0.13995 -0.40005 -0.29111
H 12.0941 11.6639 0.13061 -0.830873 -1.617768 1.065542
H 9.79361 10.0084 3.922 0.53697 0.269879 0.04954
H 10.6107 10.4024 1.77891 -0.133242 -0.207441 -0.411683
H 10.267 11.5199 3.88156 0.479065 -0.591544 -0.336571
H 10.4025 9.66688 0.35365 0.481192 0.564046 0.701381
H 0.52909 3.28262 4.51961 0.363476 -2.86585 -0.763815
H 1.4602 0.99856 4.51934 -0.510968 0.482804 -0.228163
H 3.50011 5.3755 5.55605 -0.007574 -0.408511 -0.186645
H 1.39765 0.61742 6.57998 0.945272 -0.155232 -0.331987
H 4.72245 4.40964 5.15311 -0.521506 0.321329 0.647237
H 3.73662 0.22853 6.06755 -1.352772 -0.250748 0.474723
H 12.2394 1.98895 7.96008 -0.076546 -1.210029 -0.146584
H 5.102 12.2257 6.79521 -0.723388 -0.133653 -0.2972
H 8.61829 0.68573 7.26346 1.746636 0.397955 -0.006692
H 10.032 1.55241 7.44901 -0.600253 -0.206826 0.809049
H 10.4182 0.9056 5.2854 0.015658 -0.006463 -0.089775
H 10.6453 3.39146 7.73289 0.026371 -0.862649 1.07382
H 1.13698 4.4646 5.29577 -0.448212 0.388752 -0.067721
H 1.56527 6.38415 6.61185 -0.464589 -0.213454 -0.356097
H 3.92119 8.80243 3.81752 -0.740368 -1.833329 -0.024249
H 1.88119 5.10478 7.42326 0.145839 0.081824 -1.913085
H 11.4382 7.51738 7.65855 0.363266 -0.074904 -0.05156
H 3.90956 7.35461 4.43785 -0.428105 0.307921 -0.661361
H 6.32933 3.14528 5.78061 -0.825933 -0.539024 0.002835
H 4.88968 2.24315 5.98804 1.648799 1.422409 -0.058064
H 5.35446 4.01468 7.37543 0.676502 0.364533 -0.123936
H 6.79554 6.95758 7.12878 -0.236035 -0.542005 1.409173
H 4.46627 4.26212 8.45381 -1.805449 -0.040545 1.323865
H 11.3138 4.54275 5.76664 0.1482 -0.132349 0.220518
H 10.7224 5.38439 7.00444 -0.009751 -0.871636 -0.581838
H 8.94341 6.87446 7.53559 0.190638 -0.025817 -0.707908
H 8.55666 7.52116 6.19703 0.561486 0.385309 -0.381786
H 0.78468 8.47274 6.4595 0.185319 0.453859 0.712633
H 1.80835 11.5648 6.17698 0.313244 1.0924 -0.748445
H 0.83866 9.82181 4.815 0.203735 0.270664 -0.22611
H 1.47033 7.96998 7.86941 -0.8973 0.403015 -1.196451
H 6.20553 8.35965 6.68978 -0.693747 -0.168133 0.451107
H 4.90343 0.03092 4.4002 -0.087888 -0.296156 -1.399139
H 5.96202 9.40326 4.77233 0.102124 0.108314 -0.424276
H 5.47402 10.5085 3.73566 0.33269 -0.14409 -0.158365
H 6.12749 9.88923 6.82426 -0.615781 0.786989 1.014366
H 8.14016 9.1932 5.6511 -0.628899 0.567747 0.480097
H 12.2396 10.385 5.8481 1.48158 -0.630278 0.540163
H 10.2463 11.6145 6.94976 0.811645 -1.255777 -0.403959
H 9.64619 9.52296 6.12645 0.167377 0.861229 0.734551
H 10.7295 10.5019 7.88081 0.524578 -0.723689 0.724422
H 1.28073 2.13108 8.0773 0.893226 -0.270974 0.138728
H 0.77026 0.10192 9.01858 -0.310913 -1.632507 1.421185
H 3.41263 3.76007 0.18909 -0.350584 -1.070713 -0.410172
H 3.21012 3.0179 11.2003 0.195758 -0.510501 0.961226
H 4.68067 1.86404 12.2845 0.223864 -0.160953 0.176804
H 6.11536 1.5622 11.9075 3.236767 1.524576 -2.95418
H 6.91451 1.06063 9.42976 0.143991 -0.522298 -0.64557
H 6.32641 3.50765 9.7966 -0.284175 0.171712 -0.574
H 7.71674 3.02495 10.2958 0.557037 0.275777 -0.014595
H 10.629 0.6408 0.08146 1.03662 -0.050269 -0.075269
H 10.318 2.84655 9.30752 -0.085791 0.156208 -0.138654
H 9.56101 2.65236 11.3333 0.419014 -1.081769 0.917057
H 10.898 7.0228 2.20585 -0.297522 0.406326 0.257105
H 10.5886 6.05797 0.23242 0.123048 0.166232 0.244995
H 5.62856 6.23225 7.96941 0.218095 -0.123093 -0.480555
H 5.52905 7.91386 10.9948 1.223005 0.245272 -0.358162
H 6.08141 7.54154 9.51151 0.410057 0.176202 0.062511
H 9.25962 5.68462 11.8941 0.289029 0.185402 -0.184632
H 11.9757 6.18973 1.50405 -0.772386 1.187445 -0.026649
H 10.7466 7.22786 9.03121 0.461272 -0.273462 -1.726759
H 9.87184 4.20735 11.0786 0.009561 -1.753714 -0.652402
H 0.03072 7.19218 10.3996 -0.391011 0.593059 0.058933
H 11.0332 6.9682 10.8779 -1.01232 -0.684761 1.005545
H 1.92424 6.93255 9.78585 0.340282 -0.235106 0.739837
H 3.67549 7.55815 8.23156 -2.02607 1.835129 1.61152
H 3.22904 8.80537 9.31394 -0.289376 0.026188 -0.744476
H 2.37443 10.9494 9.65959 -1.707609 0.7991 -0.116388
H 3.46822 10.5712 10.7188 -0.091852 0.383165 -0.655317
H 0.44068 12.3072 11.4355 0.069207 0.322524 -1.010861
H 4.78231 12.0407 12.2525 0.183517 -0.010988 -0.124768
H 5.90881 11.5063 8.44361 0.927424 0.454411 0.19615
H 7.85902 12.2304 9.52786 -0.27184 0.175746 -0.261917
H 1.56013 5.55722 10.4057 0.205525 -1.130825 -0.178295
H 4.65619 10.739 8.62795 -1.936025 -0.618463 1.10618
H 9.08624 12.2263 11.3954 0.365135 0.972643 1.000968
H 8.56986 10.778 11.0842 0.274311 -0.093884 0.211459
H 12.3774 11.1843 9.70804 0.385922 0.330771 -0.507315
H 11.0121 9.42503 10.1114 -0.271218 -0.073372 0.112289
H 10.2235 10.8757 9.85925 0.322688 -0.932621 0.637974
O 1.69416 1.38192 1.24965 -0.392435 -0.896764 -0.737938
O 3.01211 4.91595 0.9664 1.58121 1.150631 1.36951
O 6.27558 1.8247 2.53076 0.845107 0.471322 -0.383597
O 9.47047 4.94277 3.43357 -0.607438 -1.139626 0.849605
O 9.10997 2.19205 2.27797 2.380196 0.455528 0.265661
O 5.07056 4.406 2.68328 -1.182018 -2.210311 -1.228461
O 2.62182 7.50177 0.65715 -0.330471 -0.381397 -0.916573
O 7.41824 5.87417 1.91694 -0.325817 0.19489 -0.089715
O 7.27881 5.50075 11.665 0.616299 1.449907 0.170427
O 4.91953 8.69174 12.3305 -0.14195 0.351466 0.657204
O 7.08846 8.65085 1.50464 0.203979 0.078179 -1.156907
O 0.68561 5.4449 2.29666 -1.405386 -0.032198 2.660136
O 8.21299 3.24213 5.39912 0.047253 -0.190468 1.174202
O 10.8607 7.11134 4.14796 0.416522 0.074849 0.003559
O 2.89401 11.4116 2.0762 -0.665094 1.256649 0.469395
O 0.68007 9.87029 3.04346 1.429065 0.078473 0.081398
O 4.91858 12.2648 3.38424 0.481963 -0.140606 2.255427
O 8.56636 9.18289 11.769 -0.729758 -0.434726 -1.74476
O 10.9863 10.2677 0.87767 -0.376597 -0.147939 -0.504621
O 10.4881 10.6059 3.55135 -0.915349 0.45106 0.224225
O 0.90703 1.59904 3.93895 0.648912 -1.033151 0.394812
O 4.19762 5.20785 4.88783 -0.008923 0.433851 0.151234
O 2.08717 0.1288 6.01908 -1.446777 -1.086827 0.679787
O 4.69253 0.31172 6.04401 1.787531 0.862977 -0.344578
O 9.56706 0.81693 6.93669 -1.650902 -0.58758 -0.508287
O 10.6476 0.8821 4.33627 1.458307 0.097317 -0.330561
O 3.37041 7.94243 3.86026 1.064418 1.278249 0.440862
O 1.85441 5.44117 6.45443 0.519707 0.001994 2.486794
O 0.43112 4.19377 4.65579 -0.344061 2.727711 0.555389
O 5.35024 3.17289 5.98004 -0.083225 -1.682015 -0.141755
O 5.32353 4.57384 8.19901 1.111593 -0.21492 -0.570665
O 10.6888 4.4984 6.52186 -0.195536 1.101293 0.693848
O 8.40212 6.7317 6.72299 -0.846747 -0.545018 0.530268
O 0.72718 7.80916 7.1926 0.89537 -0.597067 0.533529
O 0.79124 10.0189 5.77922 -1.705101 0.579842 -0.405867
O 5.81431 9.58664 3.80084 -0.587041 0.366411 -0.216388
O 6.40142 9.18745 6.24036 1.067222 -0.199186 -1.26823
O 5.31265 10.9032 7.97583 1.282104 0.477706 -1.027897
O 9.07929 9.14445 5.44528 0.275317 -1.020967 -1.275529
O 10.7136 10.6983 6.93435 -1.136581 1.830406 -0.569032
O 0.66511 1.42872 7.78301 -0.940846 1.480846 0.606308
O 3.45773 2.80361 12.1549 -0.073589 1.0393 -1.099437
O 5.47562 1.23799 0.04835 -3.415586 -1.155608 2.592897
O 6.76192 2.90943 10.4148 -0.114241 -0.418787 0.322479
O 7.21062 0.27635 8.89852 0.092346 0.488443 0.76569
O 9.77198 1.05545 0.03121 -1.557886 1.302741 0.866789
O 10.615 2.58834 8.38642 0.716981 1.100493 -1.58314
O 9.62472 3.29556 10.6333 -0.181312 2.316902 -0.057066
O 1.60608 6.48481 10.6172 -0.200037 1.465893 -0.586013
O 11.2823 6.94729 1.31914 1.069951 -1.440187 0.04052
O 10.2374 5.59449 11.8159 -1.115892 0.000402 -0.272272
O 5.98637 7.12971 7.73972 0.207663 -0.413299 -0.377409
O 6.35507 7.69382 10.4444 -0.943587 -0.359793 0.029023
O 11.5335 7.63553 10.4157 1.032539 0.218315 -0.434172
O 10.6774 7.02618 8.0214 -0.607099 -0.019486 1.475172
O 0.81241 11.7338 9.72188 -0.083848 1.432514 -1.058731
O 2.8987 8.0648 8.7238 2.121884 -1.904024 -1.039862
O 3.16306 10.438 9.78282 2.237533 -1.221085 0.900377
O 4.29484 11.1864 12.2016 0.343659 0.04054 -0.87581
O 12.3143 0.13114 12.221 0.641684 0.726366 -0.257681
O 8.89838 11.6184 10.6796 -0.542987 -0.848831 -1.230425
O 10.9273 10.2269 9.56744 0.027968 1.062835 -0.361966
Na 1.30293 7.67472 2.61505 0.122702 0.208176 -0.080966
Cl 2.54522 3.63655 9.23679 -0.245935 0.120275 -0.214219
188
energy=-1014.77367894 config_type=nep2xyz pbc="T T T" virial="-13.890497599215685 4.384965983547453 -1.3120101733403087 4.384965983547453 -16.44691284667048 -6.322986761495129 -1.3120101733403087 -6.322986761495129 -16.315344112813637" Lattice="12.4 0.0 0.0 0.0 12.4 0.0 0.0 0.0 12.4" volume=1906.6240000000003 Properties=species:S:1:pos:R:3:force:R:3
H 1.90209 1.97272 5.06451 -0.51676 -0.109057 0.216744
H 9.05156 11.1633 0.9251 -0.230952 0.942237 -1.254949
H 6.83634 10.353 1.22497 0.105763 0.828339 0.699917
H 1.79689 5.85431 6.02479 0.408742 0.34586 0.266749
H 0.51468 4.90015 10.1022 0.379687 0.949326 0.331079
H 8.62722 11.8674 11.9187 -0.385216 -0.730032 -0.565107
H 11.5355 8.36342 11.5546 0.145359 -0.00315 -0.24633
H 7.78531 2.68667 0.71515 0.301619 0.492869 0.077866
H 0.05295 10.0275 7.19971 -1.028541 0.402079 1.304497
H 11.3728 10.4551 8.47002 0.020001 -0.012382 -1.52086
H 4.75578 9.61763 4.90431 -0.335073 -0.279082 -0.461662
H 7.98447 1.4995 5.21526 0.080108 -0.28266 0.025711
H 6.7775 2.04735 6.07353 -0.129688 0.529253 0.50648
H 1.49348 6.74531 4.8876 -1.147073 0.291643 -1.690612
H 9.98147 6.95605 11.0574 -0.177933 -0.546127 -0.813583
H 11.4216 10.1909 5.61315 -0.101732 0.225501 1.084574
H 6.72542 4.45448 1.22496 -0.209192 -0.098071 -0.076251
H 11.8329 10.7849 4.22338 0.225946 0.108266 -0.177085
H 6.01171 3.13976 1.86304 -0.190145 0.038796 0.776904
H 4.58133 8.42846 3.9709 -0.35994 -1.751863 -0.405037
H 10.4491 5.49971 10.8637 0.577613 -1.191441 -0.292096
H 3.88104 7.665 8.89038 -0.054524 1.481064 -0.392336
H 11.0509 8.29782 4.26603 0.339853 -1.765982 -0.943566
H 11.9934 7.0832 3.50283 -1.91312 0.644355 0.410668
H 4.82397 5.89708 1.14959 0.053937 0.305914 0.362031
H 3.48537 5.29305 0.77984 -0.321406 0.061048 0.575999
H 6.75465 6.81881 0.23806 0.213073 0.717466 -0.23911
H 10.7538 0.45691 0.69434 -1.541769 -0.403725 -0.57951
H 1.81063 5.72603 9.66615 0.791528 0.070611 -0.649105
H 2.68746 3.90946 8.4707 0.719521 -1.479739 1.651788
H 2.80953 2.41588 8.88867 -0.447988 -0.100868 0.203615
H 8.36006 11.037 2.96486 0.347819 0.927538 -0.086578
H 10.041 8.78635 12.0282 0.679258 -0.08514 -0.813848
H 5.54943 2.36044 12.1601 -0.639159 -0.059088 0.013207
H 9.5013 7.53616 3.27281 -0.589758 -0.922558 -0.735822
H 2.37575 10.4719 10.7055 0.530143 0.284848 0.173948
H 4.61669 1.1525 0.0191 0.010398 0.158001 0.148063
H 11.1625 6.16266 5.00843 0.023327 0.343176 -0.479453
H 9.66016 11.0298 3.7606 0.73917 -0.461692 0.508621
H 7.98004 7.48168 3.59034 -1.006293 0.183391 1.109053
H 0.20703 4.06506 1.55182 -1.569184 -0.141575 0.307933
H 11.8219 0.09641 1.69981 0.345185 0.99181 -0.895699
H 1.57965 3.96885 1.1001 0.48692 0.245482 1.166517
H 5.81185 10.5865 2.3475 -0.234031 -0.307661 0.593276
H 2.22484 0.37613 8.24067 -0.727219 1.827592 0.581102
H 10.2831 3.49781 0.83923 -0.168344 0.048193 -0.140037
H 11.3829 2.49603 0.90239 0.466017 -1.169754 0.183516
H 4.31231 0.289 9.64352 -0.006596 -0.06005 -0.285901
H 1.71922 8.30148 0.58027 1.378442 -0.694904 1.801252
H 4.0263 6.2902 3.02976 -0.255206 0.241162 1.195341
H 8.33968 2.17591 9.36271 0.090375 -0.227169 0.074471
H 3.23023 6.71071 4.41758 0.711762 -0.224022 -0.243457
H 1.54398 7.1827 2.52174 -0.239718 -0.270102 0.027865
H 4.81006 1.46 2.68505 0.685615 1.530996 0.807311
H 5.75009 10.2352 6.80872 -0.079111 0.02843 -0.044123
H 4.80385 9.06698 7.30596 -0.577894 -0.207784 0.954406
H 10.32 10.0078 10.2945 0.029672 0.122152 -0.307617
H 9.1957 10.9318 9.63027 1.73919 0.056753 -0.021777
H 1.1089 5.65096 2.74414 0.033115 -0.687128 -0.63367
H 11.5722 12.0714 6.98454 -0.73912 -0.205727 0.239092
H 12.1636 0.92726 6.46449 1.516594 1.10916 -0.604126
H 0.67443 0.07183 4.19959 0.042573 -0.518487 -1.269799
H 2.4609 3.98249 11.4219 -0.474853 0.307557 -1.899872
H 1.22678 11.3945 3.08036 -0.0934 0.634402 0.369368
H 4.10154 9.26476 9.35131 0.131391 -0.167509 0.199438
H 5.88793 4.95898 11.302 -0.141424 -0.280255 1.601958
H 9.67301 0.66002 3.92148 -0.269816 1.406785 1.306444
H 6.35555 5.30932 9.97219 -0.095242 0.079918 -0.912222
H 10.2551 1.0162 5.36955 0.170002 -0.175079 0.194367
H 5.78756 1.8923 3.8788 -0.210686 0.302898 -0.157515
H 7.32098 6.48372 1.69747 0.042563 0.114905 -0.660534
H 2.1352 3.55467 3.49578 -0.148026 0.165313 -0.563877
H 3.60698 3.1323 3.88769 0.616437 -0.332655 -0.540751
H 3.42583 4.28277 5.81211 -0.803435 -0.710013 -0.36793
H 4.41787 5.39729 5.80903 -0.422139 -1.695563 1.537412
H 8.29531 4.763 6.45178 -0.086819 0.0685 -0.294001
H 5.28619 12.33028 8.47303 -0.766588 1.096469 -0.008707
H 3.41082 3.03118 12.2069 0.001066 0.109105 -0.28815
H 7.25402 5.83774 5.89957 -0.181294 0.160134 0.142723
H 2.78377 10.8344 6.07902 -0.624886 -1.815596 0.209795
H 0.89544 10.8879 10.5108 -0.477007 0.797444 0.140708
H 3.87632 11.7632 6.68141 -0.543664 -0.12882 -0.449314
H 0.3142 4.70025 6.8198 0.178116 -0.621613 0.087216
H 0.93916 3.26566 6.79867 -0.067517 -0.669777 -0.291725
H 6.65449 11.145 9.86812 1.201556 0.990561 0.290159
H 1.34036 0.8369 9.40079 -0.850876 -0.023931 0.659213
H 2.11448 0.62364 5.8115 -0.994696 0.571696 -0.027721
H 3.161 8.03637 1.3989 0.870463 -0.669699 -0.648584
H 7.58772 5.89112 8.33463 -0.686775 0.302476 0.339067
H 5.11612 3.40218 7.18515 0.476414 -0.174315 0.410078
H 8.06712 2.09777 10.9037 -0.396136 -0.155652 -0.808298
H 7.89045 8.78991 12.2484 0.210056 -0.170727 0.690378
H 7.15227 11.4344 7.78501 0.604462 0.65108 0.243152
H 10.2435 7.10849 8.51526 0.421579 0.443851 -0.143199
H 6.58372 0.08518 6.67697 0.969892 0.74677 -0.821114
H 11.298 11.9055 10.5352 -0.069496 0.277005 -0.369984
H 8.2375 6.2203 9.73832 -0.620351 -0.253311 -0.227921
H 11.0084 3.2075 9.96322 -0.096777 -0.297634 -0.451592
H 11.4536 3.50945 11.4353 -0.07793 -0.261408 0.897962
H 6.62646 7.37595 10.5974 0.481134 1.914502 0.643731
H 6.27914 8.9784 11.077 0.232453 -1.552292 0.075595
H 10.9267 8.33621 7.63609 -0.35777 -1.98335 0.724379
H 5.59439 7.33246 4.67835 1.502695 -0.715779 0.498552
H 6.38788 7.90997 5.89328 0.210064 -0.383245 -1.252867
H 3.73384 12.2354 1.4793 0.407354 -0.641487 0.399762
H 9.60404 3.045 5.35883 0.322235 1.224282 0.786388
H 12.1921 0.34243 11.474 -0.006492 0.361675 1.411111
H 1.90761 8.26814 6.47631 -0.333047 -0.31154 -0.551286
H 1.23601 8.46263 11.0173 0.253358 1.448377 -0.899473
H 10.4444 4.41553 5.7905 -0.326542 -0.095103 0.059065
H 0.86298 7.02124 11.1826 -0.189998 -1.070287 -0.25718
H 6.52996 3.87959 7.27651 -0.067436 -0.194573 0.285352
H 10.6861 1.61938 8.15801 -0.002867 -0.266066 -0.1214
H 2.40646 9.13265 7.54901 0.849622 0.259225 1.400029
H 8.48964 1.35598 0.65784 0.547554 -1.256535 0.212257
H 10.07 3.00156 7.83321 -0.009017 -1.058052 0.877288
H 8.4502 8.72227 1.39222 -0.217792 -0.386053 -0.229682
H 3.67188 5.7149 8.14509 0.051411 0.543517 1.014188
H 11.2504 6.24892 6.52391 -0.168428 0.041502 0.37703
H 4.14924 5.77434 9.63837 1.005173 -0.912547 0.836463
H 5.37931 12.1958 1.40821 -0.697146 -0.267073 0.208359
H 3.22841 10.3129 3.15547 0.190989 -0.078527 -0.061334
H 2.44805 10.0001 1.86995 0.036619 -0.226612 0.194553
H 7.48536 0.18924 9.87316 -0.176271 -0.477509 -0.246943
O 1.389 1.30457 5.59195 1.413903 -0.451089 -0.432878
O 2.06112 6.71848 5.64321 0.364548 -0.730155 1.473529
O 9.1069 11.9637 0.33367 0.654866 -0.004737 1.441475
O 10.6138 8.55107 11.2398 -1.128419 0.478579 1.309318
O 11.5438 10.4062 7.46364 1.540868 -0.867532 0.120694
O 7.04971 1.34151 5.4785 -0.237271 -0.208955 -0.408951
O 10.9974 7.34588 3.85407 2.161011 1.726415 0.308519
O 11.2001 10.1935 4.69256 -0.583764 -0.56109 -1.222663
O 6.57337 3.49018 1.15344 -0.335881 0.12484 -0.599735
O 4.44498 9.35586 3.99055 0.243866 2.573609 0.515041
O 9.74283 6.09013 10.6131 -0.631076 1.685312 0.383228
O 3.94466 8.67154 8.59909 -0.298835 -1.05218 0.227156
O 8.58879 7.32925 2.88132 0.9853 0.593557 -0.757331
O 10.8792 7.33235 7.80945 0.066634 1.615423 -0.496706
O 3.88472 5.93181 1.42392 0.585737 -0.444414 -1.049857
O 11.6691 0.6359 0.86469 1.178389 -0.472654 1.677935
O 6.78619 6.15496 0.9352 -0.135263 -0.496506 1.034949
O 1.08823 5.70881 10.2833 -1.232489 -1.275952 0.509773
O 3.0985 3.30422 9.18744 -0.214824 1.851581 -1.507862
O 4.73556 1.92432 11.8133 0.701825 0.418748 -0.215193
O 1.54108 10.2048 10.3222 0.162986 -0.873227 -0.359848
O 1.0714 4.16407 1.95432 1.374297 -0.184902 -1.032888
O 9.22157 11.5161 3.05855 -0.916727 -0.556423 -0.263678
O 6.57464 11.0088 1.93633 0.105782 -0.727859 -0.982129
O 11.3266 0.59358 6.74242 -0.869002 -0.687953 0.36041
O 11.2399 3.42276 0.70013 -0.324591 0.627444 0.23184
O 1.78145 1.20167 8.63499 1.042822 -2.338407 -1.380111
O 4.11676 6.64872 3.97488 -0.002412 -0.27061 -0.727766
O 5.26886 9.4257 6.53764 0.932909 0.250041 -1.15307
O 7.63906 1.92997 10.0058 0.703692 0.208374 1.143202
O 1.05907 6.54615 3.11871 -0.257847 1.314704 0.60648
O 10.2156 10.7853 9.68386 -1.750627 -0.429206 0.65336
O 0.42691 11.9082 3.39945 0.173208 0.106018 0.86935
O 4.07299 4.63866 6.4266 1.016179 2.554507 -1.321021
O 5.55685 4.91166 10.4192 -0.17061 -0.255067 -0.383079
O 9.70598 1.38546 4.64863 -0.225037 -1.159585 -1.279923
O 5.16638 2.28597 3.22195 -0.415349 -1.752302 -0.664208
O 2.75428 3.42579 4.22406 -0.512028 0.001969 1.038968
O 4.57869 0.59739 8.75756 0.743567 -1.213458 0.25382
O 2.75221 3.75997 12.2834 0.563884 -0.115881 1.933917
O 7.46135 5.26273 6.66371 0.502872 -0.308989 0.261404
O 3.12764 11.7088 6.05054 1.105454 1.86917 0.409822
O 0.96615 4.10433 7.25414 -0.015703 1.302723 0.036504
O 2.25874 8.30345 1.49602 -2.654158 0.845169 -1.60818
O 8.6315 2.26477 0.41039 -0.240083 0.615608 -0.654821
O 6.4096 11.7488 7.2628 -1.362108 -1.33778 0.34389
O 12.0631 0.11785 10.5634 0.381294 -0.654458 -1.126529
O 7.35232 6.20228 9.25822 1.810082 -0.002369 -0.287178
O 11.4832 3.82909 10.5323 0.36349 0.844 -0.865452
O 6.82038 8.11831 11.2672 -0.943252 -0.485618 -0.998902
O 6.52902 7.34387 5.07152 -1.297571 0.652612 0.727025
O 9.65749 3.83085 5.99248 -0.324147 -1.348607 -0.461628
O 0.71566 7.90176 11.58 0.037636 0.028715 1.435235
O 1.80294 9.17134 6.81659 -0.76839 0.481715 -0.765129
O 5.97157 3.13258 7.61196 -0.074567 0.541272 -1.162938
O 10.1345 2.3105 8.56845 -0.360745 1.497229 -0.862422
O 8.3451 9.27849 0.59441 0.235148 0.066936 -0.104386
O 11.4318 5.62943 5.78242 0.448753 -0.161968 0.475478
O 2.71387 10.7489 2.4397 -0.243066 0.553127 -0.051502
O 3.57359 6.20829 9.01503 -0.834534 -0.236132 -1.976357
O 7.53699 11.6103 9.67557 -0.454768 -0.582776 0.291128
O 4.55737 0.35615 1.46011 0.253947 0.351903 -0.153351
Na 5.44177 2.52715 9.63893 -0.342943 0.361254 0.032989
Cl 5.01338 10.5109 11.0222 -0.224519 0.030228 -0.069624
188
energy=-1017.54285262 config_type=nep2xyz pbc="T T T" virial="0.12271497680279782 2.3422709488156985 1.2954926803416387 2.3422709488156985 -9.780521693631679 -1.6500594698916153 1.2954926803416387 -1.6500594698916153 5.5073105924693175" Lattice="12.4 0.0 0.0 0.0 12.4 0.0 0.0 0.0 12.4" volume=1906.6240000000003 Properties=species:S:1:pos:R:3:force:R:3
H 2.15317 2.97974 3.69848 0.983757 0.357459 -0.311524
H 4.68046 3.02997 2.16802 -0.04135 -0.474827 0.513138
H 5.27041 2.09379 0.3226 0.249429 -0.058723 0.96317
H 6.29282 3.34478 0.50832 -1.310694 -1.213304 1.14886
H 5.40306 11.8277 2.1599 -0.592638 -0.215214 -1.418917
H 7.66641 4.0624 0.65755 1.096717 0.424247 0.83483
H 5.95228 11.4464 3.51906 0.377047 0.066983 -0.222372
H 0.80714 2.05872 2.18108 0.543625 -0.182771 -0.094305
H 12.2121 2.18683 0.92716 1.168897 -1.17701 0.576654
H 9.4894 3.14097 0.76459 -0.34344 -0.109274 0.858291
H 9.36123 3.77606 2.18867 0.257742 0.696158 1.192381
H 1.80444 6.31561 0.43918 0.476993 -0.136781 0.114137
H 3.91122 4.26303 2.33389 -0.597289 0.832771 0.153178
H 2.63056 7.08405 2.65204 -0.576942 -0.081978 -0.171197
H 3.90288 6.56979 2.03149 0.463393 -0.505336 -0.33047
H 3.8325 8.46529 11.4854 0.284413 -0.069026 -1.100777
H 6.06801 6.9771 2.4495 -0.284539 -0.019902 -0.071727
H 5.8739 5.62729 1.80274 -0.115684 -0.53588 -0.370904
H 8.07416 7.68962 2.86523 -0.219814 -0.201968 -0.317389
H 5.4201 6.58401 4.33036 0.034932 -0.184232 0.727065
H 10.2307 7.35085 2.56376 -0.5384 -0.36156 0.278006
H 9.53601 5.3157 3.91809 0.137745 0.10411 -0.292331
H 11.9352 8.70241 1.26155 1.486793 0.214807 0.095325
H 10.6168 8.4186 0.65031 -0.589884 -0.466669 -0.524865
H 10.5578 4.14019 4.08616 0.311515 0.441299 0.39416
H 3.50838 7.83874 0.3721 -0.281963 -0.010118 0.760347
H 1.35882 8.83394 3.69556 -0.058669 0.374093 -0.077625
H 2.12343 9.83433 0.03881 -0.206075 0.447107 0.875736
H 1.30733 10.417 1.31308 0.004728 -0.114156 1.240494
H 0.96114 10.9306 3.70929 0.343285 0.892158 0.77995
H 4.46597 10.5679 0.57234 0.590882 1.07586 -0.37814
H 7.18551 8.66527 1.92288 0.125766 -0.19786 0.153071
H 6.45492 10.4348 0.64846 0.072385 0.121304 -0.242905
H 4.74487 12.0845 0.06785 -0.986232 1.530524 -0.886633
H 6.58272 9.16024 4.0062 0.267946 0.896572 -0.319544
H 12.225 10.823 2.70635 -0.42322 0.117444 0.171537
H 11.5097 0.57895 2.22998 0.380436 0.180377 -0.231533
H 8.22808 11.3707 1.14168 0.202318 0.247635 0.180537
H 10.1334 12.2234 2.25038 -0.071428 -0.143027 -0.286006
H 10.3782 12.3446 4.36423 0.459932 0.24105 -0.008913
H 0.63078 3.09095 4.10512 0.729939 -0.107833 0.008989
H 1.12868 0.70024 4.37927 0.587735 -0.930761 0.693617
H 4.20939 3.76327 4.69941 0.22268 -0.074439 -0.100031
H 11.7432 12.38039 7.36152 1.126239 0.133067 0.208209
H 0.75185 0.1934 8.05501 0.685362 0.636024 0.659476
H 1.69561 4.18307 8.51465 -0.214216 -0.6002 0.066877
H 5.05662 3.37367 5.9912 -0.183736 0.184604 -0.36828
H 6.81099 2.09261 5.70086 0.498236 0.105146 -0.259962
H 5.65914 1.18337 6.14203 -0.166197 0.636989 0.430671
H 6.89859 2.59263 8.01334 0.155452 0.166303 -0.741606
H 8.52426 2.9738 4.23188 -0.191259 -0.539338 -0.148041
H 8.79296 1.50376 4.63748 0.174189 -0.398552 0.152822
H 11.0935 2.38364 7.4246 -0.202398 -0.530119 0.210435
H 9.8598 0.41489 7.02553 0.45337 0.716159 0.158301
H 9.84775 0.57394 8.56464 -1.030437 -0.13114 1.097717
H 11.981 3.65235 7.72995 1.497478 0.276306 1.565061
H 11.732 3.91302 5.7443 -0.07991 -0.567982 -0.444468
H 9.50769 4.03818 7.3666 -0.315734 0.045491 0.083968
H 1.12401 7.2023 5.08993 0.310219 -0.99648 0.487653
H 1.45533 5.91022 6.13403 0.165659 0.729739 -0.232253
H 3.3273 4.70689 6.91433 -0.519685 0.018079 -0.121623
H 3.02395 5.67044 8.12878 -0.715757 -0.389852 -0.979928
H 12.2423 7.08509 6.92562 -0.146001 -0.147155 -0.301289
H 4.42767 7.91294 5.78004 -0.435323 0.987458 0.265864
H 4.89175 5.57275 5.4137 0.855584 1.043128 0.155382
H 6.77318 6.62719 6.16467 -0.431326 0.226456 -0.317508
H 7.87462 5.76254 6.7469 0.676894 -0.840426 0.394331
H 6.81116 7.00505 8.5156 0.350944 0.153605 -1.473607
H 9.65156 7.70313 3.93609 0.120041 -0.556967 0.500934
H 12.3391 5.13482 5.08633 0.388356 0.641058 -0.542189
H 8.89605 7.59253 6.04691 -0.080825 -0.306997 0.340327
H 10.4561 7.99288 6.2696 -1.012269 -0.167349 -0.300994
H 0.96181 12.3078 5.7393 -0.348722 -0.148659 0.603283
H 2.72191 8.51861 4.49229 -0.508364 0.120186 0.279642
H 3.21126 0.00083 5.24901 -0.890159 0.085282 0.128927
H 0.14758 10.549 7.97718 0.72642 -0.412203 -0.20601
H 3.69236 9.07341 6.65494 -0.35727 -0.179185 0.766467
H 4.09783 10.4838 8.38004 0.414318 -0.063584 -0.126424
H 5.3607 9.49801 4.77794 -0.081044 0.887118 0.628027
H 4.5549 0.07851 4.61537 0.963044 -0.074977 -1.718579
H 4.87111 10.9167 7.05169 -0.000386 0.405976 1.630136
H 7.58427 10.3285 5.5208 -0.677086 -0.521467 -0.576501
H 7.90273 10.4483 7.65496 -0.267527 -0.002327 0.700139
H 9.0101 9.63698 5.92148 -0.740911 -0.149542 -0.174442
H 12.0387 8.28381 7.88528 -0.049296 0.609116 0.323226
H 9.3618 11.6825 5.33854 0.517839 0.644455 0.264915
H 3.23351 1.09544 11.9688 -0.879359 -0.315892 0.504891
H 1.12088 0.86499 12.34599 0.587465 0.397985 -0.178145
H 1.28308 2.63841 9.03506 0.425302 1.622272 -0.374673
H 2.81376 0.7596 8.98652 -0.353068 0.747993 -0.015412
H 1.66319 0.85983 10.0121 0.063561 -0.231617 0.275138
H 4.31608 1.00456 10.9587 0.631073 -0.160176 -0.866354
H 7.47115 3.29173 9.35244 -0.75293 -0.730429 -0.463734
H 5.27034 1.51827 9.13909 -0.990618 -1.196167 0.564018
H 8.05144 1.21385 9.22098 -0.742049 0.070917 -0.152001
H 4.92126 12.3692 9.00863 -0.056633 -0.078177 -0.307349
H 8.03325 11.9379 9.06266 0.075436 0.802321 0.170932
H 9.17856 0.0139 0.49669 0.276614 -0.15724 0.169179
H 10.6748 1.66338 11.9164 0.009337 0.319955 0.421412
H 11.2727 3.16506 11.8838 0.369789 0.695853 -0.743749
H 9.50081 0.02019 10.9664 0.688744 0.156623 -0.045571
H 2.0178 6.21212 11.287 1.14494 0.283764 -0.686664
H 0.11197 3.91393 10.1628 -0.116278 0.441835 0.76577
H 0.38374 4.75011 11.4352 0.072844 0.551403 0.482695
H 7.16197 4.56629 11.695 0.046977 0.340666 -0.183464
H 5.67676 6.71925 9.55424 -1.002532 -0.119655 0.058985
H 7.53635 5.60761 9.84198 -0.152384 0.304101 0.199076
H 8.9459 4.95631 10.2681 -1.333672 0.164692 -0.159909
H 8.43009 4.5183 8.40611 0.276933 0.009358 0.027296
H 10.7972 6.57916 8.74397 -0.028894 0.118525 0.089709
H 11.1857 5.57028 9.90583 -0.87113 0.740679 0.098082
H 10.1969 7.51507 10.7632 -0.074102 0.550957 0.981492
H 1.67908 11.9051 12.1323 0.332141 0.04134 -0.478117
H 3.04141 8.66517 9.34124 0.236046 -0.241499 -0.263733
H 1.77822 9.38802 8.70794 0.958802 0.541591 -0.181648
H 6.53621 10.7118 8.3923 -0.38316 -0.134828 0.019995
H 7.06932 8.28894 10.4073 0.297324 -0.184726 -0.445934
H 7.34587 9.5671 12.0803 0.094885 -0.187133 -0.104728
H 7.50148 9.77458 10.071 0.268547 -0.130182 -0.790127
H 12.32332 10.0036 9.36092 0.068224 -0.564354 0.564045
H 0.24212 10.1713 11.7689 -1.072459 0.378749 -0.368474
H 10.8498 11.7343 11.5137 0.423478 -0.614503 -0.181808
H 9.10858 8.63075 11.2401 1.660858 -1.139115 0.308449
H 11.1595 9.578 11.383 0.516235 0.068862 -0.258943
O 4.01918 3.43998 2.81057 0.488933 -0.294367 -0.260077
O 1.34597 2.48103 3.74625 -1.832202 -0.246097 0.299236
O 5.849 2.50015 1.03344 -0.383816 0.522803 -1.542682
O 5.91138 12.1874 2.87718 0.47765 0.386376 2.031605
O 0.59041 1.62727 1.31823 -2.127954 1.240182 -0.315211
O 8.8312 3.39296 1.49401 -0.090545 -1.033139 -1.904611
O 8.70076 12.2205 1.33538 -0.55251 -0.212678 0.08983
O 2.93214 6.58255 1.87017 -0.523205 0.614407 0.286255
O 6.90513 4.51593 0.23709 -0.278816 0.632538 -0.603886
O 5.36705 6.2453 2.34405 1.055448 0.428424 0.408734
O 9.5535 7.02368 3.23074 0.492192 1.023096 -0.525517
O 9.62391 4.34646 3.87968 -0.793956 -0.486293 -0.290578
O 11.0659 8.44969 1.51012 -0.901092 -0.068513 0.63854
O 1.88609 8.14171 4.13371 0.471049 -0.066549 -0.325199
O 3.64797 8.71771 12.386 -0.272623 0.439938 0.540317
O 1.47679 10.5237 0.37256 0.821565 -1.283816 -1.474405
O 0.64427 10.3767 2.99014 0.069608 -0.924512 -0.96989
O 7.14217 8.0168 2.68368 0.27282 0.770456 -0.019199
O 5.09155 11.3447 0.56208 -0.12629 -3.303803 1.2926
O 7.27489 9.89322 0.60508 0.031496 0.124974 1.212126
O 11.0318 12.2554 2.65838 -0.209744 -0.288615 0.440168
O 1.3401 12.2345 4.8497 0.178141 1.065663 -1.257402
O 4.46231 4.07112 5.59807 0.012521 -0.274954 0.261186
O 6.16396 1.98513 6.41978 -0.458202 -0.417529 -0.453713
O 8.11211 2.06063 4.22703 0.176813 1.022134 0.565051
O 11.3365 3.28505 7.15964 -1.594824 0.244939 -1.346607
O 10.2975 0.88202 7.77472 1.14964 -0.239489 -1.795699
O 2.57717 5.16042 7.37091 1.229755 0.493029 1.134839
O 0.76803 6.4244 5.64813 -0.174475 0.166954 0.31179
O 5.32437 6.52296 5.31724 -0.953387 -0.935897 -1.027555
O 7.5715 6.67703 6.7219 -0.096842 0.682788 0.144189
O 4.03154 8.85618 5.78749 0.662881 -1.282624 -1.109995
O 11.9999 4.24903 4.84372 -0.003851 -0.684204 0.455516
O 11.5604 7.54025 7.4774 -0.059431 -0.526164 -0.351791
O 8.55545 4.24921 7.48517 0.385051 0.094723 -0.706576
O 0.31537 12.0925 7.36042 -1.827499 -0.627013 -0.885022
O 6.17763 9.953 4.46557 -0.064633 -1.579412 -0.272279
O 4.13555 0.19717 5.4458 0.052611 -0.07515 1.398
O 4.93601 10.9404 8.05859 -0.826986 -0.501428 -1.562873
O 8.37065 10.4015 6.06793 1.275251 0.476265 0.767447
O 9.6367 8.11923 5.68144 1.015495 0.672293 0.240329
O 10.0078 0.04846 5.26661 -1.081491 -0.861323 -0.489267
O 1.72473 0.40255 11.7052 -1.024285 0.311117 0.247657
O 1.88064 1.08382 9.07774 0.024622 -0.483292 0.097822
O 1.04136 3.63789 9.02468 0.120843 -1.36149 -0.544186
O 4.19878 1.03871 11.9189 0.532172 0.62134 0.41313
O 4.59784 0.80018 9.40632 1.247002 1.546963 -0.81144
O 7.03427 2.48543 8.9552 0.025165 0.27921 1.482094
O 10.7862 2.51465 0.02439 -0.268171 -0.781407 0.152762
O 10.2277 0.0689 11.6476 -1.086459 0.578309 -0.691196
O 8.49928 0.36763 9.4139 0.619027 -1.151676 0.990003
O 1.39649 6.10082 11.9898 -1.595568 -0.338048 0.59964
O 7.96209 4.77213 10.1725 1.601229 -0.235252 0.003923
O 6.62043 6.88362 9.43842 0.856799 -0.045346 1.167771
O 12.055 4.27198 11.0003 -0.227628 -0.366706 -0.887996
O 10.4636 6.20034 9.59128 0.850833 -0.886311 0.296474
O 10.0133 8.17831 11.5108 -1.35888 0.595125 -1.509077
O 2.8012 9.39682 8.74592 -0.367685 0.08522 -0.06264
O 0.29654 9.69972 8.50449 -0.970207 1.002999 0.04692
O 7.48777 10.5811 8.57726 0.467838 0.042363 -0.957313
O 7.67536 9.01682 10.6561 -0.292764 0.028204 0.698408
O 11.8267 10.2934 11.1863 -0.011594 -0.40147 0.107989
Na 7.3551 1.51511 2.23956 0.122097 -0.335916 -0.113328
Cl 3.72423 6.723 9.97614 -0.12179 -0.173646 -0.230219
188
energy=-1016.43972544 config_type=nep2xyz pbc="T T T" virial="-6.849999510010325 -0.9786852605933761 0.9710215246487484 -0.9786852605933761 -4.089400440602234 -2.6653973806549507 0.9710215246487484 -2.6653973806549507 -12.499089217455257" Lattice="12.4 0.0 0.0 0.0 12.4 0.0 0.0 0.0 12.4" volume=1906.6240000000003 Properties=species:S:1:pos:R:3:force:R:3
H 2.77754 3.26451 1.94069 -0.721544 -0.086239 0.02413
H 2.00621 2.9358 0.62882 -0.257236 0.660757 -1.561736
H 0.91417 1.58081 2.25175 0.384432 0.625576 0.480162
H 3.46933 5.11338 2.29812 0.21039 -0.349708 0.517016
H 5.70341 5.37007 4.82054 0.497322 -0.722021 -0.483554
H 7.34944 3.52102 4.65663 -0.767725 1.599422 -0.362673
H 8.69861 2.72012 4.44685 0.220629 0.188024 -0.318789
H 7.82354 0.58559 1.00848 1.13215 -0.301706 -0.10048
H 6.18177 7.11744 1.27099 0.812963 -0.96273 0.790967
H 9.63571 0.60962 12.2415 0.162118 0.109123 -0.361895
H 10.6111 4.4577 2.88098 0.216296 -0.142364 0.494595
H 9.14638 0.86702 1.83834 0.359276 0.113225 0.63554
H 7.6255 0.36547 9.80071 -0.446 -0.534928 0.351261
H 9.88092 4.59501 1.58934 0.44342 -0.397574 -0.574292
H 10.9378 1.3271 2.90262 2.382124 -1.265716 0.331515
H 4.32915 4.08772 3.23261 -0.085753 0.755316 -0.049091
H 6.62956 5.16878 3.48936 -0.664251 0.118021 0.641977
H 1.68519 6.08338 1.12456 -3.279572 -0.058469 2.28147
H 2.35055 5.9919 12.2912 0.672943 -0.406158 -1.129762
H 7.46147 6.10429 1.44304 -0.580814 0.809797 0.078952
H 9.42721 5.83131 12.2973 -0.28981 -0.08949 0.142487
H 7.10907 10.5969 11.0383 0.45799 -0.128083 -0.071871
H 7.4995 7.78162 2.77138 -0.047678 0.45041 -0.085578
H 8.09893 4.96621 12.1178 -0.977862 -1.241096 -1.610059
H 0.60506 5.57929 3.38794 -0.79028 0.128059 -0.993362
H 10.0044 5.83579 4.40004 -0.00875 0.777545 0.186759
H 6.62446 0.37645 11.0261 0.342498 -0.2552 -0.625915
H 10.0803 4.45405 5.01783 0.471084 -0.779143 0.954058
H 11.9186 5.76935 2.02848 0.23412 -0.587191 0.542536
H 3.6643 1.61289 1.6402 -0.115341 -0.117303 -0.328498
H 0.48679 9.03337 1.95259 -0.140439 -0.591143 0.198433
H 0.74391 7.63202 2.71316 -0.168439 0.280142 -0.614296
H 4.88163 0.97718 2.42286 0.559101 -0.052181 1.294327
H 3.57508 11.637 1.31682 -0.385752 -0.820274 0.239959
H 6.56501 1.42512 4.08913 -1.172152 -0.67324 -0.111852
H 7.34754 9.13792 3.65436 -0.295514 0.118184 0.162412
H 8.68751 7.99999 7.99036 0.324559 0.241024 -0.36629
H 9.02574 7.27443 6.59396 -0.186773 0.20064 0.494872
H 8.06231 9.75633 11.9969 0.171637 0.160364 0.18778
H 0.42551 0.1231 1.37289 -0.279215 -1.305265 -1.438763
H 8.58027 9.49242 1.89917 -0.157947 -0.684611 0.701522
H 10.5577 9.77365 0.83472 -0.337787 0.084912 0.375488
H 8.84056 10.8811 1.26118 0.08254 1.104998 0.132632
H 11.9451 10.5804 0.59614 -0.617893 -1.056083 0.250821
H 2.19172 4.68643 4.23645 -0.95913 0.173991 -0.261811
H 1.00715 0.82206 3.61752 0.331671 -0.124396 0.565306
H 3.7494 5.81538 6.42733 1.837746 0.220071 -0.442144
H 1.05783 0.56031 5.95551 -0.048518 0.409432 0.006423
H 4.91819 4.70617 6.59536 -0.022443 0.829569 -0.230279
H 3.29424 0.78167 5.77838 -0.108973 -0.300403 0.23695
H 1.9408 12.3025 10.2905 -1.040939 0.455591 0.394251
H 4.48485 0.52648 6.79835 0.506671 -1.674018 2.107499
H 10.6869 0.2049 5.56387 -0.085578 0.092047 0.44987
H 9.60193 0.40287 4.53508 -0.425129 0.413552 -0.663147
H 10.2717 2.53867 2.47457 -0.401842 0.419203 0.114331
H 11.6282 4.4002 6.46674 -0.286511 0.227335 0.754386
H 1.5958 5.66336 5.2691 -0.570971 -0.260715 -0.349157
H 2.40918 7.69123 6.87298 -0.132408 -1.162933 -0.35174
H 4.2186 7.64838 3.99975 -0.140286 -0.540321 0.669101
H 1.80808 6.34134 7.45827 -0.194688 -0.476334 0.156881
H 8.31758 9.47761 9.64738 0.528957 1.228853 -1.740318
H 4.95049 8.84374 3.43485 0.213094 0.393371 0.224832
H 5.863 2.73164 7.41456 -0.529121 0.138468 0.337703
H 4.36362 2.64428 7.01035 -0.309491 -0.687467 -0.371116
H 4.81737 4.00899 8.93706 -0.05285 -0.149428 -0.367227
H 4.4791 7.41261 9.71696 0.301646 0.112749 -0.62223
H 3.76928 3.89441 10.104 1.162683 0.969375 -0.228983
H 7.95776 2.15169 8.26137 0.381104 0.081176 0.143257
H 7.73337 2.09894 6.71142 0.060344 0.11687 -0.208598
H 5.40119 6.64079 7.53835 0.563226 0.369491 0.360219
H 6.79856 7.21793 7.96454 0.644833 -0.253605 -0.179553
H 2.02114 9.42231 6.37201 0.539428 -0.4546 0.396433
H 1.70999 11.782 5.24233 0.084493 -2.546394 -0.611524
H 1.28991 9.65268 4.0499 0.080661 0.03012 0.722631
H 3.5238 9.17195 6.95776 -1.429427 -0.095943 0.339528
H 5.43579 8.72927 7.41396 0.585585 -0.973158 0.598342
H 5.20395 0.90976 4.7463 0.131708 0.077571 -0.213035
H 6.08912 9.98019 5.39415 -0.238872 -0.451661 0.112743
H 6.20593 11.0064 4.28306 -0.01122 1.191878 -0.481697
H 5.24998 10.3022 7.37586 -0.399631 -0.642131 -0.312257
H 9.16135 7.87622 4.31902 -0.791884 0.149577 -0.561614
H 0.45027 10.1443 5.33877 0.35804 -0.423959 -0.834935
H 10.5174 10.5198 5.07899 0.043331 0.150636 0.505346
H 10.2522 8.43821 5.18927 0.531371 0.036238 0.383727
H 10.906 10.1061 6.56901 0.200576 -0.289853 -0.547458
H 1.78018 1.4405 10.5343 -0.278967 0.5425 0.189608
H 11.8986 2.03898 6.65967 0.364364 -0.583415 -0.300173
H 11.4694 3.43158 0.5313 0.027041 -0.055576 -0.561557
H 12.3475 3.27802 11.6273 0.865458 0.413138 -0.376859
H 6.27869 4.03862 10.6591 -0.121279 0.009707 -0.349964
H 7.79263 3.66555 10.2121 -0.821337 -0.138592 0.771419
H 7.4084 12.3327 7.24409 -0.22932 0.072588 0.386467
H 6.73235 2.1213 12.0123 0.459707 2.241769 -0.871824
H 5.79691 1.23431 0.47975 -0.687607 0.053082 0.314676
H 10.7107 1.62281 11.7031 1.157313 1.305223 0.751652
H 0.06817 3.79139 5.36846 -0.379094 -0.113944 0.14802
H 9.46451 2.48768 10.2581 0.364879 -0.381125 0.142454
H 11.9742 8.90056 9.69138 0.382406 -0.656621 0.645249
H 11.5542 6.91412 11.4692 -0.071623 -0.135084 -0.065681
H 4.38586 6.01088 10.2802 -0.74719 -0.005732 -0.233779
H 6.2028 8.30185 11.9679 -0.182575 0.373758 0.874668
H 4.94379 7.5684 11.7717 -0.623031 -0.668349 0.126221
H 11.289 7.33859 0.49678 -0.220667 -0.691228 -0.535264
H 11.9863 8.94148 11.2244 0.046749 -0.13842 0.583602
H 8.17794 10.3542 8.16577 0.123556 -0.120288 0.62951
H 9.79399 3.48681 9.00589 -0.766658 -0.531845 0.50454
H 11.2872 5.18795 8.80969 -1.193268 0.022836 -0.696637
H 9.84172 5.76851 8.38386 -0.432148 0.634948 -0.244388
H 0.58955 6.63291 9.504 -0.163261 -2.875974 -0.629056
H 3.09511 8.19852 11.0145 1.050911 -1.513856 -0.458683
H 1.75156 8.80975 10.9988 -0.516958 0.045388 0.299665
H 2.42572 10.4234 8.8518 -0.170527 0.163057 0.270327
H 2.8647 10.2156 10.3468 -0.440335 0.426446 -0.124616
H 0.57204 0.03975 12.1475 0.049043 -0.057046 0.275465
H 2.20474 10.9993 0.95876 0.379942 -0.014784 0.276234
H 5.66191 11.8396 8.92767 -0.879345 0.308805 -0.163664
H 8.56467 11.7026 6.63635 2.770391 0.521705 -1.881073
H 1.08533 5.00824 9.55756 -0.401725 0.847877 0.219739
H 4.04267 11.6148 8.95329 1.421466 0.103023 -0.885224
H 10.942 0.47552 9.8695 -1.169764 0.391163 1.369374
H 0.0679 0.35536 9.63242 0.397823 0.383065 0.665177
H 11.8831 0.83007 7.68831 0.159708 0.015901 -0.696806
H 10.2607 9.90216 8.52656 -1.095014 -0.214612 0.52201
H 11.435 10.8492 8.84224 0.054894 0.690171 0.060707
O 2.26444 2.56579 1.45684 0.597114 -0.41585 1.61156
O 3.44341 4.46386 3.04585 0.207096 -0.21801 -0.581411
O 7.83357 2.72966 4.85767 0.487915 -2.203642 0.858795
O 10.7182 4.19302 1.93118 -0.993441 0.231266 -0.335178
O 8.73169 0.22015 1.24254 -1.53279 -0.053787 -0.633771
O 6.21183 4.70934 4.25723 -0.02883 0.637089 -0.595031
O 2.54628 6.12546 0.81412 2.772244 0.46156 -0.773358
O 6.76864 6.61553 1.95372 -0.017813 -0.267129 -0.641177
O 8.62622 5.44706 0.32323 1.497464 1.118839 1.606238
O 7.49292 9.70837 11.2045 -0.361277 -0.380618 -0.154212
O 7.96502 8.60995 3.11311 0.418015 -0.669985 0.003476
O 0.28765 6.07008 2.53715 0.610185 0.471444 0.087019
O 6.88 12.2589 10.1893 0.124675 0.465549 0.115948
O 9.91546 4.89612 4.19847 -0.4827 0.399555 -0.764261
O 4.44196 1.02507 1.57272 -0.153402 -0.30429 -1.258498
O 1.14433 8.51145 2.46938 0.012211 0.838526 0.291747
O 5.75011 0.8564 3.91474 1.241364 0.53747 0.37557
O 8.68425 7.14193 7.52119 -0.149964 -0.226543 0.038697
O 11.5257 9.65845 0.7301 1.714451 0.411868 -0.820812
O 9.08373 9.95339 1.20275 -0.490162 -0.27819 -1.07161
O 0.38803 1.17469 2.96603 -0.524957 -0.238088 -0.910109
O 4.77763 5.636 6.22626 -2.052283 -0.597143 1.099323
O 1.79119 0.30626 5.33443 0.111511 2.401606 0.192509
O 4.21082 1.0303 6.07003 -0.588024 1.785183 -2.094255
O 9.81485 12.2534 5.28666 0.66189 -0.161736 0.33331
O 10.0791 1.69153 2.93909 -1.777674 1.177208 -0.173237
O 4.29209 8.17364 3.21479 0.047524 0.228945 -0.639875
O 2.30593 6.61665 6.6766 0.073962 0.15469 -0.079062
O 1.29717 5.01708 4.55482 1.720549 0.046518 1.21156
O 4.97758 3.19175 7.50794 1.167018 0.480575 -0.122045
O 4.61031 4.38718 9.81339 -0.832838 -0.636924 1.066542
O 7.36072 1.81134 7.56621 -0.399066 -0.036258 -0.378099
O 5.8593 7.26138 8.18824 -1.124122 -0.277316 -0.357455
O 2.49829 8.98057 7.15202 1.51881 1.66061 -0.818448
O 1.36831 10.0833 4.95248 -0.831809 -0.124408 0.073571
O 6.19502 10.0681 4.42855 0.020994 -0.631957 0.114276
O 5.14953 9.45283 6.84345 -0.553043 1.705328 0.004449
O 4.85068 11.7622 8.3424 -0.296944 -0.299879 1.011162
O 9.76042 7.608 5.02797 0.043688 -0.595543 0.118696
O 11.0031 9.85671 5.61225 0.213747 0.325703 0.384865
O 1.28751 0.6113 10.6186 1.559245 -0.931831 -0.337851
O 11.5557 2.97681 12.0614 -0.869571 -0.141792 1.001875
O 7.15206 3.7498 10.9817 0.777342 -0.023679 -0.315622
O 6.61713 1.25747 12.3505 -0.273361 -1.964994 0.767186
O 7.80134 11.4546 7.08386 -2.741864 -0.321598 1.226467
O 10.0993 0.95259 11.4356 -1.520445 -1.477952 -0.755435
O 11.7041 3.58796 5.96124 0.537541 0.047797 -0.574856
O 9.20135 2.73595 9.36191 0.134317 1.128426 -0.713263
O 0.479 5.67031 9.11863 0.403509 2.381681 0.331416
O 12.3465 8.38975 10.5012 -0.409834 1.066589 -1.218133
O 11.1825 6.55578 12.2963 0.103831 0.953657 0.618008
O 3.9439 6.90878 10.3395 0.693079 -0.278731 0.361609
O 5.4645 7.92294 0.1141 0.677108 0.604495 -1.131198
O 10.3843 4.97686 8.37663 1.732271 -0.787616 0.647773
O 8.73256 9.73772 8.72892 -1.054978 -1.269707 1.414087
O 12.145 1.0733 6.74159 -0.857075 0.345145 0.829446
O 2.63645 8.93149 11.3964 -0.967039 1.224259 0.255306
O 2.57976 10.9217 9.68356 0.683072 -0.681811 -0.32658
O 3.07318 10.7775 1.36434 -0.025591 1.172554 -0.420858
O 0.39858 11.906 0.55841 0.476209 1.332258 1.278525
O 11.5959 0.28795 9.21491 0.326586 -0.939219 -2.120258
O 11.2303 9.96757 8.49926 1.457296 -0.377597 -0.45227
Na 3.15145 8.52834 1.34864 0.019372 -0.021933 -0.066957
Cl 1.8511 3.79629 10.9267 0.313411 -0.327766 0.048788
188
energy=-1015.9951733 config_type=nep2xyz pbc="T T T" virial="-12.328737695642605 8.770300873638824 -2.139931659581993 8.770300873638824 -20.585960967957476 -4.196871246993436 -2.139931659581993 -4.196871246993436 -19.058199967480363" Lattice="12.4 0.0 0.0 0.0 12.4 0.0 0.0 0.0 12.4" volume=1906.6240000000003 Properties=species:S:1:pos:R:3:force:R:3
H 1.64519 0.65661 0.18397 -1.404475 0.665041 -2.245713
H 2.32903 9.44057 4.73461 -0.378212 0.228738 0.292888
H 1.21519 5.55817 4.24861 0.126303 -0.321303 0.190203
H 3.10744 4.0764 0.98097 -0.374751 0.486726 -2.272229
H 1.28973 0.93764 2.85055 -0.837187 -0.279385 1.763071
H 2.57387 4.38492 2.39888 -0.465779 0.346542 0.368533
H 5.47106 2.7747 3.9514 0.085437 -0.164043 -0.084615
H 8.61915 3.54174 0.44503 -0.601073 -0.438766 -0.390241
H 3.89158 9.30764 4.75472 -0.697014 -0.005658 -0.636383
H 9.48727 12.0752 0.41758 0.494459 -0.695173 0.341978
H 8.79306 1.52279 1.30623 -0.480344 -0.021404 0.33784
H 5.65012 5.72608 0.86199 1.049839 1.192295 0.554744
H 7.00304 3.50346 0.08601 0.769727 -0.627163 0.505281
H 10.2575 1.63109 3.04197 -0.016507 0.243396 0.728278
H 8.71118 0.37123 2.40772 -0.943309 0.160669 0.597386
H 11.6016 1.43063 3.76775 -0.274658 0.407216 0.535983
H 7.53475 12.35059 4.49002 -0.010425 0.576358 -1.153103
H 1.62147 6.29295 2.9195 -0.265223 0.0469 -0.01281
H 2.75496 7.55889 1.73753 0.403443 0.28249 -0.491861
H 2.19025 8.33788 2.93391 0.520868 0.767719 0.719144
H 11.3817 3.50536 3.40148 0.060155 0.412257 -0.76522
H 1.0534 10.6368 6.61768 0.583618 -0.132646 0.559354
H 1.90188 11.8982 6.84191 0.584758 -0.125349 0.135692
H 8.16789 6.38795 3.54813 -0.477742 -0.095929 0.815342
H 10.6744 4.04752 1.26351 1.633029 -0.597163 1.307472
H 10.1912 5.27619 3.35182 1.629187 -1.345664 0.042125
H 7.3548 6.13769 9.37666 -0.575289 0.189114 1.520374
H 12.368 4.75772 2.99637 -0.521893 -0.357564 -0.396288
H 0.95917 0.068 11.1896 0.042136 -0.316849 -0.305591
H 9.69781 8.85529 2.2914 0.148041 0.258756 0.960991
H 10.8601 9.51094 3.09752 1.180937 1.12792 -0.03555
H 1.4525 0.69683 4.46663 -0.808154 -0.041358 -0.555222
H 6.13286 9.62438 3.79216 0.677279 0.084681 -0.808374
H 6.43598 6.59059 2.05528 -0.162337 -0.044567 0.403873
H 7.06176 6.9188 4.67826 0.327964 -0.4145 -1.258792
H 1.50562 10.615 0.26713 -0.056165 0.047034 -0.121437
H 3.04183 0.74836 1.90209 0.126289 0.764989 0.363048
H 2.52524 2.35734 1.90489 0.791316 -0.540224 -0.033997
H 8.65203 9.94746 0.48942 0.075442 0.71894 0.331993
H 0.35653 9.91884 4.46511 -0.457897 -0.084057 -0.64428
H 7.44175 9.57644 1.50884 0.137785 0.324424 0.14632
H 5.37664 10.4441 2.76414 1.200695 -0.06526 -0.432184
H 5.85755 1.19328 3.87525 -0.347308 1.192062 0.498298
H 1.71185 6.92924 10.7521 0.132853 0.48293 -1.462383
H 1.92053 2.60405 8.31047 0.494193 -0.331515 -0.349633
H 2.72683 6.84561 11.916 1.018878 1.033706 0.640874
H 0.72236 2.11002 7.55534 -2.007985 -0.984476 0.214038
H 10.0171 1.41817 5.37882 -0.578476 0.063373 -0.065737
H 8.78209 0.62314 6.21105 0.979056 0.602717 0.157338
H 4.49335 6.44227 5.9832 -0.604634 -1.514594 -0.729102
H 5.315 0.0561 8.5612 0.110473 -0.446667 -0.612347
H 6.15561 1.44031 9.91846 -1.404672 0.835533 -1.882569
H 5.54275 2.04893 8.51401 0.448327 0.647134 -0.593479
H 8.7932 6.83441 7.03249 0.440596 -1.092593 -0.253478
H 7.05911 11.699 3.18326 0.16018 0.527904 0.169108
H 7.00404 11.8117 7.10812 -0.15827 0.261674 -0.403162
H 11.2173 6.64443 6.07176 -1.338185 -0.281157 0.392474
H 4.7401 7.5904 0.62542 1.463076 -0.088695 0.559162
H 1.60362 6.50198 8.43614 0.384515 1.320503 -0.09908
H 0.3409 6.35647 6.04889 -1.012408 0.679728 -0.246559
H 2.3545 7.98828 8.58865 0.203982 -0.491503 -0.393309
H 4.44796 5.29748 4.83203 0.091198 0.15473 0.699011
H 8.82791 2.73057 6.86235 0.161094 1.039701 0.806965
H 9.80495 5.71261 0.491 -0.50764 -0.124276 -0.767153
H 9.41991 6.62434 1.56462 -0.350047 0.204341 -0.354417
H 8.32374 2.18298 9.812 -0.267582 -0.074015 -0.015544
H 0.30332 8.70056 5.49589 -0.768076 -1.053525 0.038306
H 9.14531 5.293 6.57224 -0.30106 0.57744 0.482928
H 10.0844 6.84897 3.55524 0.761208 0.46507 0.391819
H 10.5982 9.09492 8.36973 -0.135845 0.172915 0.795392
H 11.6562 8.31714 10.2891 -0.368358 0.335807 0.007529
H 3.70058 8.64204 12.3163 0.606442 -0.185239 0.06831
H 2.12734 1.53468 6.28552 0.298758 0.057771 0.282685
H 3.34726 0.98916 5.47695 1.051867 0.212321 -0.275283
H 0.08036 11.508 3.27345 -0.237931 -0.593621 0.017076
H 4.17266 9.17671 7.45153 1.061457 -0.515474 -1.446387
H 7.53931 3.48369 7.25537 -0.206896 0.194485 -0.099221
H 6.08567 2.52344 5.91446 -0.583837 0.485897 0.085761
H 5.52563 3.91432 6.47026 -0.274291 -0.003045 -0.352184
H 7.77834 8.986 5.35421 1.018891 0.307282 0.268886
H 5.12088 10.9759 7.98325 -1.30664 -2.103823 0.598628
H 9.22082 9.15629 4.66213 -0.670018 0.291612 0.871411
H 8.05094 11.0344 6.18363 0.154252 0.237773 0.163106
H 0.08461 10.4802 2.08876 -0.04401 -0.412644 -0.466861
H 4.6512 4.33003 2.93159 1.122096 0.550248 0.054425
H 3.59083 1.94679 10.1118 -0.605185 0.36255 -0.839347
H 6.11378 5.03744 3.48576 0.38534 0.778727 -0.551257
H 2.64156 3.50317 11.2303 0.54772 1.88871 0.466172
H 2.10333 2.01917 10.6525 0.197017 -0.729341 -0.923218
H 12.2751 2.00248 11.2869 -1.016974 1.137843 -0.307863
H 9.42784 11.2452 11.4961 0.017685 0.06366 -0.295045
H 8.17139 12.3975 9.99449 0.14375 -0.8988 0.696056
H 8.89314 11.2676 9.22246 0.111613 -0.45585 -0.133894
H 11.3563 2.25148 10.0374 0.092126 0.488655 0.795702
H 2.29677 5.16959 11.5887 0.680881 -1.724285 0.323471
H 9.16697 4.07555 8.95654 0.087668 -0.03857 -2.172499
H 10.1573 4.2078 10.1948 1.147067 0.286519 -0.014374
H 2.30189 5.14663 6.11373 1.259978 0.517192 -0.34267
H 7.06422 8.1772 7.71102 0.589024 -0.171968 0.300768
H 1.41745 4.0619 6.68166 -0.468461 0.333823 -0.184791
H 6.088 4.90707 11.2514 -0.877703 -0.186761 0.688423
H 8.53146 8.55528 8.34272 -0.462008 -0.636192 -0.317001
H 7.92479 5.19286 10.4452 -0.932889 0.952293 -0.073781
H 9.81315 9.01534 7.02693 -0.670153 1.090046 1.161859
H 7.93167 2.08083 11.2877 -0.478818 -0.428503 -0.441844
H 10.6435 3.45957 12.07 0.795471 -0.199911 0.670749
H 0.954 11.3028 8.92474 -0.077348 -0.089969 -0.074346
H 12.37448 10.6061 9.95486 0.44746 0.628231 -0.555871
H 5.03861 9.89798 10.9769 0.610315 -0.086382 -0.061649
H 3.89125 9.7271 10.0162 -0.201568 0.11263 -0.215875
H 11.7257 0.21973 8.50924 -0.479196 0.5945 -0.733178
H 3.44237 11.2487 1.75682 -0.680605 -0.516231 0.001437
H 2.95923 10.8983 12.0361 0.322081 -0.430586 -0.931902
H 2.80515 9.92515 7.75309 0.779457 0.139262 0.073274
H 4.61302 4.58696 11.8928 0.797761 -0.610967 -0.230924
H 6.98615 8.74407 9.72636 -0.25971 0.714047 0.752123
H 3.58958 11.3762 3.35656 -0.176227 -0.308563 -0.848403
H 10.7984 7.33962 12.3356 0.047977 -0.383663 0.062484
H 7.33921 10.0767 10.4766 0.332368 0.604026 -0.229786
H 10.8786 1.17533 7.3706 -0.638825 -0.857735 0.000173
H 12.206 9.1799 0.1965 -0.305238 0.588704 0.073812
H 0.14964 8.36286 8.99938 -1.020386 0.756226 0.762065
H 12.3791 7.24339 11.8265 -0.421921 -0.347486 0.710169
H 11.4264 10.5505 0.28604 -0.11248 0.155034 -0.204581
O 0.74518 0.66833 3.74031 1.154953 0.174579 -1.408747
O 1.3338 5.39772 3.30114 0.342933 0.085292 0.054706
O 3.11546 9.52464 4.16863 0.830797 -0.05472 0.443996
O 7.81822 2.95007 0.28765 -0.003549 0.783948 -0.141133
O 3.23325 3.88408 1.89578 0.650188 -0.6529 2.699214
O 9.27659 0.81868 1.76773 1.25717 0.388279 -1.136426
O 10.7271 1.92313 3.87769 0.652036 -0.866514 -1.059703
O 1.99484 7.62903 2.3303 -0.734256 -0.703742 -0.402141
O 1.67365 11.0552 7.29486 -0.901177 -0.189712 -0.606927
O 8.50916 3.55412 7.39879 0.611584 -0.966114 -0.813612
O 10.3008 4.03586 0.39278 -2.122528 0.759204 -1.67924
O 1.14504 0.88146 11.6849 1.096347 0.342451 2.164325
O 10.1596 8.87282 3.17275 -1.804153 -1.41069 -0.730173
O 6.31015 10.0639 2.91206 -1.937546 0.271224 0.939792
O 5.9565 6.63885 1.2129 -0.319772 -0.97714 -1.026082
O 7.19914 6.55718 3.76351 -0.140248 0.042123 0.238641
O 2.39483 11.004 0.39742 0.009301 0.4066 1.194939
O 2.30385 1.39216 1.7988 -0.586191 -0.53529 -0.374755
O 8.14095 9.2423 0.92203 -0.065601 -0.927124 0.180297
O 0.60633 9.59546 5.34533 0.977095 0.792979 0.66024
O 1.82993 6.63263 11.6454 -1.45917 -0.984505 0.290698
O 1.57085 2.491 7.39 1.08473 1.319565 0.542929
O 5.35625 1.90031 4.37827 0.373126 -1.149267 -0.149089
O 9.50674 1.34615 6.22402 -0.090544 -0.144796 0.085168
O 5.31653 1.52907 9.28277 0.988736 -1.060494 2.484957
O 9.4281 6.2351 6.56309 -0.104126 0.309633 -0.0362
O 7.43314 0.17141 3.50872 -0.465398 -1.598704 1.326921
O 1.57905 7.42294 8.79798 -0.292198 -0.84603 0.370957
O 4.10761 5.53972 5.7426 0.582926 1.268257 0.312777
O 9.32255 6.57722 0.5748 0.950983 -0.390684 0.659172
O 9.67539 6.05346 3.21568 -2.131262 1.727838 -0.62866
O 12.0385 7.02841 5.78585 2.192055 -0.270375 -0.064727
O 9.74108 9.38002 7.96955 0.493072 -0.834668 -1.621485
O 3.84929 7.77513 0.34893 -2.046481 0.353652 -0.645591
O 2.46235 0.77396 5.74773 -0.805341 -0.375682 -0.077661
O 3.56978 9.38531 8.14072 -1.954657 0.394997 1.416989
O 6.04485 3.13239 6.69803 0.080933 -0.509768 0.379912
O 8.70311 9.32168 5.52339 -0.311708 -0.470348 -1.474572
O 7.75524 11.9331 6.45603 -0.188854 -0.916426 -0.259417
O 12.2032 10.5698 3.01546 0.442006 1.29889 0.778898
O 5.34581 4.48639 3.6415 -1.784539 -1.232276 0.093429
O 2.6959 2.33396 9.90567 0.066505 -0.200037 1.508535
O 2.87069 4.31293 11.8078 -0.79227 0.117969 -1.033686
O 5.53516 11.7863 7.84158 1.255398 2.429345 -0.082479
O 9.7508 11.1985 0.01876 -0.18368 0.489695 -0.010906
O 8.43888 11.42 10.0632 -0.085617 1.229038 -0.524616
O 11.5894 2.67836 10.9058 1.021633 -1.847766 -0.525528
O 11.4981 4.27855 2.77427 0.004684 -0.582262 0.973841
O 9.30232 3.96651 9.88261 -1.492298 -0.196892 2.060245
O 7.18232 5.89321 10.3426 1.968721 -1.131767 -1.345771
O 1.37573 4.97064 6.275 -0.406053 -0.558292 0.540053
O 7.7642 1.62089 10.3878 0.639967 0.461388 0.524453
O 7.73585 7.872 8.36958 -0.360964 0.67874 -0.30937
O 11.799 8.86257 9.47993 1.445613 -0.948607 -0.806963
O 0.39587 11.4747 9.7129 -0.47124 -0.429541 0.449602
O 4.07772 9.99595 10.9319 -0.341163 -0.105901 0.015735
O 3.9759 11.6152 2.48549 0.673678 0.483746 0.724877
O 5.60838 4.47951 12.027 -0.34129 0.712194 -0.606238
O 6.74465 9.31754 10.5256 -0.112464 -1.457244 -0.579885
O 11.5698 1.08357 8.04937 1.184169 0.455625 0.998981
O 11.5553 7.76538 11.8739 0.531945 0.254546 -0.378357
O 12.3092 10.1445 0.41318 0.166373 -0.520819 -0.08458
Na 7.44885 7.60344 12.0055 0.032076 -0.225096 0.063371
Cl 5.6516 8.61611 5.76106 0.038048 -0.106492 0.317767
188
energy=-1014.54956649 config_type=nep2xyz pbc="T T T" virial="-7.591668266241665 0.5133156055458382 -1.5543579722725211 0.5133156055458382 -7.323151903113433 1.3252551082880892 -1.5543579722725211 1.3252551082880892 -14.435027458461459" Lattice="12.4 0.0 0.0 0.0 12.4 0.0 0.0 0.0 12.4" volume=1906.6240000000003 Properties=species:S:1:pos:R:3:force:R:3
H 8.23498 5.07555 4.90617 0.653302 0.405777 0.885905
H 8.81223 4.6295 6.33224 -0.196839 1.230431 -0.840163
H 11.3742 9.63683 10.3378 -0.101724 -0.516162 0.61095
H 0.20639 8.8894 11.0467 1.777142 -0.247163 0.018909
H 7.38097 2.75901 2.95698 -0.005846 0.300286 -0.335452
H 8.67354 2.14593 3.4612 0.459947 0.184283 -0.025374
H 6.05962 9.44559 8.126 0.037901 -0.837549 1.370767
H 6.04848 8.00161 8.05096 -0.163061 -0.862186 0.529665
H 6.0119 10.9972 11.9673 -0.29171 0.101075 0.279826
H 5.199 12.2401 11.4111 -0.089302 0.293069 0.249085
H 8.69844 11.56 1.77878 0.833403 0.370757 -0.172563
H 10.2948 11.1421 1.33661 -1.159299 -0.041591 -0.321186
H 6.89753 8.46847 3.88017 0.400939 -0.312429 0.620335
H 8.08229 7.97743 4.97882 -1.74838 1.220394 -0.525394
H 3.61527 7.97166 3.73123 0.040517 0.07906 -0.091938
H 2.17642 8.17829 4.07038 -1.397768 -0.620362 0.266658
H 6.78402 1.94172 0.59728 0.215946 0.309513 -0.65831
H 5.34146 2.07149 1.29374 0.024179 -0.036744 -0.246381
H 7.61518 9.32021 12.0349 0.106344 -0.428773 -0.230148
H 8.05653 10.3605 0.79224 -1.554431 -0.995571 -1.274784
H 5.18016 10.1927 6.34538 1.010876 -0.364184 -0.263065
H 6.7414 9.95339 6.05164 0.398406 -0.484821 -0.638082
H 3.34419 5.91995 3.79368 -1.270591 -0.662602 -0.493348
H 4.11446 6.16477 5.14536 -0.279133 -0.556222 0.819182
H 2.13912 0.26219 10.737 -0.196922 -0.961936 -2.186499
H 1.90654 0.01305 12.2168 -0.113521 -0.738984 0.180506
H 5.13299 9.76952 2.29064 0.540464 -1.366153 0.109433
H 4.94822 11.0405 1.39159 -0.661386 -0.865507 1.699351
H 10.3387 2.10482 2.00426 0.158584 -1.016429 1.788709
H 9.89241 0.57749 2.12532 -0.299839 -0.829723 -0.740491
H 1.4848 5.68169 1.82956 0.27304 -0.010065 -0.522117
H 1.56001 4.70998 3.03911 -0.229588 -1.180971 0.33268
H 9.77961 0.92931 8.31674 1.420733 0.821769 0.720721
H 10.5941 1.54432 9.57399 -0.161659 -0.198896 -1.373131
H 7.15161 8.48424 10.1847 -1.075678 -0.406254 -1.349056
H 8.11352 7.45793 10.9347 -0.430259 -0.414738 -0.174997
H 11.8956 1.38495 5.93961 0.016567 -0.219833 0.420279
H 11.6858 1.82538 7.4794 0.056232 -0.234949 -0.468141
H 2.67125 8.83949 11.0019 0.026429 -0.464899 0.10414
H 1.96803 7.45953 11.6758 0.253528 1.386595 -0.049076
H 1.29943 2.27577 3.60378 0.389205 0.280348 -0.309971
H 0.63601 2.93822 4.79262 -0.267303 0.300852 0.76313
H 6.76895 6.33827 6.5847 -0.433986 -0.565984 0.653171
H 6.25717 7.45713 5.86006 -0.452519 1.005598 -0.72542
H 3.83374 3.18655 0.62058 -0.018079 0.207198 0.058212
H 3.20238 1.70849 0.46442 0.405763 0.377628 -0.13602
H 4.79695 3.09362 10.0232 -0.257052 1.548918 -0.122958
H 3.84998 4.30963 9.5857 -0.875144 -0.359349 -0.586225
H 7.92855 3.27683 11.3121 0.026139 0.01098 0.026428
H 8.77847 1.9567 11.4279 0.390776 -0.114753 0.047382
H 11.5659 3.55118 1.03811 0.179346 -0.013414 1.216786
H 11.8411 3.64905 2.64044 0.024444 -0.373201 -0.440131
H 4.77115 1.70396 5.29119 0.684374 0.244304 0.059918
H 3.48642 1.44607 6.16656 0.206083 -0.34704 -0.516555
H 6.23497 11.5375 2.86496 0.668608 0.671776 -0.086081
H 6.888 0.56584 2.49942 -0.352416 -0.499239 -0.146397
H 2.36344 3.13822 8.29492 0.020954 -1.607993 -0.538747
H 2.83126 4.56213 7.73681 -0.070859 -0.907219 1.501174
H 0.10577 11.2683 4.49541 -1.600042 1.08107 -0.484981
H 0.78528 10.0528 3.64944 -0.766466 0.26437 0.416208
H 8.95521 11.8697 7.03812 0.129707 -0.020495 0.137628
H 8.12265 11.7322 8.2694 -1.579882 0.273033 0.593579
H 6.90562 2.4337 4.80483 0.128319 0.615342 0.935283
H 6.40903 2.95441 6.34843 0.38539 -0.407215 -0.989184
H 1.86765 11.1091 8.53933 -0.975889 -0.794542 -0.78359
H 3.10613 10.9694 9.43903 0.201562 -0.490491 0.032864
H 6.02812 0.87352 7.32336 0.019137 -0.012501 -0.315033
H 6.02864 11.6557 7.41904 0.315281 1.550774 0.379558
H 7.45593 3.92403 8.42761 -0.990876 0.298384 0.017423
H 5.92148 4.37598 8.61822 -0.192801 -0.081467 1.062996
H 0.82459 4.28501 9.44956 0.247698 -0.196812 0.313458
H 12.0128 5.10294 10.0506 -0.181483 -0.171373 0.37324
H 8.01071 0.92166 5.87906 0.006002 0.312429 0.307039
H 8.04319 12.388 4.69358 1.418061 0.166702 1.360857
H 3.31929 10.2627 6.46955 -1.2227 0.73141 0.4529
H 3.38676 9.36055 5.15021 -0.072323 0.113023 -0.321446
H 9.94834 7.37537 2.59821 0.711316 0.374162 0.06401
H 10.354 8.25203 3.81423 0.061624 -0.359167 -0.449264
H 6.05274 7.53365 2.19154 -0.524774 -1.292939 0.237598
H 6.79684 8.7412 1.66201 -0.236612 0.521798 0.537899
H 5.32411 5.78233 3.06306 0.959767 0.072739 -1.331185
H 6.75955 5.65319 2.24466 0.410707 -0.311034 0.214685
H 9.37229 4.99376 2.23459 0.544192 -0.706213 -0.136198
H 8.79135 5.72277 0.96923 0.185026 -0.257325 0.557869
H 0.88702 6.40934 3.69537 0.181335 -0.237239 -0.391262
H 12.0624 7.18487 4.32343 -0.760723 0.059219 -0.395451
H 4.53434 4.49522 11.563 0.476944 -0.213283 -1.655754
H 4.71126 5.21542 0.52742 0.824051 0.57381 0.990191
H 9.28049 2.84234 6.10771 0.898198 -0.924495 -1.554401
H 9.86458 3.11986 7.56496 -0.233965 -0.5844 -0.549822
H 11.0508 1.8126 11.8574 1.206861 0.200661 0.818746
H 10.1447 0.46406 12.2009 0.307638 0.442307 0.054258
H 0.06172 3.27262 11.2706 -0.295956 0.037063 0.546697
H 0.77962 2.10097 11.9312 -0.165393 -0.224399 0.454956
H 4.59619 5.96166 6.9842 -1.4185 0.096827 -0.026514
H 2.8734 6.23334 6.94847 1.561231 -0.600768 0.134288
H 9.55715 6.83248 5.62258 -0.128316 -1.01923 0.132119
H 10.5729 7.95509 6.11415 -0.802761 -0.396322 -0.329991
H 10.9541 7.16685 10.4757 0.211625 -0.362808 -0.040659
H 10.0611 5.90521 10.2674 -1.246098 -0.506849 0.384256
H 9.10477 9.51514 9.89049 -0.247414 -0.174072 0.099239
H 9.66214 10.5571 8.76908 -0.240173 -0.312856 0.505932
H 1.52433 1.3285 7.17668 -0.33494 0.369068 0.018106
H 2.56061 0.6801 8.1251 0.300976 -1.026673 0.766854
H 10.9686 9.23397 1.66274 0.452082 -0.212348 0.356193
H 11.4022 9.64433 0.17201 0.023349 -0.032944 0.253883
H 0.0253 9.54843 7.35256 -0.47407 -0.631979 0.07138
H 0.80207 10.1515 6.12519 -0.091716 0.099994 -0.705576
H 2.54954 5.22084 12.2463 -0.277352 0.960795 0.096117
H 1.20587 5.3909 11.4893 0.145716 0.319577 0.509689
H 11.1498 0.70003 3.94761 0.65613 -0.772583 0.320369
H 10.6349 12.3029 5.09829 -0.376272 -0.261303 0.429208
H 3.1704 1.68363 2.58111 -0.634421 -0.482472 0.568998
H 3.07202 1.14848 4.11815 0.324248 0.199153 -0.365198
H 5.25491 0.8408 9.40178 -0.298611 0.098644 -0.381369
H 6.24522 1.5787 10.213 -0.387618 0.42274 0.591968
H 10.7464 8.55223 8.54675 -1.108455 0.226911 1.17737
H 11.544 7.21823 8.0632 -0.053372 0.223298 0.600805
H 1.65361 7.96041 7.33413 -0.463242 -0.161716 -0.126633
H 0.95588 7.05216 6.27337 0.201095 0.008841 0.044686
H 1.98988 9.80365 0.32814 -1.19295 1.503052 0.971852
H 0.62507 10.4372 0.91366 0.823175 -0.09387 0.11683
H 4.28529 10.4841 10.9394 -0.105302 -1.280797 -0.365058
H 4.68918 9.24249 9.98845 0.133194 -0.117759 -0.405418
O 8.67872 5.45203 5.71021 -0.836095 -1.562878 0.002474
O 11.6767 9.07218 11.0942 -1.586304 0.370189 -0.359741
O 8.04649 2.87242 3.66798 -0.510077 -0.357512 -0.248216
O 6.02255 8.65176 8.78977 0.15523 1.61521 -1.696141
O 5.11731 11.4203 11.9422 0.537569 0.017748 -0.229647
O 9.45648 11.7138 1.14653 0.0463 -0.773925 0.630685
O 7.1597 8.40587 4.86427 1.66086 -0.571331 0.104468
O 2.9286 8.67223 3.76401 0.902657 0.519236 -0.254733
O 6.31602 2.03973 1.43557 0.342227 -0.321952 1.20397
O 7.26578 9.85513 0.38945 1.322967 1.419099 1.414289
O 6.14588 10.3855 6.66527 -1.320735 0.047592 0.54045
O 4.1448 6.23117 4.1897 1.515608 0.948087 -0.685912
O 2.28291 0.62939 11.5797 0.116998 1.507135 2.206685
O 4.73419 10.6329 2.31595 0.090046 2.538113 -1.993757
O 10.1532 1.32527 2.6622 0.366718 2.222336 -0.217955
O 1.89898 5.53484 2.69336 0.038416 0.642947 -0.01373
O 10.5349 1.57363 8.56787 -1.175579 -0.660307 1.435156
O 7.83517 8.3854 10.8367 1.524718 0.504078 0.852633
O 12.2463 1.93684 6.66561 0.383405 0.216499 -0.309643
O 1.93381 8.47657 11.5506 -0.307044 -0.914365 0.119621
O 0.87228 3.12557 3.88409 -0.049201 -0.29276 -0.578607
O 5.94746 6.87537 6.58298 1.171937 -0.591969 0.416615
O 3.70081 2.30574 1.06043 -0.301166 -0.792406 0.074001
O 4.68747 4.11662 10.0215 1.337553 -1.447581 0.432249
O 7.87131 2.30331 11.4202 -0.850469 -0.555 -0.010324
O 11.1542 3.65513 1.94196 -0.194685 0.260606 -0.820143
O 3.94511 1.20508 5.31233 -0.860944 -0.142401 1.246801
O 7.08667 12.0704 2.87433 -0.059592 -0.125434 0.212707
O 2.50889 4.03201 8.56769 -0.255476 2.276631 -0.617306
O 0.8646 10.7182 4.35326 2.537395 -1.764147 -0.231615
O 9.03385 11.7744 8.02277 0.869103 0.340553 -1.290616
O 6.40186 2.23825 5.64569 -0.187356 0.058027 0.759111
O 2.48551 11.6112 9.05068 0.491572 0.986437 0.569349
O 6.08538 0.14559 7.95258 -0.011953 -1.104418 0.028097
O 6.59553 4.0985 7.99404 1.043063 -0.451643 -1.317274
O 0.19733 4.31398 10.2105 0.485671 0.644148 -0.948155
O 8.62881 0.26636 5.5064 -1.63556 -0.569876 -1.91515
O 3.83021 9.63898 5.98572 0.971836 -0.526754 0.236278
O 10.6127 8.06346 2.87883 -0.952002 -0.248658 -0.307999
O 6.2856 8.43055 2.46413 0.584317 0.910989 -1.007229
O 5.81502 5.81417 2.15788 -1.22282 0.276862 0.963829
O 8.94852 5.79736 1.94181 -0.834638 0.993325 -0.548307
O 0.59275 6.99692 4.40927 0.64856 0.631746 1.166384
O 4.1822 4.58855 0.0541 -1.383928 -0.139973 0.81022
O 9.09103 3.15979 6.96221 -0.625213 1.322572 1.903844
O 10.3623 1.19583 11.597 -1.724323 -0.927363 -1.192209
O 12.3935 2.66286 12.0847 0.672099 0.287462 -0.768495
O 3.66757 5.57357 6.88002 -0.6737 1.106545 -0.396171
O 10.0341 7.62606 5.34091 0.992711 1.508483 0.834548
O 10.9258 6.2651 10.0907 0.87082 1.058594 -0.241463
O 9.88495 9.83711 9.42004 0.654872 0.076747 -0.456206
O 2.40045 1.45213 7.58982 -0.03364 0.979676 -0.899198
O 11.4288 9.93218 1.13776 -0.601857 0.386097 -0.342823
O 0.82809 9.99278 7.07248 0.927154 0.456112 0.769099
O 1.75763 5.84355 12.1804 0.138151 -1.205394 -0.554759
O 11.4902 0.08356 4.69301 -1.007277 1.451463 -0.919957
O 2.63294 1.1154 3.21044 -0.150182 0.156539 -0.80518
O 5.2659 1.45451 10.1676 1.027934 -0.585526 0.0584
O 11.2951 8.13372 7.89662 0.870902 -0.002638 -2.104037
O 1.3153 7.05608 7.18729 0.691708 -0.103128 -0.316701
O 1.60331 10.6281 0.84393 0.398242 -1.353139 -0.89758
O 3.92564 9.73251 10.3337 0.068741 1.234409 0.616213
Na 2.59389 11.2127 2.78225 0.198266 0.135188 0.165073
Cl 8.04871 5.19644 11.046 0.379443 0.813821 0.072528
188
energy=-1016.78775125 config_type=nep2xyz pbc="T T T" virial="-2.57616959787107 -2.5739680588186538 -4.305424972594204 -2.5739680588186538 -14.105629615375594 -2.2672044172338475 -4.305424972594204 -2.2672044172338475 -9.583668401712371" Lattice="12.4 0.0 0.0 0.0 12.4 0.0 0.0 0.0 12.4" volume=1906.6240000000003 Properties=species:S:1:pos:R:3:force:R:3
H 1.30292 0.25244 2.9702 0.266331 0.125325 0.184649
H 0.66672 0.53736 4.36287 0.164818 0.116624 0.318493
H 4.24434 0.22983 11.4294 0.535238 0.44828 0.434481
H 10.0439 2.77718 0.53336 0.349901 0.315183 -0.530512
H 5.48856 1.01206 4.62357 0.039066 -0.411385 0.982708
H 7.126 4.12424 5.34055 0.503023 0.344478 0.590311
H 5.12812 12.204 5.71603 0.831685 2.023466 -0.217979
H 7.81224 8.03468 7.30481 0.583183 -0.277508 -0.276156
H 11.4963 3.28787 0.78431 -0.783586 0.124309 -0.668788
H 5.69635 3.76828 4.85327 0.575434 -0.054449 -0.418216
H 6.33191 1.32023 11.8504 -0.523812 -0.321804 -0.176847
H 8.46052 5.46128 2.60148 1.328274 -0.364122 -0.238421
H 0.15209 6.13635 0.99185 -0.103518 1.433392 0.365479
H 1.14082 5.97361 2.14503 -0.085938 0.778711 0.225284
H 0.6323 3.7497 2.64024 0.832605 0.177552 -0.144723
H 12.3965 2.30481 2.73204 0.223286 0.585981 -0.2236
H 3.39392 6.52224 0.66154 -0.016551 -0.000648 -0.227795
H 6.42154 7.73464 7.32699 -1.493099 -0.357004 0.261391
H 4.29621 7.44408 2.53315 0.394121 -0.0977 0.005442
H 5.78501 10.4193 6.82815 0.391593 0.073159 0.167077
H 4.26706 10.7871 7.05007 -0.139514 0.076978 -0.189819
H 8.99357 5.19335 6.41684 -0.394034 -0.003574 0.211445
H 7.578 5.85425 6.49407 -0.573279 1.814993 -0.061389
H 9.5932 6.31245 2.98083 0.982061 1.068082 0.557057
H 5.38445 4.29385 8.8622 0.079035 0.435071 -0.164931
H 2.97117 4.7942 11.5144 0.000948 -0.06696 -0.087719
H 4.25493 4.77344 0.07202 -1.053593 0.077366 -0.150425
H 2.61823 4.31307 1.76517 0.021361 0.263803 -0.571874
H 5.35526 11.6358 11.5136 0.688602 -0.829527 -0.345244
H 2.79876 4.48281 3.32072 -0.310638 0.23875 -0.245492
H 0.07671 11.2141 11.8618 -0.187788 0.013014 -0.105741
H 5.88233 9.09394 2.68032 0.667304 0.603899 -0.260041
H 6.87422 9.82044 1.63507 -0.198168 -0.09422 0.330166
H 8.33574 10.3581 12.2559 0.215129 0.84686 0.148832
H 9.05105 1.53132 4.26041 0.000722 0.477415 -0.225998
H 7.01686 10.0157 11.361 -0.23007 0.434553 -0.621173
H 9.46922 12.2818 0.94699 -0.226866 0.281083 0.115939
H 10.1477 10.9947 1.61854 -0.136777 0.510771 -0.811892
H 3.74679 12.1566 2.63165 -0.847945 -0.480942 -0.241521
H 5.43263 12.2859 1.47416 -0.117259 0.620321 -0.509681
H 5.94206 11.4473 2.60801 -0.364324 1.248569 0.114284
H 10.9181 9.28844 6.5871 -0.64928 0.956442 -1.641947
H 2.75448 1.91674 6.6504 0.068234 -0.025584 -0.040008
H 4.26149 1.76769 6.21215 -0.762975 0.690591 0.175298
H 6.69821 5.71548 11.5497 -0.537236 0.718464 -0.56588
H 9.71994 12.036 5.66523 0.503504 0.66716 -0.59886
H 7.56243 8.43976 5.40488 -0.307226 0.423046 -0.740345
H 11.5662 5.89576 6.38015 -0.762019 -0.327091 -0.353554
H 7.49989 9.18125 3.88298 0.329524 -0.266251 0.717174
H 11.1003 4.39751 6.17774 -0.763937 1.236055 -0.536359
H 9.42721 1.99632 9.64694 1.070446 -0.225374 0.333352
H 8.24668 2.99912 9.27595 0.081303 -0.753647 0.960941
H 11.8407 11.8268 8.39416 0.513386 -0.191808 -0.037678
H 8.86521 0.72607 6.22864 -0.327087 0.692217 -0.035443
H 8.77283 1.78621 2.10632 0.426035 -0.310323 -1.219416
H 7.3435 11.5215 7.65836 0.375921 0.764377 -0.10026
H 12.0315 11.066 9.6724 -0.676108 -0.275113 2.308633
H 4.51725 3.45715 7.91644 -0.468102 0.740783 -0.339743
H 7.59182 6.91 10.8911 -0.549444 -0.310499 0.171041
H 10.327 6.72797 5.01677 0.014137 0.661334 -1.445791
H 12.3148 2.23265 5.93108 0.115997 0.009877 0.229397
H 10.8369 1.84319 5.89222 -0.102693 0.143183 0.144358
H 1.09119 1.63658 8.39612 -0.560836 -1.625519 -3.047767
H 3.49214 5.15547 5.18597 -0.090383 0.142011 0.481782
H 3.353 3.61781 5.11543 0.33754 -0.03257 0.478931
H 7.10474 5.23526 9.73806 0.153996 -1.026577 -0.187659
H 9.28488 7.7694 4.60775 -1.494307 1.251044 -0.144505
H 7.45646 4.7173 8.29184 0.056342 -0.408124 0.245674
H 0.25327 2.01359 9.73739 0.412894 -0.370313 -0.933336
H 11.8129 9.97251 2.99276 -0.116549 -0.327606 -0.401939
H 3.54459 5.66037 7.32499 0.199001 0.090126 0.060421
H 3.55102 6.94682 6.38829 0.259727 0.369663 0.165043
H 6.59963 1.14352 6.84516 0.21262 0.147103 -0.042583
H 4.35134 7.75428 8.98628 1.028112 -0.084732 0.022333
H 1.52374 10.6853 5.3104 -0.031584 -1.096809 -0.818031
H 7.75006 1.36418 8.06029 -0.530088 -0.091181 -0.362098
H 1.13422 9.39496 4.27714 0.196136 0.725597 0.535273
H 5.72057 7.09859 9.696 -0.98652 1.39621 -1.696633
H 8.32216 8.58738 11.8263 0.414853 -0.690202 -1.584896
H 11.9143 11.5584 2.98081 -0.512466 -0.186612 -0.294622
H 12.2339 7.7233 7.14125 0.431268 -0.19166 -0.049991
H 1.21474 6.80229 6.9658 0.074808 0.005077 -0.153364
H 11.8334 9.79629 7.79989 -1.14883 -1.265593 -0.358558
H 8.02947 10.1377 8.13336 0.785258 -0.430837 0.004482
H 2.14405 3.35649 9.79135 -0.751719 0.131572 0.242661
H 3.29046 4.12915 9.26536 -0.10676 1.117289 0.627743
H 2.08426 11.261 0.97341 0.238764 0.287956 -0.346849
H 2.1287 11.6111 11.7732 0.050699 0.588096 0.311054
H 2.81577 12.0459 9.72528 -0.577509 1.704333 1.253075
H 6.21702 4.83065 1.2539 -0.37983 -0.648738 -1.771603
H 6.68845 4.76581 3.20754 0.196995 1.234934 -0.440295
H 6.40851 3.61579 0.07704 -0.656766 0.700072 0.367883
H 8.08016 1.61778 0.68172 0.297954 0.149593 -0.417755
H 6.25438 6.2774 3.05469 -0.47051 0.403847 -0.290924
H 2.11797 1.05087 10.1757 -0.742185 0.743619 -0.923258
H 7.46341 1.98725 11.0184 1.111628 -0.011732 -1.551663
H 2.41809 7.59045 1.14372 0.445902 -0.003624 0.080272
H 3.36767 8.87388 10.3374 -0.412005 -0.071251 0.0406
H 2.07009 8.11741 9.84271 -1.284169 -1.280323 0.573239
H 3.09096 8.72681 5.20451 -0.138691 0.838518 0.025102
H 4.64316 7.74681 4.07722 0.303057 -0.168273 -0.716387
H 8.82072 8.50524 9.39396 -0.158641 -0.119732 0.897689
H 9.80048 8.73467 8.24686 1.918581 0.126212 -0.720851
H 4.56102 9.28903 5.61297 -1.372123 -0.772163 0.263079
H 11.2157 5.15351 11.9014 0.218594 0.108545 0.202893
H 11.128 2.09015 11.3224 -0.098974 0.362618 -0.038196
H 12.1902 6.21041 11.1924 0.068827 -0.4339 0.519729
H 12.3905 7.83119 2.67064 0.29468 -0.711386 -0.26176
H 11.5433 8.23407 3.96386 -0.180776 -0.402869 -0.272488
H 11.4924 0.66364 10.8071 0.011284 -1.051496 0.399799
H 2.19798 11.3094 7.9514 -2.258319 0.494246 -0.750513
H 3.0904 10.2407 8.54884 -0.454657 -1.685399 0.888168
H 6.47655 10.4339 9.13826 0.864198 1.077119 -0.520032
H 1.29686 5.49491 9.61756 0.021973 0.908416 0.291002
H 0.38917 6.66848 9.04696 -0.056422 -0.199992 -0.649618
H 5.71514 9.47764 9.83796 -0.698582 -0.712428 0.743045
H 9.62058 7.70825 11.4692 1.768303 -0.750102 0.696865
H 8.04884 2.68056 4.05652 -2.288216 0.897563 0.7461
H 9.23 9.92217 5.18491 -0.706124 -0.537584 0.009291
H 10.4191 10.563 4.51791 0.297153 -0.098056 0.294679
H 10.94 11.3993 12.1769 -0.144115 -0.165623 -0.430478
H 4.2154 8.64792 12.3165 0.156815 1.238297 -1.039843
H 3.67655 10.0498 11.988 0.097247 -0.132159 -0.074018
H 2.81959 11.1524 3.29588 -0.348354 -2.950683 3.131688
O 0.50764 0.623 3.40788 -0.403053 -0.117687 -0.680514
O 0.56055 6.68193 1.75597 0.516083 -1.82248 -0.675916
O 5.12887 0.09327 11.8738 -1.312233 0.27752 -0.128873
O 5.41753 0.82618 5.59596 -0.831429 -2.056674 -0.851234
O 7.15249 7.58918 6.71397 0.707149 0.548046 0.575294
O 6.65878 3.67076 4.62391 -1.322492 -0.069919 -0.183827
O 9.69704 11.3418 0.78297 0.142842 -0.671673 0.480091
O 10.783 3.28008 0.07234 0.410514 -0.537539 1.137751
O 12.2428 3.23455 2.41354 -0.828771 -1.1169 0.387726
O 4.55962 4.35973 8.32478 0.563035 -1.300514 -0.12592
O 3.38846 7.44652 1.04204 -0.565222 0.115269 0.093144
O 4.9576 10.6256 6.35426 0.149833 0.661155 -0.210949
O 8.03244 5.03593 6.61195 1.117878 -1.754209 -0.147392
O 9.47952 5.42635 2.65458 -2.273786 -0.626691 -0.554531
O 3.2725 5.03443 0.01874 1.366523 -0.381523 0.372596
O 2.15057 4.59627 2.56171 0.174966 -0.308338 0.72394
O 6.54273 9.85262 2.56899 -0.530991 -0.947482 -0.196433
O 8.82501 2.32424 3.68864 2.291124 -1.514196 -0.451866
O 11.6089 11.3952 11.4275 0.644844 0.045486 0.251265
O 7.4995 9.87466 12.2032 0.244029 -0.955633 1.24705
O 5.59033 12.3928 2.42465 0.14692 -1.695776 0.395691
O 3.56941 2.4443 6.53089 0.693857 -0.587556 -0.108399
O 9.609 0.63658 5.5885 -0.25651 -1.326409 0.560435
O 8.06493 8.86863 4.65092 -0.80248 0.303221 -0.036612
O 8.47764 2.08582 9.64444 -1.148213 0.900583 -1.324892
O 10.7834 5.35371 5.96464 1.504432 -1.39192 1.010606
O 8.95802 1.53856 1.12978 -0.40512 0.296906 1.63198
O 12.3628 11.1064 8.79469 0.190903 0.325571 -2.425556
O 6.73082 6.38376 10.7936 0.810437 -0.579025 0.696462
O 10.1189 7.43145 4.3152 1.826369 -2.061872 1.4416
O 11.4292 2.62513 5.99038 -0.423269 0.380258 -0.503135
O 3.74757 4.38325 4.65028 0.113906 -0.290552 -0.590545
O 7.21863 4.37526 9.19131 -0.178004 1.24427 -0.460528
O 1.12408 2.05576 9.20543 -0.159117 1.983539 4.122428
O 3.03956 6.16716 6.6668 -0.407467 -0.204482 -0.238563
O 1.84985 9.94953 4.7235 -0.392159 0.295571 0.055111
O 7.47546 0.91969 7.21599 0.758407 -0.289164 0.767197
O 7.22226 10.5796 7.83021 -0.979392 0.275353 -1.034201
O 11.3256 10.7968 2.72818 0.442813 0.516625 1.017248
O 5.34825 7.69932 8.90607 0.034524 -1.06263 1.553719
O 11.2887 8.99683 7.40484 1.967618 0.582113 2.152974
O 0.24663 6.81332 7.07063 -0.433233 -0.010265 0.194977
O 2.53924 4.24314 9.92769 0.308336 -0.804628 -0.649629
O 1.82593 10.9952 0.07002 -0.195753 -0.73933 -0.037421
O 2.58624 0.28493 10.5039 1.852845 -2.857074 -0.336271
O 5.90246 4.45149 0.32952 1.246853 0.190556 1.066086
O 6.79927 5.59064 2.61586 -0.051332 -2.020891 0.752731
O 7.00019 2.02382 11.8403 -0.887331 0.512007 1.967688
O 12.3195 8.46618 3.41462 0.33545 1.463512 0.927179
O 2.78346 8.65662 9.56246 2.018383 1.317998 -0.596903
O 5.04832 7.4796 3.18783 -0.604585 0.690564 0.726059
O 8.90011 8.86701 8.50218 -1.579114 -0.241309 0.084508
O 3.97454 8.45829 5.50107 1.211953 -0.538587 -0.298672
O 11.7485 5.96041 12.0497 -0.425671 -0.060651 -0.931886
O 11.2514 1.54566 10.5033 0.056409 0.928825 -0.493323
O 3.08008 11.1034 8.16237 2.361608 0.832768 0.210884
O 0.9013 6.39701 9.81412 0.132135 -0.526476 0.448415
O 6.12054 10.33 10.0358 -0.382475 -0.297285 0.422648
O 8.79038 7.94387 11.1136 -2.153422 1.331179 0.546674
O 10.0734 10.3538 5.42026 0.541545 0.803667 -0.60817
O 2.8224 11.7468 2.61362 1.170107 3.27658 -2.900211
O 4.37959 9.43986 11.6734 -1.119804 -1.47975 1.629472
Na 10.5008 3.88981 3.73162 0.257157 -0.116067 0.184443
Cl 1.144 0.56771 6.41543 0.093109 -0.455798 -0.042753
188
energy=-1015.64098147 config_type=nep2xyz pbc="T T T" virial="-15.187632508688315 -1.534710723756092 3.0150969838674233 -1.534710723756092 -10.990701760639409 1.407652169903932 3.0150969838674233 1.407652169903932 -20.966101311148766" Lattice="12.4 0.0 0.0 0.0 12.4 0.0 0.0 0.0 12.4" volume=1906.6240000000003 Properties=species:S:1:pos:R:3:force:R:3
H 1.78138 5.93943 2.90604 -0.597748 2.357441 -1.223746
H 0.26063 2.58624 1.82558 0.615935 1.054023 -0.421451
H 2.92281 3.1665 6.84801 -0.689877 -0.383073 0.158683
H 1.38457 2.41993 6.81373 0.672391 0.208865 -0.016287
H 4.5885 0.82192 3.86024 0.159312 -0.101003 -0.026802
H 9.56467 2.74427 12.2236 -0.402513 -0.990433 1.705482
H 5.46715 1.41913 2.73265 0.250848 0.752296 -0.482665
H 11.6294 2.07579 6.32377 0.078523 -0.490617 0.353383
H 12.3737 3.44243 6.57469 0.228518 2.108356 -0.92792
H 1.5137 7.45373 11.5572 0.824854 -1.734941 -0.307441
H 1.2813 8.03634 0.57578 -0.114932 -0.151098 -0.039257
H 7.73576 1.23666 0.95344 0.195337 0.198284 -0.593854
H 0.66327 3.64661 0.71174 -0.301432 -0.300639 0.649933
H 5.63376 5.89007 11.969 0.014065 -0.009614 -0.564833
H 4.91329 4.77445 10.9728 0.0836 0.954616 2.106986
H 8.56708 10.8176 9.40043 0.443217 -0.435763 1.420296
H 10.5808 7.37423 3.65896 0.067256 -0.654882 0.564966
H 10.0865 8.60178 2.78675 -0.164228 -0.005307 -0.225907
H 12.1542 10.0875 6.28225 -0.231167 -0.057852 -0.459683
H 6.20902 8.53335 8.75318 0.102875 0.268551 -0.166284
H 10.9213 3.874 2.27874 0.901563 -0.113864 -0.453246
H 1.11897 5.0811 4.96919 -0.314763 0.325457 0.613305
H 4.9288 9.80638 0.87035 0.098397 0.316622 -0.527786
H 4.13776 11.1349 0.55891 -1.276837 1.768669 0.936693
H 1.26097 5.83948 6.35583 -0.237633 -0.150019 -0.171097
H 7.59566 10.9865 10.6786 0.096196 0.051216 -0.35852
H 3.1354 9.6714 5.17675 -0.596855 -0.242411 -0.411672
H 5.03943 4.1928 0.87244 -0.69334 1.914074 -2.16987
H 5.96214 2.96126 1.00873 0.909056 -0.781292 -0.490359
H 2.84352 1.27602 5.68813 0.540405 -0.099359 -1.116027
H 6.25635 7.93328 0.78768 0.128104 0.106027 -0.458795
H 11.5035 10.4757 7.67815 -1.546062 0.699406 0.353815
H 8.49636 10.2715 2.0451 -0.8561 -0.331335 0.71406
H 5.6122 7.93899 2.17524 -0.627041 -0.295128 0.945316
H 10.8927 4.85604 9.32515 -0.120637 1.158776 0.163879
H 2.37155 0.46199 4.41087 0.098787 -0.053947 0.235019
H 3.77775 11.8076 5.62703 -0.211328 -0.201566 0.197998
H 11.9105 2.98357 8.48752 0.019566 0.171911 1.453795
H 3.58125 10.834 6.89532 0.017485 -0.09806 -0.235404
H 11.9099 9.38804 3.89975 -0.761738 0.354261 0.650275
H 1.27323 4.46212 2.64393 0.891178 1.015376 0.909426
H 0.61262 0.20939 2.95912 0.245371 -0.059081 1.347994
H 6.73229 4.69489 5.79996 0.905498 0.989148 -0.18684
H 2.9426 1.24718 10.33 -0.363818 -0.049909 -0.441513
H 3.99154 2.29337 10.8354 -0.575635 -0.449194 -0.163489
H 0.32681 0.30237 9.60706 -0.399487 0.084654 0.10553
H 5.50045 4.01337 5.03138 0.29531 0.192786 0.383037
H 8.11548 11.674 6.0073 -0.011714 0.627376 0.025437
H 8.17343 0.61358 6.81937 -0.245816 0.331351 -0.023205
H 5.87886 12.2146 10.058 -0.36081 -0.450741 -0.788057
H 9.62327 9.46049 0.5935 0.207908 -0.344437 -2.092259
H 9.3938 9.7788 11.3625 0.094052 0.011838 0.565232
H 7.66944 4.50461 9.20444 -0.100285 -1.636121 0.815145
H 9.26237 0.82038 2.16372 0.397044 0.958427 -1.48998
H 9.98486 0.69294 0.7974 0.91059 -0.954725 -0.945341
H 8.25256 3.49904 10.3512 -0.478356 0.13889 -0.649212
H 7.79673 6.07183 6.90957 0.898164 0.037626 -0.365822
H 7.85743 7.23265 8.52244 -0.203577 0.506655 0.93707
H 0.16067 7.82179 2.73968 0.577968 -0.57672 -0.372405
H 1.58024 7.71414 3.32649 1.153153 0.881033 1.759169
H 4.53362 6.39172 3.64631 -0.455044 -0.653739 0.283565
H 3.75583 7.80403 3.94912 0.265239 -0.287766 -0.091596
H 10.4056 5.22979 3.83609 0.143231 0.56314 1.102583
H 9.44507 5.07649 11.8055 0.625007 0.807353 0.776456
H 7.46843 9.15642 9.61133 -0.074952 0.410744 0.189591
H 2.07914 3.1546 11.4041 -0.987685 0.024332 -0.25903
H 1.38087 4.60122 11.3101 0.042146 -1.464924 -0.171275
H 5.66381 8.74366 6.70069 -0.371839 -0.309489 0.781089
H 9.50881 3.42346 2.81754 0.770255 1.923079 -0.089771
H 8.90131 5.99503 5.68779 -1.823838 -0.244748 0.190066
H 5.88034 7.92503 4.69676 -1.380703 -0.596972 -1.145263
H 7.16033 7.44195 5.42222 0.110066 -0.205782 0.236166
H 0.45578 11.5263 4.13354 -0.09367 -1.208473 0.186755
H 2.7669 8.23477 5.52384 -0.813352 0.282659 0.014721
H 7.5205 2.19886 8.25921 -0.628908 0.688932 -0.962241
H 10.5017 11.9068 8.79644 -1.190799 -1.068411 -0.604325
H 9.69432 6.01064 0.73089 -0.32759 -0.49069 -2.141427
H 2.3311 12.2173 8.67738 -0.833592 1.158187 0.133371
H 10.8653 6.41811 8.94837 1.605784 1.102055 -1.202285
H 6.83098 2.4113 6.70702 0.474815 -0.1525 1.694332
H 2.4417 1.24218 8.06714 -0.532419 0.287736 0.167366
H 5.91078 11.169 5.30908 -0.027934 -0.008857 0.358808
H 3.37619 6.1023 11.279 -0.403249 -0.490438 0.289286
H 6.79667 9.88492 5.32703 0.202936 0.727084 -0.09879
H 11.3826 5.72153 5.07597 -0.572463 0.122972 -0.406934
H 0.86882 9.46488 4.48241 -0.045521 0.654728 0.965389
H 11.7289 0.48622 4.77467 -0.932576 1.126321 1.357106
H 3.83591 0.59119 1.56003 0.973926 0.447228 1.478866
H 11.7575 1.47841 9.71166 -0.156875 -0.386504 0.335105
H 4.79536 4.17218 6.96676 -0.146027 4.7e-05 0.050444
H 3.6479 5.2396 7.46517 0.562735 -2.329647 0.187403
H 10.2111 0.54703 5.50443 -0.075833 -0.074562 0.215908
H 5.75252 11.2633 11.3707 0.127932 1.428235 -0.365079
H 5.96613 0.43189 7.89621 0.358783 0.798664 -0.170687
H 7.51109 11.5792 3.71795 0.116753 -0.300165 -0.646985
H 5.43581 11.4528 7.64967 -0.383057 -1.716378 -1.339756
H 7.11366 11.9635 2.22459 1.218327 -0.432434 1.226904
H 0.12127 3.38125 10.0417 1.038617 0.027127 0.305137
H 6.97519 7.39329 10.8517 -0.024541 0.476556 -0.709361
H 7.93165 6.64913 11.8442 0.85285 -0.20717 0.062149
H 0.01514 0.47887 0.85379 -0.333092 -0.483866 -0.491016
H 6.75847 0.92932 12.1126 0.021801 -0.494615 0.01436
H 7.77877 2.04179 3.71572 0.074241 -0.781538 -0.1175
H 7.21183 3.31189 4.21976 0.389787 0.297334 -0.162424
H 10.316 3.09762 10.9538 -0.579071 0.628853 0.189266
H 4.43824 8.18778 7.55972 0.418529 0.521788 -0.051041
H 3.51835 4.39932 3.58472 0.46465 0.13545 -0.196269
H 5.01703 4.18945 2.89414 -1.236616 -0.128873 1.001192
H 9.05234 6.11207 8.64796 0.045179 0.153995 0.319732
H 4.59677 3.7487 9.00705 0.684326 -0.826151 0.754452
H 5.87275 3.03703 9.88508 -0.522471 0.876714 -0.647266
H 0.90032 7.66274 9.128 -0.335039 0.14671 -0.420797
H 3.58763 0.76223 0.04295 -0.763045 -0.144758 0.323773
H 1.46407 10.1977 7.93258 -0.603651 -0.135313 -0.184345
H 2.71839 9.89685 8.97189 -1.058743 0.715935 -1.516236
H 2.81249 6.93903 10.2022 -0.273397 0.017852 -0.531893
H 3.57346 9.48046 10.9158 1.817199 1.140885 1.132303
H 7.91961 8.73008 1.84944 0.245148 1.278641 0.107592
H 2.24747 8.84155 11.0212 0.309817 0.41802 -0.881093
H 9.42696 11.4951 7.62219 0.374613 0.682177 -0.227073
H 10.8794 11.3072 12.3913 -0.221908 -1.14583 -0.279164
H 1.64389 0.48336 1.08899 -0.842021 0.392557 0.402837
H 12.196 8.59333 8.5068 0.484999 -0.196123 0.172174
H 11.1979 0.0867 11.3716 0.177329 -0.304314 0.545428
O 0.3562 3.57543 1.66265 -0.216866 -1.063639 -0.364512
O 1.85015 5.08751 3.25355 -0.390386 -4.194103 0.511138
O 2.36463 2.35922 6.63934 0.130814 -0.163752 0.203369
O 5.3642 0.64242 3.2716 -0.493967 -0.457772 0.462116
O 12.1471 2.63979 7.00325 -0.378611 -1.088568 0.621688
O 0.9729 8.05687 12.0512 -1.098333 1.351679 0.92016
O 11.7456 3.14395 9.52478 -1.450259 -0.213103 -1.964882
O 4.81294 5.35931 11.8519 0.004348 -1.089407 -1.809994
O 9.5592 3.38482 11.535 0.982335 0.321927 -2.037862
O 10.8681 8.07432 3.04734 0.449294 0.69902 -0.370114
O 10.117 4.23057 2.65144 -1.641121 -1.36581 0.318038
O 0.64455 5.2778 5.82916 0.291283 -0.422888 -0.705013
O 4.64198 10.4485 0.1758 1.354903 -2.316295 -0.998759
O 2.53248 8.92084 4.84444 1.464944 -0.038858 0.637081
O 8.27493 10.3888 10.2768 -0.205696 0.623785 -0.755847
O 5.29799 3.49937 1.42559 -0.191073 -1.291473 2.531865
O 3.19746 0.69885 4.89917 -0.56941 0.358578 0.521593
O 12.2722 10.1538 7.23924 1.49137 -0.946092 0.437978
O 5.99666 8.52121 1.52268 0.586455 0.009821 -0.518153
O 8.71626 9.31477 1.94571 0.532316 -0.806765 -0.332448
O 4.10799 10.9674 6.06739 -0.256137 -0.153381 -0.395119
O 0.69554 0.04295 3.98722 -0.108437 1.191103 -1.79533
O 6.1895 3.90363 5.76073 -1.366149 -1.228625 -0.433619
O 8.74052 12.3779 6.34094 -0.008157 -0.860473 -0.130061
O 10.0463 9.43934 12.0369 -0.297748 0.313144 1.437439
O 7.60326 3.56135 9.59394 0.786925 1.378542 -0.186095
O 9.50986 1.33644 1.32363 -1.544822 0.217303 2.774885
O 4.60635 7.34792 3.7721 0.181574 0.703312 -0.478429
O 1.10505 7.5375 2.54723 -1.808513 0.242057 -1.654121
O 7.00067 8.34353 9.33062 -0.068989 -0.767733 0.130224
O 1.18228 3.61303 11.3711 1.178857 1.56573 0.415055
O 9.59945 6.02348 12.114 -0.167704 -0.400259 2.045033
O 7.89639 5.98221 5.907 1.282107 0.103208 -0.693244
O 10.53 5.9181 4.60098 0.174681 -0.598544 -0.309847
O 8.14428 6.31117 8.3578 -0.310122 -1.257696 -0.240071
O 3.24621 1.69318 11.1417 0.83324 0.909554 0.211562
O 10.5074 5.76739 9.51244 -0.772476 -2.325027 0.930916
O 7.0493 1.80187 7.4843 0.075038 -0.119742 -0.78522
O 1.99239 0.77911 8.8134 1.332606 -1.957705 -0.068043
O 6.84323 10.8939 5.35339 -0.050566 -1.01793 -0.483169
O 6.55111 8.20658 5.29951 1.386868 1.053074 1.065889
O 12.38528 9.91338 4.59272 0.706559 -1.087473 -1.414847
O 3.29484 0.25926 0.86852 -0.492512 -0.323833 -1.531729
O 3.98062 4.21628 7.52505 -0.228517 2.648883 -0.251004
O 11.8139 0.50186 9.92636 0.236187 0.247811 -0.661358
O 11.0944 0.94971 5.4631 1.109508 -0.553794 -1.429675
O 5.50045 12.1029 8.31296 -0.02256 1.083564 1.718147
O 6.22716 12.0547 10.9433 0.045383 -1.127717 1.331439
O 7.04713 7.01008 11.739 -1.070475 -0.090142 0.812325
O 0.72655 0.73343 1.45564 1.053938 0.139662 0.254583
O 7.88934 11.6489 2.79833 -1.361842 1.070327 -0.72669
O 6.82863 1.31061 0.60322 -0.368036 0.476471 0.603881
O 4.4942 4.46002 3.74038 0.905241 0.102673 -0.748405
O 5.19975 8.82015 7.58331 -0.244155 -0.368967 -0.485599
O 7.80167 2.97514 3.51245 -0.334978 0.126445 0.300672
O 4.93229 3.34397 9.88681 -0.348135 0.47681 0.012053
O 12.382 7.96651 9.24122 -0.386931 0.060365 -0.036379
O 2.37262 10.4342 8.15679 1.834166 -0.081054 1.692108
O 9.88556 11.1776 8.4339 1.21996 0.828339 0.625148
O 2.50082 6.25597 10.8194 0.779803 0.165023 0.148822
O 2.99194 8.99597 10.3673 -1.858972 -0.966592 -0.059598
O 10.9941 12.253 12.3338 0.486605 0.897197 -0.677517
Na 11.0728 7.57206 11.3957 0.398053 0.119373 -0.312095
Cl 2.61643 7.04266 7.41042 0.233001 -0.273506 0.023993
188
energy=-1015.5407952 config_type=nep2xyz pbc="T T T" virial="0.8823173511530099 -0.27106300830237867 -0.24360922130819182 -0.27106300830237867 -17.584513526215034 5.074107208009248 -0.24360922130819182 5.074107208009248 0.11903781157470776" Lattice="12.4 0.0 0.0 0.0 12.4 0.0 0.0 0.0 12.4" volume=1906.6240000000003 Properties=species:S:1:pos:R:3:force:R:3
H 0.90388 3.25393 0.98106 0.168551 0.458639 1.061869
H 2.29097 2.52783 12.1034 -0.162388 0.282137 -0.086546
H 0.06186 2.32902 0.08395 -0.091328 0.050879 0.366266
H 5.6836 4.6851 0.19111 -0.245575 -0.384768 -0.908432
H 2.75923 2.11048 10.7443 -0.407029 -0.888842 -2.015632
H 6.58685 1.75335 2.6071 0.028494 0.69198 0.288428
H 6.79623 3.02839 4.52842 0.21138 0.377934 -0.496049
H 6.06279 3.88942 2.41056 -0.041851 0.41551 -0.678568
H 5.15848 3.16507 3.52724 -0.0436 0.43925 -0.269812
H 0.97652 9.46028 11.1773 -0.336207 -1.563426 0.686789
H 0.70412 10.9465 10.9902 0.439043 0.330148 -0.481168
H 10.0586 0.22611 4.98508 0.078923 0.442982 -0.696477
H 7.86051 3.91914 5.21626 0.522376 0.642067 -0.699156
H 9.82319 0.01892 2.52539 -0.653536 0.367555 0.111952
H 11.2965 0.76799 4.2265 0.203593 0.604232 0.182382
H 0.70577 0.81171 9.918 -0.068605 -0.3937 0.56413
H 11.7707 0.0171 9.96508 0.018373 -0.148605 0.308158
H 0.52685 4.89948 2.93123 0.313629 -1.020315 -0.095425
H 1.62447 6.781 2.26786 -0.954081 0.306818 -0.050178
H 3.07432 6.89979 2.10492 1.088694 0.65361 -0.480191
H 0.5726 6.31746 4.35698 0.458965 0.293912 0.338623
H 5.75566 5.69181 1.33498 0.173235 0.09451 0.076321
H 7.07887 6.68036 4.41417 -0.167048 -0.036892 -0.506654
H 6.99705 8.20558 4.2924 -0.053957 -0.119308 -0.314257
H 8.23485 6.20669 12.0837 -0.073809 0.003346 -0.125055
H 5.56491 7.32457 2.71197 0.984184 -0.277456 1.672991
H 5.04511 7.99766 1.47482 -0.578379 -1.443146 -0.077929
H 11.7357 5.95799 2.43977 0.563628 -0.475595 0.657524
H 7.79094 5.09176 0.7574 0.256153 0.722891 -0.917209
H 9.20718 5.75457 4.00944 0.0056 -0.035659 -0.792447
H 9.42259 6.11886 1.61078 -0.866376 -0.186273 -1.565321
H 8.69438 5.93759 5.45672 -0.249829 -0.259956 -0.469296
H 2.60151 10.7037 1.42437 -0.320442 -0.414027 1.531183
H 1.17678 7.77108 0.38379 -0.257258 0.276896 -0.731038
H 2.30323 8.94451 2.68683 -0.015283 2.547423 0.395961
H 12.2709 7.46877 11.8178 1.301609 1.246234 0.248361
H 4.40507 12.2736 0.57599 -0.047963 1.153274 -0.433872
H 1.18315 10.0323 3.02597 1.520031 0.599685 0.480489
H 6.18406 0.73884 1.5492 -0.150305 0.01343 -0.103618
H 6.28414 11.9383 3.73642 0.162419 0.683053 -0.036899
H 8.93475 10.9057 1.49113 -0.252543 0.046664 0.218448
H 11.5565 8.59583 1.0065 -0.592749 0.461712 0.337654
H 8.5263 9.65175 2.37337 -0.318012 -0.293576 2.320879
H 2.30625 3.7578 3.47614 -0.544605 -0.31918 -0.21529
H 0.9833 3.04205 3.80138 -0.375551 -0.248822 -0.045877
H 4.97249 11.3621 9.20997 0.312597 -0.06333 -0.157337
H 3.54272 2.22736 4.58891 -0.4104 1.395339 -0.320363
H 6.2134 12.1171 9.8291 -0.090502 -0.159415 -0.201333
H 3.83066 3.5881 5.31286 -0.182172 0.644106 0.237303
H 9.66937 1.74099 6.7847 -0.345523 -1.043432 -0.646503
H 6.6547 3.50438 6.65205 -0.012984 0.105258 0.136325
H 5.19812 1.5466 6.67438 -1.225276 0.888204 -0.27962
H 4.5007 4.45966 7.15782 2.540283 -0.774737 1.702866
H 10.238 4.16923 9.21797 -0.145844 1.539016 -1.000784
H 8.27367 1.64081 6.01369 0.936795 -0.356282 -0.034437
H 11.2357 3.10773 7.44746 0.19934 -0.688756 0.70144
H 12.0408 1.84324 8.04177 0.419937 0.233055 0.036491
H 12.1444 2.45091 5.72302 0.189346 -1.026734 -1.065842
H 1.78673 7.1791 5.00585 -0.022988 -0.623518 -0.075255
H 9.29745 7.74401 7.08448 -0.599936 -0.373085 -0.154783
H 0.27698 9.27566 5.27792 -0.349412 0.398659 0.331273
H 0.38988 8.05945 6.16213 -0.059647 -0.68907 -0.130046
H 0.83971 5.81919 6.87353 -0.18934 0.371609 -1.64646
H 3.95628 6.40842 6.0733 -0.181441 -1.0916 0.262646
H 4.65601 7.37331 5.14095 0.875363 0.259404 -0.593904
H 8.63641 12.1697 7.29949 -0.463009 -0.29168 0.115521
H 6.05699 7.16172 8.14834 0.932577 -0.483731 0.325318
H 6.60439 5.63315 7.96151 0.008834 0.120979 0.283312
H 7.63579 11.3344 8.23573 -1.740786 0.238921 0.996115
H 8.96039 9.69915 4.81162 -0.780811 -1.274 -1.642193
H 7.99276 6.84686 7.68231 0.950107 0.31575 -0.667974
H 9.5996 10.1961 6.8816 -0.887982 0.182697 0.128413
H 10.818 9.49616 6.30494 0.042046 -0.40243 -0.582311
H 3.30005 10.3913 4.34062 -0.221016 -0.221098 -0.333475
H 2.8164 12.1507 5.12678 0.061571 1.006823 0.102258
H 4.56382 10.8761 5.11978 1.502387 0.411687 -0.515857
H 0.75369 1.42394 5.154 0.089412 0.16955 -0.336417
H 6.04916 0.76657 7.59907 0.135639 -0.669912 0.863249
H 6.34253 12.06 5.3357 -0.109776 0.65074 -0.092745
H 7.68299 10.3103 4.37323 0.023525 -1.134053 -1.218235
H 5.95369 9.50916 8.08815 1.229924 1.674019 0.177959
H 9.46434 11.4701 10.6798 -0.258996 0.346555 0.088247
H 10.0187 9.27283 1.28603 1.007162 -0.392869 0.683878
H 11.5448 10.886 4.07781 -0.411206 1.0368 0.122377
H 11.6051 9.78809 3.01327 -0.64103 -0.669972 -0.792442
H 9.81457 11.323 8.7647 -0.131697 0.343605 0.077804
H 11.0377 10.484 9.25368 0.003111 0.279626 0.342572
H 2.79357 11.6225 8.70125 0.421152 -1.148245 0.295788
H 2.95649 4.53818 7.11531 0.259358 0.009141 -0.18286
H 2.42536 10.3754 9.6359 1.10556 0.908123 -0.742021
H 7.03705 2.31252 10.3377 -0.264203 1.765157 -0.426328
H 6.45984 3.5132 8.30224 0.1334 0.867147 -1.290923
H 5.99572 0.94603 11.6296 -0.1662 -0.159723 0.100349
H 7.46049 0.4929 11.2542 0.920676 -0.705774 -0.01383
H 10.0879 5.50341 8.10559 0.09351 -1.548821 0.759531
H 10.4793 1.16548 0.14585 -0.561706 -0.573032 0.778039
H 11.7291 1.14538 11.6077 -0.200284 -0.343033 -0.599186
H 8.31112 0.4249 1.91401 1.653351 -0.623591 0.123168
H 0.10162 5.05603 8.02053 -1.241767 -0.434388 0.343383
H 4.24337 3.8489 11.1248 -0.317075 0.099266 0.137491
H 10.9987 5.94996 10.5945 0.635826 -0.820283 -0.009815
H 1.61798 6.76758 8.58147 0.523577 0.911002 0.010728
H 3.24553 7.35868 9.76774 0.546889 -0.097506 1.060849
H 8.11127 3.41342 10.3308 0.551326 0.741298 -0.064481
H 5.67116 4.03387 10.5693 0.519069 0.318965 0.011163
H 4.35622 6.43444 10.6066 -1.025566 1.885425 -0.153837
H 9.98167 3.01164 11.217 1.463152 -2.301627 1.604524
H 7.63042 7.13718 9.8692 0.161401 0.049237 0.414621
H 10.196 7.28417 2.4031 -0.419696 -1.148346 -0.596877
H 9.23015 4.38678 11.6272 0.228903 -0.091674 0.406366
H 10.0533 7.0589 10.5314 0.324302 0.590027 0.731518
H 7.91738 8.23659 11.0047 -0.53196 0.55301 0.361092
H 2.56008 0.81805 6.21518 -0.139166 0.200658 0.064974
H 1.489 8.16578 9.24679 -1.674012 1.435405 1.169831
H 4.26098 1.43491 0.19352 -0.393693 -0.136841 -0.269187
H 11.9432 9.07008 8.14208 0.057873 -0.114665 0.973005
H 4.09717 9.81225 0.10766 -0.778811 0.949608 0.256317
H 4.40755 8.51674 11.6097 -0.212929 0.023631 0.299308
H 6.18974 9.34757 12.0264 0.609613 0.456246 -0.727809
H 4.78461 8.97715 8.9045 -0.376406 0.371628 1.594034
H 8.18409 10.7403 11.3101 0.380991 1.965021 -0.138727
H 2.41831 10.9666 12.33118 0.115446 0.158007 -0.159602
H 7.48168 9.62014 0.40328 0.882292 0.028458 -0.286615
H 11.3853 8.27096 9.38904 -0.219733 -0.723346 0.322047
O 0.96795 2.67966 0.23086 -0.095814 0.103542 -0.10933
O 3.10087 2.51013 11.5135 1.62789 0.557882 1.533739
O 6.0665 3.2515 3.14094 -0.550946 -0.915289 0.625701
O 7.37464 3.09549 5.31264 0.040692 -0.93751 1.234244
O 10.5401 0.17183 4.12239 -0.163546 -1.051433 0.474691
O 0.09194 0.35402 10.5612 0.396612 -0.007275 -1.228422
O 9.24261 12.38625 1.7309 -0.864541 0.545602 -0.224876
O 0.23354 5.82833 2.87312 -0.957677 1.693926 -0.508327
O 2.2797 7.41904 1.90355 -0.494463 -0.690977 0.562089
O 6.17341 4.85189 1.01338 -0.161491 0.423054 1.003807
O 6.46196 7.39443 4.1217 0.308346 0.210719 0.841874
O 4.99013 7.12287 1.98025 -0.513019 1.359832 -1.879763
O 8.58171 5.51897 0.28834 -0.276926 -0.657913 0.397406
O 8.4659 5.50054 4.58339 0.160523 0.626483 1.705717
O 9.9815 6.29882 2.35533 1.844794 1.551932 2.274426
O 6.82481 0.86862 2.27884 -0.000134 -0.911014 -0.099042
O 8.26076 9.53762 4.03843 0.386348 2.20163 3.232149
O 10.9029 8.88103 1.69203 0.01931 -0.16736 -0.670203
O 1.39649 3.59976 3.1099 0.560392 0.281991 0.03758
O 5.93587 11.5164 9.08602 -0.190516 0.294871 0.160213
O 0.03407 2.02817 4.85502 0.273112 0.395019 1.08952
O 3.66212 3.22791 4.42159 0.529634 -2.373478 -0.149297
O 3.78166 4.63192 6.6002 -2.747019 0.82107 -1.129923
O 5.94987 0.98414 6.67625 1.027996 -0.678814 -0.491306
O 6.24782 3.99465 7.42818 -0.066912 -0.46893 1.798888
O 9.09531 1.11219 6.26006 -0.620746 0.995481 0.874254
O 11.4372 2.14099 7.35023 -0.850012 1.099259 -0.462289
O 1.02899 6.60281 5.22056 -0.205448 0.178528 -0.031147
O 0.23096 9.00977 6.23019 0.083125 0.49557 -0.072852
O 3.90441 7.29695 5.72489 -0.811716 0.857933 0.209045
O 8.43669 11.2977 7.75043 2.194488 0.386307 -1.31539
O 8.86789 6.86262 7.11952 0.81402 -0.06361 0.048907
O 6.81439 6.53052 8.35258 -1.812707 0.081378 -0.117693
O 9.84006 9.52391 6.22748 0.806901 0.047472 0.388269
O 2.20183 9.99101 2.94089 -1.085042 -3.269264 -0.819826
O 3.63793 10.6986 5.19972 -1.725796 -0.601099 0.752929
O 2.55562 0.72668 5.24158 0.159603 -0.771091 0.059964
O 6.17542 11.4774 4.58054 0.260264 -1.030062 0.172599
O 8.63064 11.6684 11.1599 -0.395333 -2.079022 0.232034
O 12.0925 10.1679 3.75565 0.68257 -0.504016 0.467933
O 10.6014 11.3719 9.35624 0.143261 -0.406079 -0.301167
O 3.13867 10.7068 8.96076 -1.422971 0.429028 0.272807
O 1.40055 10.2652 10.8972 0.334356 1.642193 -0.101928
O 7.19022 3.32737 10.0364 -1.128837 -2.435329 -0.051238
O 6.68359 0.96179 10.9211 -0.564102 0.376907 -0.407776
O 10.5798 4.66582 8.40208 -0.038442 0.161611 0.0694
O 11.1363 1.72913 12.1451 -0.643671 0.586282 -0.321311
O 0.88368 5.53221 7.77498 1.557972 0.226467 1.234937
O 4.94334 4.5288 11.0026 -0.239678 -0.143654 0.060538
O 3.91721 7.36495 10.5314 1.135055 -1.951708 -0.269649
O 11.0187 6.89466 10.7515 -1.424433 0.184736 -0.716235
O 9.60246 3.7983 10.9224 -0.965509 2.474991 -1.829852
O 8.20415 7.385 10.6287 0.570327 -0.914088 -0.550211
O 0.5802 8.15853 12.0887 -1.155342 -1.828597 0.585018
O 3.00879 11.1601 0.6879 0.483773 0.240404 -1.506392
O 2.12064 7.638 8.81644 0.428885 -2.308015 -1.900476
O 4.90566 0.72501 0.38085 -0.135752 -0.965453 0.555756
O 4.7348 9.12353 12.3344 0.574896 -1.331712 -0.275149
O 5.31359 8.83592 8.13988 -0.673469 -2.157352 -1.377605
O 8.66464 9.91866 1.48518 0.366293 0.597945 -2.431069
O 7.18772 9.51869 11.865 -0.944032 -0.40557 0.371048
O 11.8275 9.08235 9.13166 0.548773 0.351914 -1.642832
Na 3.22605 8.91783 7.22533 -0.080272 0.454484 -0.486245
Cl 2.05214 1.36754 8.3206 -0.007119 -0.106218 0.212249
188
energy=-1014.83229294 config_type=nep2xyz pbc="T T T" virial="-24.116503695156588 -2.043254344653179 2.203621589357844 -2.043254344653179 0.029512523513473485 4.898638595426116 2.203621589357844 4.898638595426116 -4.943490491039938" Lattice="12.4 0.0 0.0 0.0 12.4 0.0 0.0 0.0 12.4" volume=1906.6240000000003 Properties=species:S:1:pos:R:3:force:R:3
H 1.80605 0.41265 0.63064 -0.000484 0.651134 0.697947
H 2.20639 1.87678 0.93607 -0.144586 -0.574165 -0.010079
H 1.74218 3.19808 11.8768 1.426585 -0.617256 -0.357456
H 11.4899 4.0483 2.3424 0.28619 0.502079 -1.205148
H 2.50432 2.32851 3.94055 0.892133 -1.126765 -0.045012
H 7.10514 3.5718 2.20102 -0.29352 0.623757 0.339433
H 3.31436 1.35135 3.0005 -0.326355 0.030842 0.030807
H 5.42794 6.67327 5.28325 1.045587 -1.052274 0.489353
H 11.1565 2.56707 2.62605 0.002447 -0.868658 0.083033
H 8.36939 2.89822 1.67229 -0.445896 -0.278591 0.122635
H 9.00707 1.21868 11.1932 0.71896 0.623447 0.778085
H 10.833 4.53473 4.1745 -1.133489 0.076759 0.480569
H 11.7916 5.69291 0.8997 0.365415 0.248997 0.283418
H 12.35 4.38185 0.24729 -0.348464 0.023574 0.024994
H 0.52243 3.44484 3.70286 -0.78283 0.089188 -0.459113
H 1.92092 4.26416 3.7447 -1.381648 -0.598769 0.035607
H 5.14919 4.77419 1.43121 -0.089118 -0.10537 -0.275259
H 6.8805 5.66622 5.06216 -0.898343 0.299433 1.389922
H 7.67204 7.38314 0.40068 0.867562 -1.325429 0.316945
H 8.69442 9.59388 2.9153 -0.14498 0.071707 -0.780446
H 9.54127 9.84767 4.2361 0.430972 0.29576 0.510295
H 9.85955 7.82014 3.35061 -0.643538 0.4638 -0.224209
H 10.708 7.18207 2.18214 -0.47327 -0.111745 0.604786
H 10.1354 5.9569 4.07614 0.033433 -0.726017 -0.064628
H 3.94754 5.86872 6.80393 0.191962 -0.321558 -0.726628
H 3.81713 9.80657 11.3614 -0.630481 0.639081 -0.227182
H 2.96813 11.2879 11.5152 0.149463 -1.323141 -0.033671
H 1.33639 5.21914 1.79367 0.154748 0.854845 0.532449
H 3.26651 2.53494 11.5695 -0.286288 -0.171925 -0.728636
H 2.89623 5.38325 1.93243 -0.85517 0.505786 0.193772
H 6.93154 0.52146 10.3517 -0.94385 0.783458 0.10767
H 5.22956 12.1448 1.01086 0.060774 -0.088269 0.499977
H 4.67547 10.7498 0.70051 -0.649151 -0.331247 -0.263026
H 9.99219 0.24317 0.35592 0.282569 0.074875 -0.983726
H 4.97332 10.2412 7.77458 -1.3579 -0.130145 0.05252
H 10.6952 11.0685 0.28459 -0.930716 1.926336 0.093285
H 0.22684 0.77086 2.14964 -0.316102 -0.236629 -0.350921
H 11.1476 0.07899 1.95679 -0.041558 -0.39662 -0.634603
H 2.20002 9.54033 0.41572 -1.46644 -0.233313 1.324467
H 6.94378 10.6869 1.31243 -0.130096 0.533497 -0.034671
H 8.57328 10.7944 1.0173 -0.60312 0.167861 -0.041984
H 9.0107 0.5507 7.06094 -0.331561 -0.771586 -0.766487
H 5.22876 12.0528 5.30206 -0.014733 1.156493 0.264757
H 4.66438 0.95717 4.7194 -0.303677 0.388031 0.245425
H 5.35898 3.48878 9.2538 0.14751 1.740962 -0.38948
H 0.96856 10.807 4.21135 -0.292376 0.079331 -0.091626
H 4.05974 1.48491 6.61855 -0.354507 -0.44357 0.782852
H 7.76489 3.83432 5.70863 -0.35828 -2.182479 -0.931142
H 3.46552 1.59803 8.13684 0.719201 -0.021789 0.177697
H 8.86491 4.95458 5.56114 0.749055 -0.507562 -0.505484
H 6.61249 1.49929 5.24526 1.743461 0.60416 -0.83993
H 7.56639 2.11319 4.03837 -0.084362 -0.119654 0.100282
H 8.54379 1.09653 9.09639 0.399948 -0.11478 -0.475476
H 12.2874 11.9603 3.78374 0.427003 -0.908974 1.086956
H 0.79807 1.39812 8.75048 -0.537859 0.401182 0.019815
H 11.1746 10.8428 5.01059 -0.58608 0.295159 0.492634
H 8.56015 2.14662 7.93674 -0.438818 0.651306 -0.176802
H 4.62976 4.58853 7.12898 1.381926 -0.958336 1.69553
H 4.86665 4.90591 9.63831 -0.598375 0.547592 0.347355
H 2.28633 7.00114 3.71965 0.068081 0.310788 -0.181561
H 12.2601 4.47915 8.06889 1.420648 0.091765 -0.348155
H 1.03878 5.27069 8.66338 0.325933 0.447327 -0.067314
H 10.3947 2.837 9.03432 0.302438 0.302756 -0.05921
H 6.99887 5.7939 1.93875 -0.513615 -0.21171 0.784643
H 6.27005 5.70201 3.39425 -0.202757 0.959817 0.850945
H 10.1785 7.71017 8.11898 -0.755946 -0.100171 -0.257838
H 1.55043 7.3165 5.03123 0.978359 1.067277 -1.299568
H 9.025 6.70791 8.77964 -0.3896 -0.914694 -0.668082
H 9.73858 4.20489 8.99277 0.253173 0.337797 -0.022655
H 2.09191 9.03386 3.64809 -0.047541 0.309696 0.441355
H 11.6115 5.97818 5.46964 0.49521 0.072928 0.237935
H 0.31958 5.67071 6.54979 0.108876 0.254159 0.296092
H 6.71309 10.2471 6.5189 -0.028772 -0.704372 -0.810732
H 7.08692 9.0329 0.11179 0.595049 1.155537 0.029735
H 4.4241 8.20088 6.97703 0.459644 0.578058 0.744808
H 7.31808 11.6044 6.80771 -0.068271 0.0468 0.344016
H 3.67292 8.0082 5.73068 -0.879495 0.025516 -1.175859
H 7.51406 8.76134 10.9921 0.263128 0.552794 -0.080816
H 5.54859 10.1211 4.35502 -0.356915 0.314894 -0.178875
H 3.04357 10.2741 3.69912 -0.034839 0.082552 -0.030293
H 10.7682 9.22816 6.31221 -0.373513 0.556075 -0.274318
H 11.5721 7.8571 6.41948 0.284003 -0.48006 -0.293558
H 8.33745 0.57067 5.59368 0.331914 0.142547 0.36606
H 9.72236 11.2377 5.80832 -0.254409 1.152206 0.293414
H 11.8516 3.86738 10.6292 0.179025 -0.134197 0.539975
H 0.57514 4.89099 10.8569 -0.147945 0.123769 0.272839
H 1.39566 11.0283 7.66705 -0.639866 0.464096 -0.797037
H 1.9835 11.4081 8.91956 0.4704 1.516706 1.745262
H 1.29103 0.66369 10.5206 -0.708746 0.688806 -0.050101
H 6.00182 1.87472 1.23106 -0.349464 -0.207698 0.193184
H 8.61443 5.24267 0.10229 -0.418813 0.444685 0.279607
H 5.26201 1.56465 12.3664 -0.17809 0.173969 -2.062662
H 0.696 2.8192 9.44033 0.044002 -0.67527 0.051803
H 8.49486 4.81303 11.0133 0.393083 -0.923292 1.687669
H 0.60518 11.6818 11.0022 0.018466 0.2086 0.160376
H 9.39194 2.57041 11.9535 -0.26786 0.40041 -0.21882
H 4.25418 3.90457 0.36454 -0.067169 -0.872217 0.317253
H 4.18108 6.81312 10.3895 0.557891 1.342643 0.443279
H 4.07031 5.61242 11.5326 0.160854 0.818748 -0.495221
H 6.73175 8.23893 5.13413 -0.078781 -1.653574 -0.164975
H 8.76725 6.83727 1.54024 0.116655 0.422105 0.385295
H 7.16469 5.25296 8.97627 0.674718 -0.447332 -0.878684
H 8.02944 5.14067 7.60135 -0.280382 -0.337873 0.356705
H 7.74682 9.31528 4.54748 -0.69333 -0.849229 0.573746
H 7.33462 9.97234 8.4335 -0.413631 0.614522 -0.33753
H 10.2854 5.7751 11.3007 -0.301758 0.010506 -0.234677
H 8.28934 8.95912 9.06156 0.487326 -0.409143 -0.027041
H 11.5048 7.48549 0.15553 -0.195276 -0.117003 -0.300595
H 0.24127 7.9647 1.1537 -0.344828 -0.118509 -0.025073
H 10.5354 6.98714 10.1969 0.283681 -1.391684 1.754692
H 0.9232 9.49789 9.29433 0.113991 0.221269 -0.935308
H 12.3128 8.50791 8.47546 0.729427 0.864295 1.297288
H 5.52277 8.57973 10.6442 -1.204525 -0.195408 -0.234179
H 1.17084 7.21932 10.0645 -0.593193 0.461874 -0.285541
H 2.27393 6.09199 10.4077 -1.303489 0.395588 -0.667831
H 4.50897 9.05963 9.48683 -0.119219 -0.283581 -0.213821
H 4.93148 11.1829 3.29119 0.21998 -0.675827 0.366668
H 3.2731 10.1245 7.92734 0.763533 0.105394 0.34191
H 1.77711 0.66536 6.87487 1.548532 0.762669 -0.292019
H 0.75542 12.1988 6.13484 -0.619877 -0.29904 -1.355017
H 7.52572 11.5485 10.303 0.784772 0.12007 -0.332055
H 11.9998 9.61302 11.0323 -0.0176 -0.714563 -0.62214
H 0.19495 9.91341 0.05144 1.047734 -0.668905 0.857186
H 1.58035 9.74027 1.90549 0.366531 -0.030216 -0.009026
O 1.85621 1.04883 1.38933 -0.218334 -0.688268 -0.378783
O 12.1532 4.81609 1.12539 0.163484 -0.057158 0.105873
O 2.62287 2.85678 12.2217 -1.332553 1.170828 0.477234
O 3.24154 1.62658 3.93009 -0.616459 0.830063 -0.208858
O 6.2916 6.42035 4.85691 0.167493 0.909982 -1.171874
O 7.50241 2.69481 2.07054 0.504077 -0.219246 -0.11097
O 11.7581 0.52645 2.56147 0.71056 0.746255 0.936868
O 11.2375 3.4275 3.03961 0.1456 -0.236337 1.047435
O 1.34905 3.56328 4.18596 2.162918 0.775199 0.538174
O 4.08524 4.95486 6.46433 -1.688927 1.076302 -0.903642
O 4.40502 4.74887 0.77913 -0.064921 1.405843 0.227292
O 9.06971 9.16237 3.69189 -0.394612 0.274278 -0.034808
O 9.94483 6.99789 2.82759 0.976608 -0.671548 -0.608137
O 10.2806 5.17797 4.70724 0.821114 0.851074 -0.330928
O 3.26406 10.4225 11.9239 0.478274 0.073996 -0.050081
O 2.03176 5.71787 2.32179 1.025627 -1.345207 -0.538466
O 5.27995 11.1947 1.30389 0.493929 0.788138 0.272462
O 4.17056 9.68766 8.01637 1.264575 0.159506 -0.417004
O 7.78373 0.09552 10.2853 -0.023576 -0.652209 0.122713
O 10.0795 11.7561 0.74336 0.649408 -2.084215 0.513307
O 7.79185 10.2152 1.2125 0.766252 -0.578147 0.315058
O 5.22211 0.6572 5.47201 0.106436 -0.609183 -0.311874
O 0.17719 11.3147 4.55404 -0.269851 1.228883 -0.902773
O 3.27222 1.69239 7.19808 -0.254589 0.391206 -0.893719
O 7.57085 1.90741 4.99529 -1.996445 -0.448149 0.460637
O 8.09769 4.62862 6.06307 -0.242851 2.185235 1.055703
O 0.49574 1.86837 9.55338 0.541644 0.029056 -0.652459
O 9.11944 1.53778 8.41397 -0.003627 -0.447717 0.529826
O 5.41023 4.47476 8.96665 0.551036 -2.123142 -0.155458
O 2.22798 7.74171 4.371 -1.487679 -2.57315 1.526482
O 0.8312 4.7245 7.86126 -2.000379 -0.806593 0.826267
O 6.41587 5.25077 2.55962 0.647744 -0.98365 -2.433687
O 9.53183 7.51996 8.84461 0.833656 1.280834 1.051599
O 10.6256 3.79451 9.06567 -0.194286 -0.395883 0.057816
O 0.01635 6.365 5.93346 -0.319863 0.12633 -0.821403
O 4.42161 7.64559 6.18867 0.054138 -0.389131 0.42482
O 6.58791 10.9989 7.11134 -0.058096 0.025745 0.475248
O 10.2521 10.5725 5.3546 1.429362 -1.423458 -0.733557
O 2.13224 10.0124 3.45252 0.245009 0.442884 -0.107159
O 6.99842 8.45226 11.7432 -0.871528 -1.230539 -0.024074
O 8.69221 12.3595 6.30036 0.056701 0.715837 0.575171
O 10.9512 8.44851 6.86217 0.400273 -0.268532 0.827614
O 0.24577 4.01526 11.2072 -0.091124 0.342911 -1.292438
O 1.83433 10.6314 8.42549 0.273485 -1.644083 -0.551383
O 1.42185 12.2171 10.9574 0.909707 -0.955149 0.361611
O 5.15068 1.50113 0.89657 0.797363 -0.047807 2.171716
O 8.77035 4.46821 11.9244 -0.021843 0.187676 -2.230743
O 9.70486 1.6852 11.7339 -0.52931 -1.032453 -0.421006
O 11.7724 7.48296 1.09194 0.558688 0.28807 -0.207412
O 3.86193 5.9366 10.6107 -0.656764 -2.031054 0.7246
O 8.0894 6.58131 0.88413 -0.826095 0.626961 -0.413047
O 8.08672 5.23076 8.59279 -0.314795 0.30752 0.789804
O 6.90869 9.16643 5.10017 0.263955 2.314998 -0.263744
O 7.57681 9.57883 9.28323 0.126234 -0.13443 0.522646
O 10.9127 6.45444 11.0214 -0.219476 1.573222 -1.349326
O 0.36254 8.71263 9.35378 -1.218396 -1.255799 -0.200763
O 1.28777 6.26039 10.1045 2.048667 -1.450173 0.536883
O 4.57176 8.51102 10.3109 1.254833 0.417329 0.786514
O 4.81156 10.7795 4.18706 0.309009 -0.128289 -0.337202
O 0.98048 0.1698 6.98666 -1.058517 -0.270258 1.015043
O 1.42022 9.26228 1.06158 0.995484 0.339413 -1.559051
O 12.0098 10.2288 11.7619 -1.180931 1.468116 -0.364328
Na 2.2268 3.64563 6.37118 0.045509 -0.064164 -0.009768
Cl 4.78066 1.82057 10.3747 0.120553 -0.318829 -0.594489
188
energy=-1016.13317118 config_type=nep2xyz pbc="T T T" virial="-13.760975701667038 1.7661222286927878 3.658362894561298 1.7661222286927878 0.4841243877319066 -8.656546755789915 3.658362894561298 -8.656546755789915 -2.668991244405382" Lattice="12.4 0.0 0.0 0.0 12.4 0.0 0.0 0.0 12.4" volume=1906.6240000000003 Properties=species:S:1:pos:R:3:force:R:3
H 1.20721 7.6773 2.16581 1.321889 -0.041067 0.470278
H 10.1961 7.56282 3.2936 -0.162413 0.327249 0.894316
H 9.81027 11.276 1.59913 -1.466674 -0.573745 0.27228
H 12.0389 1.40045 5.91407 -1.005857 -1.62165 0.104059
H 0.29133 3.20017 0.94112 -0.519198 0.273762 -0.15319
H 0.23468 2.65415 6.58179 0.593737 -0.199248 -0.489638
H 10.3914 0.9595 6.78747 0.228536 -0.662145 0.36844
H 6.59146 1.31351 11.6156 0.781088 -0.286091 -0.606613
H 9.49324 8.73084 2.46693 -0.741961 1.436513 0.859613
H 1.97408 6.41969 11.7095 0.069343 -0.546113 -0.031678
H 6.14942 9.83183 0.99422 0.131675 1.376486 -1.76379
H 12.354 9.29886 1.70124 0.411596 0.549996 0.420984
H 7.77696 0.74021 10.4802 -0.398977 0.255728 0.329747
H 7.42796 4.87149 11.1914 0.534024 0.129728 -0.689193
H 5.28372 9.34934 2.16635 -1.271859 -0.085176 0.957586
H 8.72931 4.02093 11.1599 0.288255 -0.15188 -0.03423
H 11.9335 3.54599 8.82145 -1.188244 0.145176 0.909446
H 11.2677 11.3673 1.99445 -0.519826 0.834945 -0.588755
H 5.94167 8.08997 7.88484 0.477094 -0.058954 -0.340619
H 4.74453 8.22843 6.85334 0.74946 -0.123712 1.311408
H 0.56389 11.0765 3.12032 0.903927 -0.044838 0.023965
H 5.66581 10.8098 11.4151 -0.059031 0.388961 -0.685458
H 6.96301 11.5554 12.0337 -0.730393 -0.21102 -0.357867
H 3.18539 2.81934 9.97531 0.105728 0.523211 0.269898
H 4.62334 4.75707 11.2076 -1.576753 -0.89654 0.403697
H 10.4063 6.58034 8.52336 -1.207107 0.853726 1.08262
H 5.70763 6.41605 11.1265 -0.296304 0.301609 -0.524045
H 11.6923 10.3977 3.71215 -0.102267 -0.01188 -0.232195
H 1.74012 6.95445 3.46053 -0.119625 -0.039776 0.039656
H 8.72607 1.43951 12.3829 0.9387 0.283012 1.248811
H 9.94951 0.96326 0.9841 -0.668999 0.455768 -0.133153
H 0.32808 3.57382 2.52866 0.205289 -0.113151 -0.847935
H 3.92014 5.20988 7.87796 0.083086 -0.014917 0.228136
H 11.46 8.16542 1.35134 -0.616569 -0.89812 0.471822
H 3.49445 1.91071 8.77661 -0.58807 0.111882 -0.199505
H 12.2541 8.73683 10.606 -0.080966 -0.123373 -0.320584
H 3.19732 1.57105 2.95208 -0.410366 0.128229 0.122607
H 1.99792 1.80441 1.98866 0.212182 0.078626 0.11416
H 7.15357 9.6973 8.20895 -0.037565 1.169341 0.07424
H 12.0469 10.4063 6.29942 -0.451636 0.403045 -0.498864
H 5.85354 10.6159 8.62193 1.815626 0.094877 0.359462
H 5.03455 6.12069 7.4086 0.331914 1.150082 0.161309
H 11.4908 12.2807 7.26761 -0.388334 0.131059 -0.090762
H 3.63133 7.45393 10.6615 1.72926 0.280795 -1.580989
H 2.33888 5.29108 5.18279 -0.370834 0.074762 -0.213281
H 4.64472 7.51764 9.28257 -0.857409 0.42654 1.34157
H 3.76425 4.93897 5.83806 -0.114313 -0.075987 0.130973
H 9.1018 3.88174 0.77979 -0.536289 0.206565 0.872579
H 7.64443 4.04048 1.53357 0.732706 0.12218 0.084661
H 11.6281 10.556 10.3713 -0.323962 0.282818 -0.60391
H 9.1319 4.7333 2.89149 0.349398 0.185386 0.557322
H 8.71985 2.67 7.48162 -1.181927 0.602382 -0.380183
H 9.98636 2.49108 8.35519 0.076181 0.110423 0.251631
H 7.05881 3.07075 6.18044 0.175992 0.293466 0.028891
H 10.559 4.31767 9.11528 -0.467413 1.384954 -0.549557
H 6.22848 7.74642 1.50679 0.646692 -0.430679 -0.021887
H 0.60469 6.40043 5.50353 -0.575892 0.47144 0.641085
H 7.55811 2.64656 4.07181 -1.306836 0.058625 -1.498779
H 2.40522 0.52812 9.90684 0.333916 0.320202 -0.312272
H 0.34139 5.2258 4.3982 -0.517666 -0.355753 0.141467
H 1.60515 11.6254 9.93789 0.491025 -0.245864 -0.39089
H 12.3767 10.567 8.93412 -0.157716 -0.404999 0.816043
H 10.9538 3.25724 11.1103 0.752186 0.493151 -0.585875
H 10.1069 11.1774 4.97582 0.345066 -0.429422 0.423313
H 10.4181 9.63393 5.43926 0.213973 1.038281 -0.857936
H 5.58896 0.27819 6.39646 0.530814 -0.310442 -0.143367
H 1.10692 10.6456 6.89184 0.294361 0.267379 -0.094884
H 6.40244 3.98271 7.37758 0.39012 -1.223937 -0.679124
H 10.5342 6.29865 7.02241 -1.322627 0.767959 -2.261881
H 7.81662 12.1325 5.08658 0.144964 -0.010182 0.007754
H 5.19233 2.08308 7.12016 1.595718 1.373705 0.184131
H 8.8337 3.43212 4.43359 -0.68059 -0.652826 0.257186
H 3.07296 3.05957 4.68209 -0.547156 -0.623764 0.402515
H 2.01843 1.89586 5.0302 0.20659 0.478626 -0.066178
H 0.63695 8.51717 6.94648 -0.383601 -1.064339 0.535724
H 3.37446 10.3478 6.39515 -1.022926 0.968682 -0.448683
H 10.5952 2.71464 0.05235 -0.191788 0.057042 0.516304
H 4.70738 9.1148 4.8102 -0.056155 0.292741 0.595447
H 5.38982 10.3172 5.62174 -0.607001 -1.046358 0.505733
H 7.93477 7.94276 7.01733 0.217984 0.376614 -0.17082
H 9.35717 5.56951 4.30202 0.156543 -0.115072 -0.307184
H 8.11581 7.71631 8.55172 -0.161677 0.667605 -0.158256
H 5.90977 6.35851 2.11328 -0.374519 -0.577404 0.524241
H 12.1658 7.25543 7.55899 0.902839 0.196716 -0.730517
H 2.51987 12.1497 2.9876 0.074245 0.503821 -0.402593
H 4.75174 3.0722 12.0645 -0.597611 1.212786 -1.151957
H 2.3827 11.6672 4.47108 0.156177 -0.254292 -0.355691
H 6.07323 2.91804 1.58644 -0.480446 -0.909634 -0.958965
H 4.28939 1.99212 0.5953 0.300042 -0.409952 -0.078283
H 2.27668 6.14834 1.69913 -0.233097 -0.712698 -1.119139
H 1.01985 7.20668 10.8108 0.066277 -0.003849 0.111239
H 4.45774 9.68007 10.1925 0.347415 0.958269 -0.688638
H 3.74295 11.0789 9.97338 -0.341998 0.482233 -0.313304
H 1.81121 4.65654 1.20355 -0.525112 0.067988 0.275918
H 5.73355 4.11304 2.50618 1.219389 -0.963888 -0.142205
H 3.86337 5.23791 2.1002 0.743972 0.11485 0.524831
H 4.11924 5.23324 3.6557 -0.120976 -0.132816 0.197232
H 11.0233 4.00147 3.88236 -1.230038 0.347293 0.128268
H 9.54555 11.5558 10.581 0.332198 -0.774624 0.006581
H 12.188 3.11987 4.63677 -0.360697 -0.537439 0.402323
H 10.8252 5.33888 11.9258 0.182829 0.516571 0.451135
H 10.4442 11.1721 11.7923 -0.00087 0.367251 0.785272
H 6.02537 6.20506 0.19906 0.269083 -0.136818 0.846186
H 8.73564 0.6931 4.30476 0.026463 -0.036974 0.060092
H 6.52336 11.594 6.99478 0.767389 -1.065132 1.897412
H 3.09791 4.24782 11.719 1.189503 0.554049 -0.54295
H 8.77576 0.80637 8.58213 0.110043 0.336628 -0.393455
H 8.02917 11.7953 9.03396 0.640358 0.958895 -0.182412
H 1.68033 6.44249 7.90498 0.178912 -0.086071 -0.800785
H 2.01759 5.82209 9.18383 0.380616 -0.387031 0.702175
H 1.16233 4.33367 7.83294 -0.335671 -0.028372 0.016333
H 3.36346 8.3397 3.02098 0.418843 0.356561 -0.054216
H 12.2747 8.44012 12.1898 0.063432 -1.545609 -1.719646
H 3.45656 11.6383 7.09572 -0.844327 0.563837 0.054656
H 11.1949 6.84849 11.4969 -0.395398 -0.473367 0.764183
H 8.98619 7.48197 10.5569 0.112831 0.157302 -0.544656
H 3.60454 9.79261 3.43934 -0.855531 1.33716 0.013871
H 7.67808 9.16374 12.0256 -1.120983 0.554682 -0.081719
H 8.85485 6.03935 10.0194 -0.189476 -0.286053 0.102106
H 1.56661 3.03324 8.45045 -0.670347 -0.513095 -0.331419
H 8.4562 10.8624 3.33514 0.369951 -0.443923 -0.788348
H 3.91981 1.78007 6.25216 0.452081 -0.36565 0.561259
H 9.11089 9.54462 11.7761 0.4091 0.425496 -0.479297
H 7.64936 9.84877 2.44691 -0.087739 -0.081392 -0.249418
O 0.87177 3.4682 1.66645 0.050644 -0.630772 0.971895
O 10.5489 11.8483 1.43205 1.583354 -0.182001 -0.152431
O 9.89454 7.87161 2.44103 0.874124 -1.640254 -1.947157
O 7.4752 0.89834 11.4313 -0.399143 0.123381 0.643584
O 0.18506 2.15263 5.71472 1.334637 1.516295 0.275471
O 6.13335 9.25787 1.74684 1.223489 -1.12096 0.774844
O 8.25197 4.67676 10.6464 -1.010655 -0.098674 0.555546
O 5.05585 7.73892 7.68295 -0.852621 0.356388 -1.002657
O 6.36998 10.7658 12.0789 0.85184 -0.034287 0.643147
O 11.1322 3.44644 12.0507 -0.384344 -0.440059 0.176878
O 3.87125 4.03478 11.1345 0.14609 1.202348 0.135102
O 2.07536 7.38977 2.63914 -1.591855 0.18185 -0.154409
O 9.41753 1.76081 0.68656 -0.470174 -0.87094 -1.017445
O 4.84853 5.19293 7.56613 -0.495593 -1.617019 -0.449798
O 12.3782 8.45262 1.20774 0.017834 0.340248 0.239289
O 2.74482 2.2511 9.31985 0.677926 -0.237184 -0.220795
O 12.159 7.96816 11.2055 0.404172 2.580209 0.704805
O 2.76325 1.21377 2.15263 0.201943 0.126264 -0.464624
O 6.85116 10.6556 8.38457 -1.551513 -0.558 0.10902
O 0.22635 10.2662 7.06465 0.454886 -0.296464 0.813926
O 4.55933 7.71572 10.2783 -1.267108 -0.522248 0.326563
O 3.16459 4.76874 5.08371 1.054911 -0.146021 0.00392
O 11.0191 0.24483 6.50185 -0.21667 0.851534 0.170492
O 8.51928 4.50288 1.27866 0.357603 -0.326633 -0.296775
O 9.34148 2.01815 7.7855 1.250626 -0.303468 -0.03594
O 6.82708 3.1041 7.12826 -0.633034 0.935835 0.575622
O 11.0565 3.57633 9.41235 1.460413 -1.640508 -0.778164
O 2.45984 12.0044 9.61348 -1.237677 -0.290387 0.690996
O 0.08927 10.4651 9.91873 0.382847 0.056727 -0.615539
O 10.8259 10.5018 5.10789 -0.65735 -1.41619 -0.022039
O 10.8962 6.12588 7.85821 2.420291 -1.618716 1.668875
O 0.90439 5.96934 4.6986 0.992124 0.26397 -0.557951
O 8.60071 12.144 4.4866 -0.306995 0.02316 0.255245
O 8.24602 2.65005 4.7073 1.550419 0.379786 1.101167
O 2.93848 2.06847 4.72207 0.270508 0.41642 0.213868
O 2.80227 11.1821 6.5302 1.616352 -1.40593 0.114926
O 4.83247 9.47832 5.73821 0.629921 0.962808 -1.100724
O 7.66942 8.32612 7.8724 0.415194 -1.503559 0.487781
O 6.48581 6.7552 1.4537 0.139932 1.418178 0.32504
O 0.629 7.52104 7.09784 -0.464963 0.535534 0.118678
O 2.33895 11.3667 3.53776 -0.16808 -0.424548 0.946642
O 5.06108 2.26924 0.06527 0.705639 -1.792166 1.713765
O 6.47774 3.41921 2.29166 -1.236156 1.600042 1.109678
O 9.55649 4.74257 3.8108 -0.676759 0.15183 -0.56263
O 1.86105 6.67155 10.7725 0.675529 -0.034842 0.069237
O 4.61573 10.6386 9.91037 0.233912 -1.906591 0.864662
O 2.32513 5.45763 0.94289 1.053784 0.781991 0.535451
O 12.2052 10.5359 2.85554 -0.496669 -0.247345 0.431394
O 4.58812 5.30779 2.79707 -0.715167 -0.194583 -0.931306
O 5.93662 5.7058 11.7487 -0.248983 -0.763727 -1.625452
O 11.9463 3.76819 3.93273 1.917712 0.616437 -0.969071
O 6.3147 12.027 6.18559 -1.113641 1.05075 -2.189804
O 9.97688 10.7779 11.0463 0.000428 1.022631 -0.473973
O 4.48303 1.47078 7.02478 -2.008946 -0.960211 -0.740626
O 8.66486 0.14582 9.29341 -1.158474 -2.02717 0.942056
O 2.14451 5.62745 8.23251 -0.41117 0.642322 0.083031
O 4.09159 9.00095 3.23795 -0.254534 -1.267441 0.001284
O 10.7469 6.28361 12.1955 -0.291148 -0.823383 -0.619666
O 9.06936 6.95316 9.72677 -0.122929 0.643863 0.179929
O 0.7889 3.40706 7.91989 0.88361 0.489356 0.639168
O 8.53769 8.78008 11.9133 0.446658 -1.63367 0.387923
O 8.55142 10.1977 2.58444 -0.115905 0.724949 0.781934
Na 8.7895 6.63411 0.77916 0.005769 0.450554 0.126783
Cl 9.7982 7.53636 5.5097 -0.249879 -0.068328 -0.175196
188
energy=-1015.57107651 config_type=nep2xyz pbc="T T T" virial="-7.218632349073579 -0.7856757368574784 -1.0291659560547288 -0.7856757368574784 -11.238714060052432 -5.568941785725882 -1.0291659560547288 -5.568941785725882 -16.701672565773883" Lattice="12.4 0.0 0.0 0.0 12.4 0.0 0.0 0.0 12.4" volume=1906.6240000000003 Properties=species:S:1:pos:R:3:force:R:3
H 2.40478 1.13898 3.77723 0.438217 -1.130141 -0.452574
H 2.18916 2.2796 4.83135 -0.492171 -0.212239 -0.04056
H 8.55966 0.44281 12.3121 -1.75656 0.162294 1.14029
H 6.38338 4.89024 9.15816 0.64219 0.31103 0.877868
H 4.35331 12.1273 2.84835 0.598958 0.219243 -0.021063
H 5.51269 5.20704 4.99802 -0.064662 0.223457 0.150528
H 2.98282 11.5168 2.87609 -0.754099 -0.671263 0.563991
H 9.50707 8.86929 6.31975 1.029168 -0.631571 1.875248
H 7.75422 5.50386 8.73123 0.390466 0.056123 -0.646613
H 4.13277 5.37472 5.92491 0.564744 0.128056 -1.264216
H 7.4141 2.59483 2.87302 0.088893 -0.059106 -0.636775
H 6.45467 7.04774 0.51628 -0.512573 0.776088 0.208814
H 3.36033 6.39657 11.0572 0.885334 -0.058884 0.712581
H 4.44206 7.31913 10.2175 -0.524177 0.032342 0.360303
H 0.76186 4.37813 2.42082 -0.099017 0.449996 -0.220032
H 0.93667 2.85883 2.78034 -0.145377 0.341088 -0.445857
H 3.27077 8.4029 12.0164 -0.031775 1.127005 0.476299
H 8.24767 9.19884 5.61774 0.042483 0.586039 -0.553
H 4.39059 7.20235 4.14845 0.680218 0.335094 -1.025933
H 6.16701 10.248 5.16657 -0.114799 0.372511 -0.811869
H 7.03581 10.5826 6.47614 -0.425883 -1.599319 -0.977567
H 5.03522 7.58195 6.44581 0.266863 -0.496836 -0.892437
H 5.44535 9.10741 6.74163 0.102017 -1.143181 -0.400506
H 6.86452 5.67072 12.2647 0.612835 1.59996 0.271321
H 2.63378 5.63854 7.85044 -0.744165 0.415076 0.499916
H 4.56506 4.01241 2.25169 1.006676 -0.198561 -0.610529
H 6.03885 4.03696 1.6197 -0.539121 -0.364136 0.181983
H 3.57046 2.76899 3.57024 -1.187265 -1.288542 -0.472484
H 7.65582 12.0936 1.05078 0.204552 0.4945 -0.484004
H 4.24337 3.90857 4.19429 1.004482 -0.387124 -0.578342
H 12.0945 11.5714 9.52253 -0.18874 -1.227514 -1.488507
H 8.34735 10.0207 2.17647 0.537152 0.110334 -0.177266
H 6.88288 9.84113 1.73535 -1.421349 -1.263728 -0.591739
H 10.3723 8.92274 2.67131 0.281509 -0.329934 0.75078
H 7.47343 1.94603 7.85814 0.048279 -0.25743 -1.115124
H 9.98036 8.89604 1.20629 -0.262194 0.890717 0.422869
H 11.0316 11.3388 1.85889 -0.115183 0.049564 0.189118
H 12.1845 11.7473 2.86242 -1.668039 0.98796 -1.856244
H 2.8249 8.18081 2.99651 1.318092 -0.117474 0.876012
H 6.54937 0.02798 4.38817 0.563661 1.684601 0.643031
H 6.96193 11.4349 3.2098 -1.442534 -0.03785 0.698655
H 1.72973 9.96473 6.47841 -0.401048 0.495425 0.503102
H 7.37319 11.1184 8.6003 -0.902961 -0.624653 0.642723
H 8.46949 11.8431 7.90247 0.672503 0.925551 -0.472571
H 8.15798 5.60219 6.49073 -0.149633 -0.288598 -0.201248
H 10.6802 0.27988 6.41965 0.63004 -0.110274 0.782392
H 9.61086 7.69698 4.28178 0.254985 0.267606 0.445721
H 9.66397 4.25841 8.13754 -1.19898 1.208242 -0.65474
H 10.7015 6.51208 4.18955 -0.164249 0.5613 0.00199
H 9.95523 2.83313 8.6515 0.237416 1.393063 0.095324
H 9.91002 11.8036 10.8432 -0.024572 0.616337 -0.09673
H 10.4972 0.86329 11.1464 0.460964 -0.259789 0.079074
H 1.92108 0.61511 8.94906 -0.068667 0.121745 0.508805
H 11.442 12.3386 7.77175 0.386647 -0.999652 0.521524
H 5.86742 2.22756 4.23994 -1.14262 0.325336 -0.360398
H 6.23879 10.887 10.6062 -0.283962 0.191864 0.135558
H 3.40021 1.19132 8.57552 -0.619361 -0.386582 0.245599
H 2.61827 4.19637 7.1525 0.340172 0.3532 -0.180044
H 8.98576 6.57579 7.39358 0.647281 1.001037 0.243323
H 7.4542 5.13713 3.93146 0.239615 -0.59485 -0.274765
H 1.98681 2.09609 7.18917 0.467952 -0.177663 -0.220786
H 0.96312 3.03803 6.49327 0.753072 0.048047 -0.318382
H 1.23805 3.25042 0.59367 0.915538 -0.070346 -1.621159
H 0.21435 6.04252 3.46463 -0.205632 0.200783 1.490875
H 1.23362 6.93898 2.53569 -0.830991 -0.664439 0.526828
H 3.52498 10.2454 7.70672 0.126161 -0.198856 0.002774
H 7.1622 3.81018 4.83799 0.13589 -0.0974 -0.395805
H 3.13851 11.7221 7.43055 -0.333974 -0.035712 -0.195387
H 1.39681 2.40178 11.594 -0.133954 -0.76105 -0.118977
H 1.29877 10.0328 3.16521 0.129759 -1.079007 -0.034248
H 11.6571 5.49669 12.1963 -2.568066 -0.067413 0.935514
H 11.4472 6.01408 1.20784 -1.071123 -0.592166 -0.469968
H 9.76637 1.12343 8.07419 0.437983 -0.265386 -0.157028
H 4.17949 4.71039 8.46787 -0.25019 -0.273845 0.190256
H 12.1116 6.08368 5.9086 0.181152 -0.151442 -1.23033
H 9.02575 1.08569 9.47902 0.437265 -0.321436 0.227112
H 11.7835 4.64804 5.36124 0.258812 0.838935 -0.825611
H 4.37809 4.6277 10.1359 0.236037 -0.545938 -1.104685
H 8.60226 10.0189 9.94197 -0.723265 -0.050156 0.273843
H 0.97378 10.9609 4.35888 -0.091408 -0.489059 1.496984
H 11.2145 3.68121 7.08893 -0.097811 -0.328503 0.520171
H 11.6188 2.24846 6.57254 -0.346134 1.272157 -0.249683
H 0.11623 10.0445 6.74312 0.784776 0.330614 0.274772
H 6.35477 9.42689 9.96775 -0.872697 -1.474364 -0.005026
H 2.93549 4.0863 11.8216 1.596173 1.346236 0.180311
H 4.30927 4.69442 0.18012 -0.520953 -0.200773 -0.575635
H 3.09836 12.122 0.89851 0.350294 -0.17638 -0.938143
H 2.52703 0.0337 11.8572 -0.837655 0.368291 -0.486909
H 4.81268 2.72333 9.24822 -0.090366 1.039689 0.309572
H 8.5312 4.41747 10.5358 -0.121887 -0.500427 0.789509
H 4.91419 8.84901 0.85273 -0.333983 0.184519 -0.337629
H 8.57697 2.94118 10.9359 -0.084001 -0.542609 -0.092264
H 6.61172 1.85586 5.56131 0.271016 0.137075 0.961614
H 5.37379 8.12938 2.12361 0.511817 0.494859 -0.782123
H 5.2491 1.29206 9.87056 -0.211331 -0.144855 0.34969
H 7.36169 2.20699 1.29841 0.420425 0.840027 1.56217
H 3.10371 10.0307 12.2943 0.047215 -0.684216 0.406808
H 2.36788 6.74106 9.76128 -1.333054 -0.457998 -0.975878
H 1.19211 5.56521 9.53444 -0.835589 -0.751226 1.025163
H 3.86221 10.3679 5.48851 0.489314 0.726355 -0.824943
H 4.77343 8.71252 4.15015 -0.379568 0.671418 -0.325436
H 10.0786 8.37935 8.71346 -0.360577 -0.037784 -0.620808
H 10.859 7.73524 7.55126 2.013272 -0.710107 -0.427239
H 4.88842 11.0287 4.39483 0.529577 0.728407 0.056991
H 8.85657 7.64395 11.9896 0.406441 0.92737 0.507544
H 11.2491 2.42797 1.34747 -1.21891 0.207177 -0.044969
H 10.2489 7.32293 12.335 0.722401 -0.328414 0.071708
H 8.04834 6.11149 1.99566 -0.106233 -0.041203 -0.068266
H 9.06782 6.10399 3.20688 -0.154188 -0.015735 -0.755213
H 10.5212 1.21319 1.69945 -0.630339 0.415849 -0.088922
H 0.41823 8.00614 6.67304 0.648681 0.687572 -0.159826
H 0.6027 6.94969 7.89806 -0.257594 0.422796 -0.762691
H 6.2427 0.2922 11.9411 -0.035525 -0.032012 0.200975
H 0.64409 4.11822 10.8785 0.330368 -0.272992 0.599968
H 11.8108 4.13072 9.9201 0.449389 1.080686 0.53885
H 4.67367 12.2571 11.8307 -0.132833 0.06651 0.088319
H 9.73211 9.3856 10.9091 -0.502758 0.268715 -0.785013
H 5.95507 1.85808 7.773 0.925241 -0.014293 -1.069987
H 9.83749 10.7407 5.23514 0.21077 0.756772 -0.332539
H 10.4817 11.9512 4.27408 -0.645307 -0.7038 0.950377
H 10.937 10.6014 9.23792 -0.620808 -0.491653 -0.078334
H 6.33164 6.91539 9.46953 -0.657657 0.298265 0.423419
H 5.38695 7.72757 8.43368 0.041087 0.318292 1.760814
H 2.28975 8.62576 1.68932 0.219838 0.38772 -1.009957
O 2.08149 2.02515 3.88048 -0.343862 1.185574 0.610653
O 3.54662 7.30904 10.7314 -0.915184 -0.22332 -0.020423
O 7.704 0.51685 0.49084 1.416124 -0.6532 -0.730267
O 3.44538 12.2958 2.57635 0.079911 0.593852 -0.463363
O 9.23071 9.20808 5.48678 -1.004361 -0.068641 -1.505177
O 4.56843 5.53511 5.0141 -0.736917 -0.077103 1.261371
O 11.3752 12.1491 2.27815 1.710416 -1.296576 1.728261
O 7.21172 5.35153 9.51969 -1.203296 -0.360687 -0.093487
O 0.52357 3.47687 2.12259 0.392406 -0.888059 0.044685
O 3.1626 5.02051 7.32584 0.354564 -0.528783 -0.853418
O 3.21513 9.14148 0.32902 0.067909 -0.468575 -1.152356
O 6.6654 9.80698 5.84963 1.054167 1.278497 2.306797
O 4.86809 8.32571 7.00988 -0.3187 0.973399 1.171023
O 7.20639 6.57609 0.13526 0.308144 -2.183093 -0.542353
O 5.09575 4.25614 1.44272 0.060758 0.765113 -0.204579
O 4.45583 3.13098 3.58132 0.02081 1.731419 1.648477
O 7.51903 10.4996 1.97888 1.115339 1.378012 0.53016
O 6.76831 1.93295 7.16053 -1.217188 0.161022 2.139419
O 11.7324 10.9224 8.79359 1.112728 1.806346 1.386616
O 10.0463 9.51887 1.99879 -0.154369 -0.365972 -0.995677
O 6.20336 11.7462 3.83903 0.742047 -1.327967 -1.720306
O 7.8039 11.1875 7.74502 -0.009313 -0.384175 -0.552679
O 11.1249 0.68223 7.25207 -1.197116 0.802437 -1.741649
O 10.0949 7.11772 3.66859 0.509023 -0.390258 0.390039
O 9.70315 0.36664 10.8984 -0.512079 -0.507066 0.328405
O 10.328 3.78128 8.60614 0.901744 -1.956489 0.6454
O 6.70172 1.92858 4.59794 1.018177 -0.185813 -0.654758
O 2.54508 0.77044 8.225 0.850341 0.255965 -0.624586
O 8.622 5.69237 7.33728 -0.348791 -0.930187 -0.37588
O 7.088 4.778 4.77577 -0.28989 0.537628 0.973539
O 1.94629 2.80032 6.49277 -1.209856 0.159954 0.520205
O 0.6382 6.11878 2.622 0.761524 0.265039 -2.209143
O 3.28868 10.8435 6.98808 -0.140065 0.019528 0.592135
O 1.70777 3.19861 12.0409 -1.109539 0.781205 2.060165
O 10.8517 5.66347 0.45867 4.045525 0.801579 -0.462617
O 11.9812 5.57912 5.02896 -0.670892 -0.480798 1.763557
O 8.99583 1.47072 8.58609 -0.433615 0.35425 0.020725
O 6.71817 10.2967 9.99091 1.075303 1.354583 -0.026088
O 1.15183 10.9422 3.434 -0.150129 1.249992 -1.207819
O 4.70833 4.31295 9.21109 0.338962 0.594722 1.621771
O 0.83703 9.68044 6.20171 -0.479467 -0.471141 -0.643509
O 11.6417 3.23674 6.33062 0.597274 -1.378614 0.00342
O 3.70165 4.81393 11.7682 -0.974685 -0.99023 -0.29788
O 3.17054 11.8954 12.3128 0.294177 -0.320775 1.531077
O 4.8353 1.75794 9.12196 0.048334 -1.181265 -0.603142
O 8.76847 3.80687 11.2849 -0.062072 1.028295 -0.304127
O 5.73599 8.50961 1.25027 -0.113346 -0.566091 1.158253
O 7.48111 2.96606 1.96642 -0.398756 -1.015212 -1.026032
O 8.43917 5.52332 2.66752 -0.126404 0.318353 0.15182
O 1.64728 6.30252 9.13913 2.001877 2.028197 -0.666121
O 4.61717 7.97277 3.53398 -0.585036 -1.573053 1.40695
O 9.98365 7.96286 7.82741 -1.657904 0.837038 1.03158
O 4.19391 10.3863 4.54957 -1.37569 -1.525157 0.658442
O 9.71699 8.12799 12.186 -1.363356 -1.026067 -0.683211
O 10.2953 2.11602 1.34511 2.284634 -0.457343 0.129609
O 0.05167 7.21699 7.08998 -0.177017 -1.090968 1.106141
O 0.03874 4.72727 10.4267 -1.064249 -0.941728 -0.696021
O 5.51538 0.01632 11.3457 0.583969 -0.056437 -0.783469
O 9.55231 9.92415 10.0817 1.176158 -0.354555 0.860376
O 10.1242 11.7031 5.17351 0.441142 0.240149 -0.730185
O 1.99329 8.35187 2.56884 -1.304099 0.173513 0.031922
O 5.60121 7.60781 9.4574 1.315384 -0.230872 -2.298922
Na 9.32077 4.13823 1.10739 -0.156169 -0.468827 -0.027981
Cl 0.55088 0.69862 10.7667 -0.057498 -0.139585 -0.249897
188
energy=-1015.27286335 config_type=nep2xyz pbc="T T T" virial="-4.498363095063537 1.9596672619279218 6.952853034496999 1.9596672619279218 4.562279128850176 -5.170713121671496 6.952853034496999 -5.170713121671496 -8.661568644871643" Lattice="12.4 0.0 0.0 0.0 12.4 0.0 0.0 0.0 12.4" volume=1906.6240000000003 Properties=species:S:1:pos:R:3:force:R:3
H 8.48393 4.59411 4.97536 -0.314719 -1.40319 -1.187432
H 9.53835 5.38699 5.86758 -0.076569 -0.313792 0.480429
H 11.2012 9.04144 10.565 0.471605 -0.323569 0.023711
H 0.25799 8.51645 11.1936 -0.77717 0.407457 -0.518037
H 7.40667 3.11565 3.13806 -0.66278 -0.087104 -0.641659
H 8.81156 2.7867 3.52293 -0.383454 0.305397 0.145774
H 6.11377 8.86406 7.9812 0.058398 0.211485 0.530564
H 6.43688 7.44111 8.26182 0.27133 -1.547956 -0.439433
H 6.21443 10.5267 12.0927 0.241901 -0.121879 0.221536
H 5.59293 11.8341 11.4509 -0.06415 -0.390693 0.093029
H 8.69899 11.769 1.34205 -0.710187 -0.220173 0.499394
H 10.0532 11.0741 0.91794 -0.253846 0.51379 -0.039691
H 6.62058 9.07069 3.84241 -0.578311 0.35978 -0.019877
H 7.92295 8.97884 4.64894 0.318708 -0.186172 0.638759
H 3.15606 8.79685 3.36316 -0.078452 0.161631 0.423551
H 1.68207 8.70514 4.00897 0.86787 0.370068 -0.218334
H 7.38101 2.25543 1.09146 -0.541266 0.058764 -0.220178
H 5.87575 1.99061 1.67277 0.625218 0.48344 -0.367312
H 7.5167 8.94657 0.34303 -0.459486 -0.115988 -0.244501
H 7.74848 9.56 1.72707 -0.350026 0.194445 -0.078617
H 4.60768 10.1044 6.59114 -0.906813 -0.036555 0.221389
H 5.99276 9.9463 5.84245 -0.223553 0.025403 1.244385
H 3.64187 5.7978 3.59529 -2.602868 -0.828569 -1.687679
H 4.33073 5.73076 4.95903 -3.5e-05 0.495911 -0.778562
H 1.88574 0.44468 10.9433 0.257491 -0.353664 -0.027842
H 2.27163 12.1393 12.2687 -0.461236 -0.589252 0.143562
H 4.93466 10.2616 2.32719 0.95557 -2.922832 1.365392
H 4.80256 11.0718 1.14375 -0.007473 0.428061 -0.962633
H 10.4698 2.63973 2.13246 -0.753925 -0.428825 -0.034308
H 9.55836 1.31146 1.79492 0.183495 -0.360692 -0.74605
H 2.23305 5.83555 1.78278 0.017427 0.032069 -1.413265
H 1.81355 4.71199 2.85841 0.074382 1.607477 -0.478264
H 9.56234 0.6544 8.19723 0.05796 -0.174704 0.286694
H 10.0641 1.42208 9.4349 0.176882 -0.010605 0.424669
H 7.08322 8.19717 10.3624 -0.48769 0.514122 -0.539332
H 8.04622 7.39253 11.184 0.023835 0.242969 0.230926
H 11.2578 1.56189 5.74776 0.043888 -0.192743 0.680459
H 11.1996 2.06922 7.26261 -0.876218 -0.42343 0.724647
H 2.7862 8.86204 10.7647 -1.474589 -0.041092 0.241478
H 2.19983 7.5857 11.4929 -0.17402 0.548387 0.434791
H 0.9306 2.54115 3.67527 -0.046099 -0.139019 -0.121559
H 12.2302 3.07803 4.77198 1.259449 0.245071 -2.033775
H 6.71905 5.04653 7.58929 -0.043019 -0.371949 0.650449
H 7.14395 5.88003 6.41853 -0.28593 0.186075 0.292296
H 4.22978 3.35535 0.52071 -0.021582 -0.78896 0.372226
H 3.83294 1.8433 0.30387 -0.498951 -0.533271 -0.887828
H 5.06165 2.49052 10.5544 0.07429 -0.466394 -0.024754
H 3.91549 3.10194 9.59749 0.118288 0.274823 0.30403
H 8.07938 3.4651 11.8473 -0.080703 0.288893 -0.293458
H 9.03288 2.26739 11.7397 0.161772 -0.504924 -0.038157
H 11.7132 3.48435 1.2181 -0.559654 1.653091 1.301692
H 11.711 3.70858 2.77348 0.541116 0.357834 0.228911
H 4.29522 0.67781 5.34748 1.838636 0.572671 0.736371
H 2.79176 0.88782 5.73299 0.27323 -0.270239 0.904746
H 6.63671 11.562 2.68517 -1.061917 -0.17536 -0.117403
H 7.2988 0.56005 2.3367 -0.55128 -0.140852 0.21213
H 2.14477 2.56754 8.11877 -0.052388 -0.38692 -0.62935
H 2.92055 3.93527 7.75009 -0.314392 -0.3316 0.37789
H 11.9377 11.7703 4.19922 -0.262281 0.394958 -0.027323
H 0.08104 10.8325 3.09421 -0.450959 -0.319285 -0.134136
H 9.13561 11.1085 7.2996 -0.522813 0.426223 1.11489
H 7.91193 11.5492 8.16746 0.586838 0.012731 0.306097
H 6.5476 2.24739 5.28556 0.389734 -0.19364 -0.049507
H 6.64346 2.48849 6.78096 0.171113 1.02753 1.232746
H 1.26086 11.1826 8.53777 0.048927 -0.411447 -0.093588
H 2.74242 10.9622 9.1151 -0.903346 0.345027 -0.22006
H 6.46661 0.58436 7.39738 -0.443958 -0.965764 0.256459
H 6.03239 11.4333 7.65668 -0.340242 0.303831 -0.423814
H 7.42491 3.32649 9.0373 0.538831 0.004331 0.28674
H 5.8918 3.54653 9.00377 0.100093 -0.120363 0.179332
H 1.67006 4.26711 9.89207 -0.874534 0.207348 -0.134057
H 0.26 5.07939 10.2135 0.078249 0.034152 -0.508805
H 7.93105 0.01493 5.74009 -0.031158 0.473095 0.043967
H 7.96282 11.0168 5.10525 0.547395 0.41034 -0.07325
H 1.83141 10.0601 6.56472 -0.413428 0.289553 0.147002
H 2.88421 9.62108 5.45168 -0.645331 0.057565 0.33955
H 10.0419 7.42366 2.40696 0.531555 0.485698 -0.215658
H 9.85267 8.30348 3.65581 0.591728 0.163528 0.205456
H 5.03045 7.55944 3.67948 -0.448455 0.195711 -0.457626
H 5.37833 8.16416 2.26151 0.282098 -0.284656 -0.037315
H 5.71247 5.85836 2.71035 0.163785 -0.178734 0.635329
H 7.19863 6.06329 2.15314 1.134182 -0.073893 0.454417
H 9.84275 5.37156 1.9209 0.950034 -0.996609 1.175225
H 9.3243 5.89811 0.69202 -0.479011 1.230257 1.47144
H 1.23838 6.67507 3.71125 -0.071039 -0.143638 -0.392634
H 12.1909 7.27905 3.80291 1.117132 0.421445 0.530565
H 5.03739 4.65732 11.4211 0.178869 -0.249978 -0.529448
H 5.54119 5.50594 0.28069 0.755519 0.273912 0.654771
H 11.1245 4.32297 6.9195 -0.243086 0.918064 0.199845
H 10.863 5.43402 8.0146 -0.017812 0.0848 -0.513611
H 11.3016 1.73437 11.8112 -0.273019 0.221104 -0.175904
H 10.2933 0.51872 11.8517 -0.401999 -0.471289 0.465312
H 0.49634 3.30943 11.7509 -0.285769 0.028411 -0.140594
H 0.81565 1.90917 12.277 0.974067 -0.951483 0.279861
H 4.53381 5.29188 7.13668 0.352338 0.397754 0.027637
H 3.05371 5.88055 7.0126 0.077443 0.416341 0.159039
H 8.81107 7.01321 5.03561 0.188591 0.475051 0.11664
H 9.56741 8.06801 5.9433 0.248037 0.067205 -0.258945
H 11.464 6.96644 10.2151 0.528805 0.84624 -0.050424
H 10.4677 5.90644 10.1117 -0.125332 -0.526289 -0.261277
H 9.03372 8.69388 9.91163 -0.029803 -0.552166 0.264868
H 9.25076 9.73769 8.86124 0.642515 -0.327165 0.085991
H 0.97108 1.17756 7.00214 -1.575397 0.133954 -0.044925
H 2.09616 0.51168 7.93754 -0.261777 -1.043374 0.445781
H 11.0183 9.25897 1.98023 0.208272 0.329276 -0.707701
H 11.3665 9.22366 0.42777 0.051637 0.104671 -0.123648
H 12.214 9.70419 6.65836 -0.47737 -0.673806 0.513568
H 0.29727 11.0593 6.17221 -0.113555 0.349514 -0.299456
H 3.48499 5.83287 12.0469 -1.367813 0.212505 0.515124
H 1.85399 5.60006 11.7666 0.97627 0.316252 0.239675
H 10.5777 0.90653 3.79162 0.255728 0.758495 -0.803375
H 9.99334 12.3585 4.75468 -0.305308 -0.37034 0.823787
H 2.71022 1.81043 2.39691 1.158979 0.613432 -1.131277
H 2.67319 1.18939 3.83723 0.771708 -0.049313 0.25388
H 6.04738 0.78041 9.83944 0.460156 -0.183395 0.246053
H 6.82494 1.22429 11.1985 0.159107 0.426156 -0.449295
H 10.6901 8.48569 7.98403 -0.30241 -0.169118 0.619238
H 11.5572 7.37936 7.34517 0.375738 -0.696077 0.063035
H 2.20049 7.96786 6.78632 1.605623 4.110505 -0.588261
H 1.60773 6.80265 6.13143 -0.716051 -0.074253 -0.559317
H 1.7894 9.75832 0.3388 0.166334 0.48026 -0.168807
H 0.58093 10.5156 0.87396 0.121713 0.072709 0.000778
H 4.43561 9.94972 10.4658 0.73346 0.253287 0.25078
H 4.41627 8.86263 9.29109 -0.146701 1.026043 0.563644
O 8.69125 5.42376 5.37861 0.06486 1.848126 0.76387
O 11.6512 8.44224 11.1989 0.465464 -0.051076 0.254677
O 8.04827 3.34732 3.81444 1.021926 -0.154101 0.914418
O 6.29485 8.25201 8.73723 -0.610568 1.165396 -0.182823
O 5.38633 10.9237 11.7916 -0.387911 0.449634 -0.224938
O 9.44877 11.8469 0.7433 1.099227 -0.460166 -0.404561
O 7.16837 9.58195 4.47011 -0.386186 0.186887 -0.2252
O 2.49716 9.31124 3.87918 -0.527004 -1.509162 -0.309007
O 6.8297 2.11869 1.90576 -0.43087 -0.356785 -0.182928
O 7.04005 9.37203 1.08773 0.614096 -0.122947 0.269005
O 5.55825 10.0864 6.75084 1.142592 -0.235786 -1.354044
O 4.35203 6.16207 4.05859 2.556469 -0.119213 2.987062
O 2.23349 0.60137 11.8344 0.039155 0.993304 -0.17312
O 4.60565 11.0821 2.08874 -1.170668 2.504429 -0.271781
O 9.94479 1.85564 2.48008 0.442033 0.509059 0.900872
O 2.0451 5.6783 2.70845 0.009598 -2.054099 1.406454
O 9.94525 1.50336 8.48037 -0.060421 0.319927 -0.397692
O 7.71781 8.32029 11.0841 0.646028 -0.966481 0.264586
O 11.731 2.06515 6.46405 0.883466 0.493977 -1.232267
O 1.96835 8.54492 11.2842 1.241975 -0.304265 -0.308578
O 0.23924 3.22869 3.83375 -0.705866 -0.34037 2.951432
O 6.46934 5.87305 7.14167 0.311485 0.199029 -0.764881
O 4.15894 2.46049 0.94949 0.377171 1.177177 0.629116
O 4.69374 3.31357 10.1812 -0.419527 0.358178 -0.428058
O 8.08198 2.49052 11.8737 -0.331404 -0.456917 0.579964
O 11.2941 4.08644 1.95951 0.087253 -1.647536 -2.344827
O 3.42118 0.48398 5.10168 -1.992007 -0.602637 -1.286981
O 7.45903 12.0189 2.58157 1.548168 0.385555 -0.011402
O 2.49987 3.39085 8.47981 0.677066 0.889975 0.639074
O 0.26642 11.1509 3.98342 0.655818 -0.282214 -0.051705
O 8.87528 11.2874 8.25314 -0.113274 -0.22275 -1.395099
O 6.56512 1.79136 6.14172 -0.265354 -0.716543 -1.129705
O 1.99418 11.6131 9.00009 0.871195 -0.086131 0.546534
O 6.32498 12.2758 8.07622 0.529628 0.6825 0.297279
O 6.70312 3.51604 8.43776 -0.399084 -0.04006 -0.604082
O 1.01092 4.56071 10.5726 0.509523 -0.350892 0.619272
O 8.54081 11.6921 5.5542 -0.410444 -0.708005 -0.363438
O 2.72542 9.72091 6.42588 1.541442 -0.507129 -0.134528
O 10.4609 8.2139 2.88281 -0.6965 -0.931714 0.214412
O 5.07602 8.39716 3.15078 0.21771 0.51453 -0.009249
O 6.27843 5.98295 1.9457 -1.032377 0.103562 -1.287682
O 9.35892 6.16241 1.701 -0.716791 -0.429027 -2.687243
O 0.70937 7.33611 4.19895 -1.245294 0.223755 -0.08626
O 4.78683 5.15023 12.21 -0.419647 -0.518429 -0.169
O 10.7839 5.24371 7.04817 0.548784 -1.048032 0.239526
O 10.4416 1.38735 11.4707 0.104128 0.376075 -0.671448
O 0.15106 2.59163 12.3423 -0.090713 1.049758 -0.133738
O 3.63843 5.11036 6.82267 -0.062881 -0.438926 -0.430861
O 9.0557 7.98845 5.10812 -0.050877 -0.71625 0.315221
O 11.2961 6.18433 9.65914 -0.358328 -0.643648 0.402931
O 9.67038 8.88968 9.19893 -0.566576 1.322768 0.031409
O 1.89443 1.10611 7.20101 1.387523 1.037269 -0.691412
O 11.3707 9.83433 1.1985 -0.282639 -0.050077 0.436772
O 0.23111 10.5234 6.96736 0.281649 0.432344 -0.123533
O 2.52546 6.1698 12.253 -0.237097 -0.619218 -0.383383
O 10.8306 0.44328 4.61056 -0.479799 -0.161938 -0.189071
O 2.14578 1.53881 3.09724 -1.638 -0.501746 0.519965
O 5.9619 1.02011 10.7876 -0.457781 -0.348517 -0.024453
O 11.1834 8.23882 7.18657 -0.20066 0.750656 -1.165001
O 1.88249 7.1413 6.98291 -1.03448 -4.075567 1.070823
O 1.55373 10.6332 0.73934 -0.113493 -0.537989 0.285998
O 3.91836 9.61176 9.72052 -0.179563 -0.947852 -0.585472
Na 2.32282 11.1911 3.01621 0.322942 0.944543 -0.458657
Cl 8.71105 5.22901 11.122 0.004875 0.616439 0.09636
188
energy=-1015.56736311 config_type=nep2xyz pbc="T T T" virial="-14.940488924685162 -1.4471608707364854 1.2579713147618072 -1.4471608707364854 -11.06464967237841 5.634595250332266 1.2579713147618072 5.634595250332266 -15.999917117552295" Lattice="12.4 0.0 0.0 0.0 12.4 0.0 0.0 0.0 12.4" volume=1906.6240000000003 Properties=species:S:1:pos:R:3:force:R:3
H 2.66944 11.8099 11.9041 -0.806314 -0.111525 -0.071821
H 2.38898 7.91648 4.09142 -0.108374 -0.088666 0.235408
H 0.03396 6.4592 3.76477 0.409102 -0.396574 -1.838677
H 2.29847 4.50005 0.94926 0.716751 -1.003229 2.032944
H 0.94632 0.82996 3.38353 -1.205432 -0.576154 1.143164
H 1.47809 4.98124 2.10845 -0.336057 -0.117827 1.125558
H 4.53759 2.65788 4.50924 -0.802584 -0.790434 1.251527
H 8.21691 3.1162 0.09871 1.17841 0.572473 -0.084537
H 2.74827 6.61671 3.29755 0.061037 0.477996 0.256195
H 9.31337 0.2178 0.98348 0.959338 -0.681333 -0.515153
H 7.98861 1.89877 1.79504 -0.156716 -0.608662 0.461406
H 5.96182 5.95494 0.51563 -0.004129 -0.22881 -0.354952
H 6.69714 3.14282 12.36874 -0.697743 0.525712 -0.014981
H 9.64101 1.80185 3.63934 0.95636 -0.134991 -0.241946
H 7.67324 0.99819 3.11348 -0.174689 -0.087444 -0.232251
H 11.2021 1.45009 4.04636 -0.764623 0.628705 -0.282833
H 6.85786 0.09619 5.12095 0.22288 -0.190945 0.006549
H 0.32655 7.08151 2.15933 -0.331123 -1.107123 1.368988
H 1.6821 8.04135 0.95764 0.297034 -0.312442 0.190361
H 0.56851 9.02254 1.12765 -1.0847 1.263007 -0.10867
H 10.748 3.58935 2.86706 0.41424 -0.093039 0.296608
H 1.61435 10.1113 6.4312 -0.082773 -0.431019 -0.310721
H 2.00871 11.5816 6.77163 0.470922 -0.266047 0.174242
H 7.20109 5.31299 3.65748 -0.315874 0.690238 0.025617
H 10.2326 3.89169 0.78997 0.315955 0.024388 0.377867
H 9.04573 6.66405 3.90262 0.317274 -0.469037 -0.045283
H 7.72806 6.3878 9.57902 -0.302632 -0.484546 0.086113
H 11.6218 4.9067 2.48301 -0.033408 0.339271 0.077924
H 1.48757 11.7769 10.7862 0.104798 0.227489 0.245828
H 9.1521 10.0641 2.89348 1.273559 -0.583054 0.887905
H 10.7077 10.0857 3.39649 0.28589 0.099419 0.402424
H 1.05448 0.49365 5.01424 -0.407221 0.281259 -0.702927
H 5.55093 9.71785 4.28402 0.570478 0.490451 0.256673
H 6.55084 6.78006 1.68592 -0.466727 0.072389 -0.980206
H 6.23954 6.51449 4.08702 0.341755 0.059281 0.279731
H 3.97467 10.3106 0.86467 -0.324131 1.406369 -1.629367
H 1.49789 1.33089 1.10688 -0.665461 0.432367 1.245732
H 1.55997 2.5525 2.13539 -0.533371 -0.50509 -0.488549
H 9.18617 10.5511 0.83006 -0.187945 -0.38887 0.848486
H 0.85882 9.45178 4.47554 -0.234655 1.217048 -1.307865
H 7.71164 10.3644 1.16761 1.221594 -0.574728 0.5076
H 5.35831 9.81105 2.8488 -0.276477 -0.027919 -1.073001
H 5.17453 1.36435 4.81523 2.075654 -2.311074 -0.705594
H 2.40895 6.98478 9.80763 0.203222 -0.007701 0.789962
H 1.90281 2.15875 8.9155 1.573423 -0.002176 1.249453
H 3.49919 7.48823 10.8619 0.509128 0.72374 -0.172625
H 0.48731 2.16336 8.40751 1.048336 -0.180685 -1.149492
H 9.8486 1.58197 5.7492 0.440713 0.213915 -0.664296
H 8.72212 0.88028 6.64934 1.011925 0.959742 0.040371
H 4.43001 6.19513 5.82045 0.08615 0.247607 0.113296
H 5.53518 0.11379 8.81993 0.172947 0.022978 -0.02996
H 6.19257 1.54185 9.77021 0.105287 0.287168 -0.070885
H 5.43852 2.29755 8.57191 0.258095 -0.145658 0.102857
H 9.25201 6.71686 6.1612 0.073919 -0.132994 0.127023
H 6.10446 12.0682 3.78193 0.629679 0.250494 0.776582
H 7.07651 11.7965 7.38945 -0.042415 -0.0881 0.325459
H 11.2706 6.01199 5.49818 -1.177674 0.339283 -0.065038
H 3.79971 8.30325 2.53596 0.8877 0.375627 -1.079119
H 1.76887 6.46019 7.6886 -0.733154 0.49817 0.728581
H 0.29606 5.60565 5.75194 0.439323 0.63986 -0.032125
H 2.16339 8.00116 8.02053 -0.561784 -0.650597 0.052615
H 4.19921 4.72885 5.2712 -0.307859 1.150101 1.038912
H 8.96705 3.19755 6.72039 -0.449878 -0.710339 -0.335295
H 9.74462 5.70851 0.35019 -0.211987 0.591412 0.467098
H 9.50129 6.87968 1.43068 0.136956 -0.300587 0.881047
H 8.08175 2.38064 9.93124 0.108859 -0.506185 -0.280745
H 0.44579 8.27239 5.25501 0.840067 -0.585824 -0.001447
H 9.05144 5.19201 5.93016 0.184588 -0.130225 0.504201
H 9.12657 8.07281 3.40395 0.256737 0.06051 -0.621469
H 10.2324 8.83891 8.69607 -0.923953 0.756717 -0.318956
H 11.6634 8.15868 10.0124 0.181086 -0.379436 0.326666
H 4.82456 8.37133 1.19138 0.314248 -1.016658 0.027279
H 1.79393 1.27608 7.00095 0.394316 -0.566236 -1.268777
H 2.95498 1.21534 5.87294 -0.840976 -0.96067 0.076363
H 0.0057 11.6287 3.94055 0.256451 -1.304993 -1.022208
H 4.72779 8.98253 7.53688 0.173815 -0.129874 -0.776312
H 7.50747 3.90603 6.77243 1.068959 -0.46825 0.196983
H 5.33515 2.62267 6.41342 0.680929 0.440212 0.385824
H 5.41608 4.07846 6.92509 -0.083327 0.028676 0.173776
H 7.85135 9.1436 5.65993 -1.110141 -0.603498 0.009104
H 5.39088 10.9479 8.62888 0.6148 0.642217 -0.197182
H 9.14751 9.74923 5.12802 0.802603 0.156985 -0.919225
H 8.14687 11.0739 6.37348 -0.513113 0.659692 0.46487
H 0.05694 10.7932 2.49213 -0.146425 -0.311879 1.605434
H 3.63305 4.18462 3.1473 -0.747846 -0.200486 -0.199107
H 3.83926 1.88051 9.95155 -0.227437 0.283256 0.176962
H 5.06254 4.5747 3.50819 0.787999 0.467544 0.068773
H 2.70307 3.8281 11.3323 0.478274 0.145895 -0.190866
H 2.59849 1.28422 10.726 -0.109382 0.234132 0.105621
H 11.8502 5.06017 10.3365 0.055468 0.261468 0.059857
H 9.47658 12.0029 11.8943 0.035814 -0.063782 -0.637374
H 8.6643 0.26748 10.1919 -0.056112 -0.395112 -0.002707
H 9.04576 11.1681 9.92011 -0.351155 -1.992206 -1.630999
H 12.0316 3.63651 9.68181 0.34739 -0.279495 -0.227237
H 3.00017 5.42906 11.2843 -0.228997 -0.008695 -0.038685
H 8.88477 3.964 8.46437 -0.371773 -0.45346 1.457445
H 9.86721 3.61843 9.69635 -0.690219 0.193839 -0.238377
H 2.61052 4.91458 6.77061 0.743666 0.217484 -0.455918
H 7.28472 7.15897 7.45995 0.248368 -0.076834 0.541322
H 1.47837 4.08683 7.42657 0.015381 -0.27722 0.341817
H 6.23318 4.88003 11.19 -0.106649 0.398123 -0.480029
H 8.52281 7.67033 8.31211 -0.360083 0.052356 -0.244382
H 8.28631 5.23373 10.4805 -0.080224 -0.053766 -0.262391
H 9.16755 9.50177 7.61386 0.032719 -0.233887 -0.042503
H 7.80726 1.59835 11.211 -0.481734 0.29298 0.768988
H 10.3187 3.79548 11.6324 0.877946 -0.149411 -0.752877
H 0.87154 10.9581 8.46741 0.783681 0.369066 -0.344964
H 12.3246 10.5433 9.53135 1.176476 1.46983 0.01432
H 5.46003 8.94238 10.8488 0.091222 0.003288 -0.568057
H 4.40647 9.14791 9.61595 0.226045 0.227135 1.962505
H 11.2807 0.63889 9.40562 0.350618 1.174679 -0.731952
H 5.73625 11.319 12.3144 1.140542 -0.357683 0.432524
H 4.01366 10.239 11.7428 0.153199 -0.990418 -1.601188
H 3.36048 9.89716 7.59037 0.877633 0.13988 0.342075
H 4.80803 4.41345 11.8636 -0.704483 0.123403 -0.575425
H 7.97046 9.29671 9.75346 0.343227 0.689452 -0.499905
H 6.83781 12.3218 0.12072 0.591176 0.390553 0.167548
H 11.3571 7.05438 11.9181 0.088235 -0.075351 0.098253
H 7.17163 10.1858 10.9183 0.709856 0.050925 -0.625726
H 10.4295 1.40444 8.3802 -0.010158 0.314599 -0.685432
H 11.4721 11.2453 0.55013 -0.088063 -0.111429 -0.038644
H 0.0631 8.03636 8.6547 -1.707162 1.178552 1.004597
H 0.47668 7.25695 11.5651 -0.010606 -0.038484 0.147828
H 0.5841 11.1547 0.11083 -0.525926 -0.099139 0.36939
O 0.43123 0.43786 4.20977 1.397757 2.045927 -0.218215
O 0.23013 6.24918 2.76118 0.08278 0.295804 1.085476
O 3.14898 7.41148 3.70566 0.10545 -0.406602 -0.786316
O 7.43146 2.58412 0.26221 -0.201547 -1.291086 0.43775
O 2.17265 4.29502 1.98227 0.01199 1.157888 -2.731623
O 8.32516 1.18724 2.40045 0.387307 0.561301 -0.219573
O 10.4824 2.14359 4.04761 -0.115434 -0.667218 0.216065
O 0.78585 8.11009 1.30601 1.045463 0.086208 -0.971879
O 1.95846 10.652 7.15696 -0.134238 0.248043 -0.431351
O 8.49938 4.06393 6.81896 -1.042014 0.327509 0.237446
O 9.7052 3.83184 12.3546 -0.868668 0.404076 0.639404
O 1.77262 12.1909 11.6448 0.489696 -0.053086 -0.339695
O 9.80669 9.79438 3.66368 -1.621078 0.32859 -0.926388
O 5.824 10.2955 3.53911 -0.156611 -0.209611 0.891873
O 6.21095 6.86936 0.74767 0.417588 0.42175 1.505498
O 6.3919 5.80858 3.43391 -0.223228 -0.786877 -0.253284
O 3.92464 10.9238 12.3997 0.550554 -0.456389 3.319165
O 1.10109 1.68443 1.95381 1.227376 -0.008983 -0.746669
O 8.60891 9.95494 1.40028 -1.207349 0.86311 -1.292531
O 1.26779 8.72318 4.9526 -0.81437 -0.277591 1.183274
O 2.7611 6.88314 10.7406 -0.965035 -0.408912 -0.620719
O 1.44886 2.34319 8.09067 -3.019624 0.028824 -0.191227
O 4.50006 1.8824 5.19754 -1.630863 2.779058 -0.166301
O 9.42953 1.64385 6.61242 -1.322786 -1.226857 0.888921
O 5.32389 1.63255 9.29163 -0.618274 0.523161 -0.15708
O 9.58742 5.97534 5.63678 -0.161504 0.639198 -0.723622
O 6.53081 0.4408 4.26149 -0.628342 -0.440228 -0.533134
O 1.55227 7.27014 8.2748 1.147365 0.283395 -0.541854
O 4.15789 5.31287 6.11856 0.190948 -1.30448 -0.876599
O 9.7339 6.68371 0.51041 0.313093 -0.288949 -1.344676
O 8.93563 7.16545 3.07683 -0.147822 0.518243 0.463444
O 12.1725 6.34584 5.37754 0.825237 -0.60094 0.209735
O 9.26026 9.18176 8.53578 0.949576 -0.462963 0.549368
O 4.29861 8.884 1.80692 -1.268235 0.29519 1.053203
O 2.12268 0.71447 6.17308 0.583711 1.435772 1.183881
O 4.22991 9.63578 8.04446 -0.876722 -0.067802 0.577689
O 5.8711 3.21919 7.04964 -0.773816 -0.181117 -0.46518
O 8.64579 9.58326 5.95075 0.463673 0.437766 0.813531
O 7.75909 11.9549 6.69258 0.332838 -0.151457 -0.878586
O 12.3239 10.6476 3.4906 -0.077473 -0.006949 -1.320607
O 4.31322 4.04849 3.83261 -0.041952 0.003224 -0.509366
O 2.91336 2.09868 10.2735 0.030378 -0.532261 0.112911
O 3.13162 4.57867 11.7921 -0.434362 -0.484734 0.339219
O 6.0527 11.6842 8.70615 -0.602263 -1.213618 -0.122663
O 9.91046 12.0959 0.36601 -0.345003 0.710296 2.410443
O 9.18245 11.8689 10.504 0.344415 1.909069 0.103521
O 11.4925 4.16304 10.2661 -0.304631 0.12771 0.291156
O 10.9305 4.27382 2.20378 -0.578115 -0.403093 -0.404612
O 8.90673 3.66247 9.4565 0.705852 0.505107 -1.245237
O 7.68024 5.9945 10.5031 -0.03909 -0.207688 0.097968
O 1.69238 4.9652 7.07393 -0.584002 0.10048 -0.130593
O 7.7068 1.49095 10.2535 0.389622 0.700036 -0.628373
O 7.93088 6.88596 8.15888 0.032412 0.437622 -0.813874
O 11.7025 8.58739 9.13607 1.623811 -0.712748 -1.51612
O 0.57959 11.3059 9.32763 -2.009393 -1.88366 0.815259
O 4.5116 9.05927 10.6651 -0.351171 -0.414572 -1.762739
O 6.74728 11.3665 0.06088 -2.298583 -0.039175 -0.587613
O 5.77394 4.46854 11.9345 0.729047 -0.258648 0.873673
O 7.35168 9.32148 10.4948 -0.975739 -0.603118 1.313599
O 11.2738 1.47111 8.84941 0.081554 -1.155025 1.233795
O 12.0188 7.02173 11.1904 -0.393011 -0.319788 0.075785
O 12.259 10.6532 0.57746 0.731815 0.365397 -0.109889
Na 7.93452 7.61952 11.8896 0.145339 0.27795 0.40005
Cl 5.92987 8.02719 5.8772 -0.042673 -0.212885 0.005889
188
energy=-1016.12405359 config_type=nep2xyz pbc="T T T" virial="-12.933494523235836 -0.12335758820188152 5.761987010095062 -0.12335758820188152 -12.128683246938978 0.10852992517857991 5.761987010095062 0.10852992517857991 -23.47058403738872" Lattice="12.4 0.0 0.0 0.0 12.4 0.0 0.0 0.0 12.4" volume=1906.6240000000003 Properties=species:S:1:pos:R:3:force:R:3
H 0.99989 1.57917 1.96969 0.003591 -0.357043 0.164863
H 1.38834 0.68967 0.71032 0.048337 0.186174 0.487869
H 1.53907 4.19803 1.1751 0.747171 0.714583 0.502211
H 2.11222 5.09364 0.10649 0.635746 0.307271 1.000945
H 11.9875 1.05492 3.58967 -0.128892 -0.549854 -0.559109
H 2.48298 0.19163 2.54988 -0.214609 0.515003 0.523652
H 5.42787 1.26839 3.81687 -0.344837 0.034564 -0.125205
H 5.39278 3.71918 3.08545 -0.253884 -0.019828 -0.131765
H 5.5577 3.60452 4.6633 -0.409226 -0.401512 -0.333865
H 7.39416 2.87116 3.24555 0.375805 -0.408193 -0.116447
H 4.2202 0.23432 3.80299 -0.250928 -0.082064 -0.005059
H 8.64272 3.67975 3.21247 1.152051 1.292759 0.377497
H 0.0107 2.50984 3.47363 -0.274094 -0.042324 -0.678789
H 11.1743 11.5701 5.05659 0.265283 0.438628 -0.214565
H 7.69581 11.3067 1.30031 2.218707 0.622712 -0.071248
H 8.41297 0.22651 0.9036 0.444847 1.102969 0.090464
H 9.20985 2.09248 0.1345 -0.217659 0.26552 -0.23024
H 1.98076 7.95017 1.92634 0.541911 0.54644 0.530939
H 3.52925 8.11902 2.51032 -0.1128 -0.291947 -0.120348
H 0.83418 6.44171 1.46679 0.810048 -0.732397 -0.22497
H 7.02163 2.6118 12.3323 -0.15644 0.103224 0.108168
H 10.2402 5.50784 3.74247 -0.641715 -0.095007 -0.221479
H 5.29525 6.26561 2.78458 0.285271 -1.452327 -0.99485
H 8.69995 6.50364 2.12724 -0.022981 -0.539062 -0.03404
H 8.21575 7.8904 1.79055 -0.081136 -0.949741 -0.537726
H 5.66558 7.78164 2.99537 0.909554 0.070397 0.108648
H 8.92814 5.6182 4.57043 0.525715 -0.347717 -0.501627
H 3.94916 4.60447 1.48442 -1.192455 -0.037129 -0.566306
H 12.2545 7.632 1.16581 1.139758 0.09564 0.525223
H 10.3085 7.56394 0.87718 0.128546 0.364343 -0.420869
H 2.22849 11.3359 3.4098 -0.113806 -0.328389 0.644532
H 2.71265 9.2118 0.59189 -0.013683 1.55495 -0.903325
H 2.05761 9.46182 3.38174 -0.440846 -0.027605 0.651359
H 0.73448 9.78684 4.29296 0.151668 -0.375858 -0.390036
H 4.13299 10.7419 12.0057 0.259292 0.717906 0.164793
H 5.78768 11.7064 2.5119 -0.168255 0.795845 1.515563
H 6.66177 9.65108 2.69874 0.551965 -1.073685 0.169517
H 5.60853 11.1828 1.12828 0.308388 -0.79193 0.349782
H 4.26936 12.32421 11.9834 0.777613 -0.624944 0.023582
H 7.1263 8.93179 4.03519 0.428375 -0.167564 -1.094713
H 10.2952 10.9508 1.33924 -0.32297 -0.382983 0.145143
H 11.1408 9.54514 1.18025 -0.625411 0.41735 -0.072433
H 11.3143 9.85287 3.2165 -0.480891 0.370328 -0.86767
H 3.73026 3.43706 5.84767 0.265976 -0.168191 -0.039177
H 0.46903 0.40181 8.42447 0.75902 -0.124935 0.631461
H 4.94791 3.72814 6.8433 -0.520207 0.316287 -0.895672
H 2.13288 2.65988 6.68581 0.125771 -0.210294 -0.545164
H 9.02567 4.97437 6.46308 0.260156 -1.301609 0.501654
H 8.5409 0.58179 5.76731 0.327646 0.272327 -0.160912
H 8.91735 1.37154 4.50195 0.096449 0.5284 -0.14437
H 12.3162 1.50224 7.41506 -0.104518 -0.365957 0.324338
H 12.1784 3.80779 7.6743 -0.114757 -0.906506 -1.034025
H 10.7186 0.63195 5.19059 -0.823166 0.33963 0.40949
H 8.93859 2.65869 6.52449 0.426504 0.48327 0.250245
H 8.5997 2.35116 1.61803 -0.252447 -0.3473 -0.205656
H 12.3246 3.6338 5.33422 0.40691 0.464518 -0.90701
H 0.0815 4.73733 4.15578 -0.304156 0.331398 -0.07909
H 11.9432 6.5922 4.68208 0.057223 0.492721 -0.009834
H 4.64542 6.86857 4.8762 0.211016 -0.326063 1.053778
H 8.21085 6.33194 6.60609 2.369847 -0.778039 -0.681583
H 4.40408 5.72059 5.94711 -0.06244 -0.284746 -0.092177
H 6.58762 7.25112 8.2207 1.089718 0.078677 -0.62635
H 6.84994 6.65356 12.3757 0.523453 0.009201 0.184142
H 10.9702 3.0979 6.9727 0.939504 0.092268 0.135023
H 12.2396 6.66213 3.09548 1.036392 1.305847 -0.898105
H 10.7225 6.65363 6.56499 -0.669895 0.059552 -0.007161
H 5.37881 7.01723 0.0432 0.161763 -0.157642 -0.456423
H 11.7149 7.85479 7.06364 -0.398146 -1.540344 -0.864899
H 3.47618 7.99831 6.09743 0.051485 1.070525 0.476311
H 3.6135 11.2433 6.42991 0.892092 -1.102776 -0.124185
H 2.46243 9.64518 7.74915 -0.1133 0.420481 0.357063
H 2.59262 9.11608 5.44436 -0.293414 0.457616 -0.278593
H 4.07333 0.18915 7.17288 -0.309881 -0.811442 -0.187515
H 6.25522 12.1143 5.32849 -0.356245 0.19416 -0.186077
H 6.42777 0.072 6.88216 -0.113387 -0.501979 -0.440566
H 7.31797 8.85698 6.37235 0.034454 -0.14048 0.238866
H 7.24929 10.4036 6.02101 -0.279203 0.32794 0.204983
H 9.18901 10.2458 6.76914 -1.086477 -0.672653 -0.576428
H 9.76388 11.5553 7.44208 0.244403 -1.654833 -0.187847
H 10.8534 8.80867 4.34678 1.10394 1.003108 -0.528449
H 11.1475 9.81397 8.03209 0.444178 -0.165336 -0.066993
H 1.87545 2.99031 5.14393 0.254213 -0.458253 0.734126
H 10.7743 2.45175 11.0681 1.728778 0.033455 0.077219
H 0.36474 5.67487 9.52055 -0.116412 -0.058308 -0.681297
H 6.09117 3.90354 8.86111 1.63029 1.035399 0.24002
H 12.11789 6.04982 8.07004 0.335696 0.266459 -0.086009
H 5.75505 1.58461 8.46726 -0.435017 -0.944222 -0.744509
H 4.70653 3.39267 8.95082 -0.726363 -0.410699 -0.218004
H 5.46932 4.3989 0.99533 -1.10729 0.001211 0.68738
H 3.26717 1.95754 11.0885 -0.361375 0.278091 -0.569788
H 8.40946 3.38435 7.79702 0.827285 0.24732 -0.068977
H 2.93311 1.86814 0.23253 0.207613 0.041457 -0.083589
H 0.97293 2.39572 10.5598 -0.029386 0.155769 0.35716
H 9.84263 3.54115 10.4943 -0.110242 -0.649222 0.386012
H 9.96631 1.16584 9.63793 -0.354683 1.885042 1.259802
H 0.48525 2.38175 12.128 0.155172 -0.238795 -1.468919
H 2.85335 6.18039 10.3106 -0.19734 -0.625709 0.573721
H 2.6312 4.61935 10.031 0.013454 -0.83925 -0.821319
H 6.04265 6.86301 6.91334 -0.009982 -0.020379 -1.110396
H 5.50126 2.62717 11.8553 -0.368683 -0.245534 0.192283
H 7.08913 4.33822 10.4765 -0.256353 -0.39738 0.785898
H 8.13009 5.29618 9.83047 -0.230493 -0.552406 -0.569143
H 6.18075 7.88671 10.5083 -1.117498 -0.664652 -1.637854
H 4.05412 7.94077 9.85837 0.970614 0.602726 0.190186
H 10.5931 5.78284 9.46439 -1.010385 0.524928 0.6718
H 10.809 8.3246 11.96 0.096128 -0.358932 -0.443628
H 9.76872 6.98775 10.1956 0.268948 -0.299937 -0.236922
H 9.80476 9.51788 10.7774 -0.399392 -0.055842 -0.531793
H 10.8798 8.85953 9.82398 -0.089902 -0.184174 0.128989
H 1.98581 10.5186 12.2302 -0.042299 -0.288358 0.11566
H 3.08626 8.79366 10.871 0.25961 0.786952 0.828102
H 2.29312 9.03373 9.13166 0.120831 0.681267 0.279456
H 2.21121 0.63932 9.5441 -0.80594 -1.235409 -0.244847
H 0.57894 11.9317 11.2499 0.112311 0.026266 0.029127
H 5.98354 0.03178 8.85411 -0.568883 0.308378 -0.973635
H 6.00474 8.93614 9.35771 -0.35748 -0.801272 0.02762
H 5.89863 11.1308 10.5526 0.961923 -0.111281 -0.697359
H 7.43221 11.086 10.1511 1.474899 -0.161914 0.719032
H 12.2987 11.2975 0.19855 0.182828 0.235204 -0.056466
H 1.88364 11.4113 9.24115 0.010073 1.035886 0.240317
H 0.29753 9.47095 8.3801 1.551809 0.866924 0.031967
H 10.791 0.41601 8.61976 -0.40668 -0.024703 -0.072938
H 9.43032 11.5711 10.1822 -0.316833 -0.88283 0.148091
H 8.94154 11.2685 11.6262 -0.198419 0.012188 1.034247
O 1.76878 1.35896 1.34351 -0.238746 -0.229618 -0.947603
O 2.106 5.01071 1.12142 -1.242906 -1.185556 -1.885966
O 12.2019 1.71708 2.89523 0.186605 0.834257 0.858841
O 2.51911 12.2619 3.47834 0.398626 0.519166 -0.834858
O 5.71707 3.13424 3.80277 0.729021 -0.10751 0.035296
O 5.19443 0.31645 3.7677 0.700248 0.245322 0.242838
O 8.36914 2.78242 3.02401 -1.468259 -0.674197 0.685241
O 8.47607 1.88004 0.73217 -0.110116 0.016354 -0.363749
O 8.64506 11.7005 1.08853 -2.358725 -1.880235 -0.024863
O 0.67867 7.34202 1.76367 -1.633345 -0.067484 -0.592176
O 9.27655 5.26476 3.69621 -0.117099 0.495415 -0.00519
O 5.01893 7.07588 3.17308 -1.405285 1.447691 0.92327
O 8.47902 7.03309 1.33506 0.189373 1.278023 0.843006
O 6.26634 3.18086 12.0459 0.535463 0.47673 -0.037467
O 11.0831 8.06021 0.49441 -1.013357 -0.423851 0.380719
O 2.75271 8.59771 2.15927 -0.077707 -0.11423 -0.368563
O 2.70775 9.84595 12.171 0.311321 -1.035426 0.874017
O 7.07509 8.77556 3.04281 -0.765686 1.392427 0.927242
O 6.05983 10.9401 2.00103 -0.174006 0.107374 -2.165377
O 4.8211 11.4879 12.007 -1.029802 0.123604 -0.106827
O 11.0956 10.446 1.58879 0.758584 0.330342 -0.033511
O 11.5791 9.41659 4.0358 -1.010632 -1.095699 1.448484
O 2.41099 2.41682 5.76734 -0.895208 0.745361 -0.164974
O 4.54347 3.98993 5.95065 0.610205 0.039786 1.306044
O 12.2736 0.54891 7.67507 -0.681345 0.309717 -0.847015
O 9.12964 5.88556 6.19979 -2.834024 2.68969 0.809529
O 9.21355 1.22479 5.41971 -1.271773 -0.33712 0.375549
O 11.4451 0.09315 4.86946 1.287284 -1.249729 -0.21333
O 11.9741 3.1296 6.94136 -1.010642 1.230344 1.121424
O 9.1533 3.40909 7.14882 -1.174441 -1.047915 -0.149584
O 0.31629 3.83013 4.42061 0.157253 -1.044035 1.287724
O 4.54473 6.68716 5.86935 0.001894 0.399309 -1.075026
O 6.92102 7.10746 7.26894 -0.910772 0.093658 1.229458
O 6.09023 6.8237 11.8037 -0.326634 0.1801 0.787365
O 11.7597 6.23726 3.79244 -0.890651 -1.36406 1.475708
O 11.6395 6.98078 6.52416 0.844043 1.474604 1.038447
O 1.70354 9.94742 4.19818 0.332665 -0.249681 -0.360468
O 3.33238 12.0803 6.76209 -0.416456 1.471334 0.45549
O 3.18269 8.95943 6.19869 0.246328 -1.029 0.334405
O 6.7838 11.9134 6.11812 0.372851 0.852381 0.232431
O 7.75406 9.57629 5.88659 0.336588 -0.781794 -0.398299
O 5.58997 0.64061 8.13907 1.064162 0.428308 1.652016
O 9.95507 10.5958 7.22151 0.768824 2.213118 0.713341
O 11.7995 9.18467 8.45837 -2.021747 -0.771374 -0.270136
O 9.86343 2.63595 10.8787 -1.140392 0.639306 -0.598409
O 12.1738 5.39323 8.79379 -0.090595 -0.38275 0.35311
O 5.50274 3.30885 8.4062 -0.866825 -0.586317 -0.177231
O 4.85854 4.6916 1.7421 2.514826 -0.090765 -0.291776
O 3.65724 1.89739 11.9608 0.524098 -0.464907 0.547181
O 0.21831 2.28761 11.1756 -0.33885 0.121007 1.190523
O 9.87901 0.45023 9.03937 0.75816 -1.797936 -1.180231
O 2.64113 5.29266 10.701 -0.18725 1.729097 0.813725
O 3.192 8.05036 10.2769 -1.3706 -1.684909 -0.971663
O 7.43896 4.60159 9.62337 0.757496 0.663108 -0.091639
O 5.75986 7.98914 9.56439 1.553478 1.601021 1.130498
O 9.75311 6.03163 9.96199 0.427949 -0.428692 -0.32472
O 10.2032 8.64329 10.5212 0.777605 -0.136832 0.415795
O 1.53555 12.2986 9.59518 0.739713 -0.179681 0.130138
O 2.09097 9.88333 8.64891 0.057022 -1.248665 -0.944776
O 0.69475 11.7086 12.1949 -0.037927 -0.238918 0.252942
O 6.55947 10.9723 9.80473 -3.095135 0.246475 -0.087878
O 9.01659 10.8394 10.7627 0.67466 1.714565 -0.850671
Na 1.56374 0.17004 5.5609 -0.281061 0.154234 -0.029508
Cl 2.49153 2.72349 9.04304 0.058121 0.025903 -0.110297
188
energy=-1016.92900464 config_type=nep2xyz pbc="T T T" virial="-2.72224468905167 0.510542856360903 -0.6931515956005202 0.510542856360903 -12.461889157574968 7.096333879659076 -0.6931515956005202 7.096333879659076 -2.51391959363761" Lattice="12.4 0.0 0.0 0.0 12.4 0.0 0.0 0.0 12.4" volume=1906.6240000000003 Properties=species:S:1:pos:R:3:force:R:3
H 4.22058 0.06928 5.17141 0.555125 -0.837078 1.112331
H 3.47098 1.51678 5.2921 0.004807 0.277128 0.26239
H 8.10975 10.7846 1.29039 -0.667376 -0.479097 0.150808
H 6.9375 1.46755 12.3884 -0.666634 0.053584 0.760181
H 2.48159 12.3396 4.1946 0.014031 0.496432 0.018914
H 5.76504 6.77297 6.32071 -0.272729 -0.045635 0.619036
H 1.59074 11.1668 4.48616 -0.131982 -0.504335 0.356899
H 10.6186 7.67925 7.24971 -0.023118 0.438635 -0.260512
H 6.88914 0.90809 10.8312 0.680648 0.008517 1.368162
H 5.48151 6.79979 4.83582 -0.062804 0.062138 -0.883953
H 9.64968 12.2508 1.08494 0.454377 0.314082 0.445916
H 6.40634 8.40413 11.0938 -0.034015 0.211438 -0.075707
H 3.37012 8.2991 9.84765 0.590167 0.197744 -0.332982
H 4.95598 8.59728 9.48672 0.278076 0.038728 0.555796
H 0.61752 2.886 2.60242 0.262523 0.327454 -0.296259
H 1.84116 3.86051 2.60323 1.132281 0.137075 0.422517
H 2.60462 10.0809 0.47777 0.583381 -0.455466 -0.141305
H 9.50852 8.31927 6.31107 0.398868 -0.113608 0.666038
H 2.15268 6.79018 4.984 -0.306774 0.296071 -0.361569
H 10.1888 10.9847 9.89184 -0.761482 0.460722 -0.132011
H 8.65193 11.2875 9.3065 1.494408 0.197699 0.070845
H 7.01154 10.238 5.3636 0.070589 -1.335646 0.288584
H 6.4594 8.6761 5.93721 0.461481 0.615751 -0.764955
H 7.18008 7.56356 9.90516 -0.24593 0.635343 0.235044
H 4.1082 7.44408 8.17911 0.309846 0.226524 -0.252072
H 3.6737 6.84663 3.71619 -0.895011 0.651331 0.09517
H 4.38641 5.49358 3.64403 -0.648408 -1.873038 -0.120173
H 3.3267 3.60695 4.17604 0.092628 0.156092 0.204584
H 8.0588 9.30687 1.7087 0.498983 -1.035051 0.147926
H 3.98842 3.19739 2.82158 -1.074389 1.027955 0.431367
H 1.22739 12.38051 10.6665 -1.107403 0.254366 0.681497
H 6.23517 9.3206 0.7612 -0.221357 0.019648 -0.004199
H 5.73031 7.86238 0.44975 0.09893 -1.362917 0.485684
H 8.98345 7.14291 2.2501 -0.108519 0.557269 -0.663785
H 8.90373 0.8306 3.1326 1.53353 -0.441621 -0.115527
H 9.50937 7.90655 0.95848 -0.385736 -0.210887 0.188153
H 10.3863 9.06526 2.75836 -0.195093 0.050471 -0.01179
H 11.9174 9.35871 2.76578 -1.149422 0.262901 0.414656
H 1.0597 7.822 2.94101 0.482316 0.159545 -0.449228
H 7.68572 12.0176 4.00122 0.163907 -0.821 -0.118669
H 7.77896 10.5002 3.40452 -0.320171 0.179242 -1.04307
H 1.43096 10.9072 8.18979 1.432667 0.88785 0.552849
H 7.75383 1.41984 7.92931 -0.208701 1.009909 -0.257506
H 6.43417 2.19899 7.97532 0.277162 0.467905 -0.401671
H 8.67204 7.08432 8.46133 -0.05923 -0.160787 0.734195
H 10.7011 11.2129 6.54033 0.135138 -0.001963 0.000539
H 8.76959 5.53022 3.64885 -0.015947 -0.150495 -0.483326
H 8.37174 4.32631 5.30105 0.120651 -2.351194 0.080032
H 9.91066 5.26227 2.57654 0.172524 0.178416 -0.048798
H 7.88326 3.00083 6.14166 0.154223 -0.134139 0.011776
H 10.0154 0.93484 10.0474 -0.204911 -0.751064 -0.206331
H 11.3728 1.13858 10.7575 -0.337728 -0.176754 0.069768
H 2.27331 3.41527 6.19796 0.696873 -0.388321 0.058218
H 10.4976 12.0674 7.85883 0.49817 -0.558961 -0.213275
H 7.11539 1.82924 2.23213 0.049154 0.063358 0.09529
H 6.12662 11.991 9.16099 0.353526 0.430978 0.573704
H 3.75184 2.98349 6.60026 -0.330824 0.575776 -0.385883
H 3.52172 6.46951 7.15914 -1.677041 -0.512527 -0.732733
H 8.51571 5.77702 9.32549 -0.450219 -0.270551 0.268916
H 9.17502 6.29387 5.64536 -0.127384 0.305014 0.501917
H 0.6697 3.39248 8.27751 -0.163659 0.057068 0.923417
H 0.17129 2.92289 6.91556 -0.086443 0.466119 -0.161552
H 1.59641 3.27512 0.24529 0.330409 -0.129366 -0.473369
H 12.2903 4.92297 2.04067 -1.152392 0.374079 -0.053938
H 11.9647 6.41873 1.92455 0.387932 1.522954 -0.053654
H 3.24697 10.2948 8.79454 0.926181 0.432173 -0.180325
H 7.60766 6.26031 5.27164 -0.767847 0.59462 0.290304
H 3.42506 11.932 8.67987 -0.322369 -0.230945 0.71409
H 2.23787 2.50966 11.3119 -0.060036 0.670704 0.615042
H 3.17256 10.2436 5.71822 -1.676903 0.182521 0.423531
H 11.5376 4.21634 11.6903 -1.266801 0.083644 0.705197
H 10.9913 5.03218 0.538 -0.572323 -1.348537 -0.958033
H 7.77288 3.42527 8.96861 -0.430612 0.770002 0.310349
H 4.70727 5.46856 8.65583 0.604947 -0.231016 0.80225
H 11.8746 1.87186 4.31122 -0.65228 0.772939 2.337092
H 6.83524 4.55002 9.55744 -1.496946 0.306664 -0.250168
H 0.61787 0.83524 3.81147 -0.32324 0.227983 0.118121
H 4.7548 5.02845 10.1729 -1.556635 0.767826 2.477523
H 10.5394 10.5517 11.9971 -0.406096 0.415165 0.153654
H 1.58036 10.2133 6.41606 0.285505 -0.006905 0.455594
H 10.163 2.64575 5.57047 -0.520634 -0.106521 0.493302
H 10.8936 1.40956 6.30997 -0.308683 -0.377585 0.002385
H 12.3339 10.9382 7.80727 -1.227559 1.080666 -0.498548
H 5.11186 0.66902 9.73138 -0.496376 0.061204 0.357402
H 3.04501 4.73145 11.5286 0.127312 0.067648 0.327479
H 4.19631 5.71562 12.1574 -0.292731 -0.122167 -0.462954
H 1.69281 12.061 2.11735 -0.50083 0.886101 -1.101931
H 1.33793 0.37941 0.56198 -0.477422 -0.77874 0.539558
H 4.79567 3.52668 8.60896 -0.29353 -0.115917 0.784987
H 6.36843 5.58258 0.58815 0.865477 -0.308782 -0.186663
H 2.42482 8.25769 11.5298 -0.339105 0.305243 0.309594
H 5.2454 6.09265 1.50986 -0.026561 0.294721 0.238836
H 5.55645 1.79441 1.92603 0.708767 0.292007 -1.005513
H 2.37757 6.80608 10.9728 0.629363 0.399923 0.066683
H 4.29222 1.95137 8.43979 -0.358169 0.476904 0.718486
H 8.7097 0.0111 12.1976 0.45399 -0.731478 0.690242
H 3.93383 9.10256 0.4035 -0.907902 0.345448 -0.038489
H 0.6031 6.84305 10.4396 0.938859 0.734947 0.391743
H 12.2127 5.5933 10.0098 0.105814 -2.863188 -0.40488
H 4.01116 11.0828 6.9982 0.380676 -0.514409 1.113222
H 1.95873 8.30354 5.0006 0.628036 0.026815 -0.962622
H 12.1936 7.42212 8.54943 0.139356 0.486217 -0.141771
H 0.20185 8.9304 8.12474 -0.104198 -0.815327 -0.633148
H 5.2776 10.3519 6.06633 -0.211622 0.112771 0.964825
H 9.40822 7.52324 10.7243 -0.332903 -0.119357 0.091729
H 10.7068 11.5324 2.93665 0.08589 -0.31821 0.074865
H 10.7944 6.99862 11.0249 -0.406099 0.323038 0.619484
H 8.27515 4.71531 1.37648 -0.286 0.23581 0.430333
H 7.03569 3.77246 1.00664 1.047123 0.596653 -0.211793
H 11.2067 0.68564 3.2184 -1.232219 -1.338637 -1.221114
H 1.31275 5.34929 7.11264 -0.36429 -1.134009 0.085097
H 1.00871 6.84312 6.98133 -0.316503 0.737448 0.341824
H 4.12051 1.02943 3.10569 0.034991 0.158783 -0.26476
H 0.57331 3.45452 10.5549 -0.249315 0.1557 -0.710849
H 11.5657 3.02389 10.0484 -0.732053 -0.679246 -0.217484
H 3.32675 1.12861 1.78856 -0.631161 -0.4369 -0.754167
H 11.1219 9.21659 11.4316 -0.268878 0.318766 -0.149642
H 8.3606 1.93398 4.18079 -0.206491 -0.160284 -0.410569
H 9.39963 10.8135 5.06259 -0.182114 -0.702705 0.070875
H 10.6733 10.0532 4.77093 1.05 -0.571626 -1.345676
H 12.3853 11.4816 11.1896 0.263125 0.908226 0.089611
H 7.19076 9.77395 9.40057 -0.537847 1.005722 -0.544843
H 7.06395 10.2966 7.89258 0.208858 0.39494 1.042537
H 1.35995 8.3439 1.46613 0.908286 0.145349 -0.271202
O 3.68532 0.7381 4.75049 -0.037452 0.569575 -1.15769
O 4.02975 8.70836 9.20203 -1.104742 -0.243036 0.083793
O 7.52512 10.1073 1.76026 -0.018837 1.531828 -0.675457
O 1.61993 11.9582 3.90445 -0.490205 0.083473 -0.783048
O 9.69137 7.56855 6.92496 -0.32464 0.017148 -0.482619
O 6.2021 6.97737 5.48063 0.246231 0.179607 0.476213
O 11.0384 9.67987 3.14985 1.477937 -0.421408 -0.921074
O 7.45493 1.06176 11.6842 0.365155 -0.054025 -1.9498
O 1.03878 3.65206 2.12094 -1.558787 -0.418219 -0.553684
O 4.34823 6.71177 7.54316 1.363665 0.029925 0.853343
O 2.91474 9.16145 0.34443 0.522576 0.324988 0.424414
O 9.60367 11.6546 9.44682 -0.822243 -0.438811 -0.173581
O 6.65188 9.63199 6.11283 0.062362 0.724869 0.231392
O 6.64338 8.38652 10.1428 -0.029949 -0.362615 -0.273785
O 4.51436 6.42121 3.55245 1.567326 1.298063 -0.326936
O 3.44756 3.94064 3.25583 1.126526 -1.292878 -0.484437
O 5.58295 8.78388 0.24391 0.02913 1.571328 -0.267175
O 8.12759 1.23031 3.51659 -1.431664 0.729673 0.642107
O 0.37532 0.0087 11.1987 0.727148 -0.935563 -0.609123
O 9.0316 8.04833 1.81091 0.964482 -0.988393 0.050663
O 7.80638 11.0424 4.20522 -0.115798 1.043945 1.51334
O 7.39484 2.3177 7.71843 -0.149114 -1.509681 0.542017
O 11.1594 11.8637 7.14566 -0.820642 0.821866 0.417063
O 8.94698 5.38775 2.67088 0.301536 0.400082 0.458626
O 10.5275 1.59299 10.5303 0.577896 0.957775 0.389914
O 8.37762 3.24717 5.33434 0.194682 1.937282 -0.117899
O 6.4519 2.13088 1.57346 -0.043281 0.228398 0.213211
O 3.1617 3.19398 5.80452 -0.228923 -0.295312 0.880279
O 8.39738 6.74746 9.36221 0.698104 0.386039 -1.369101
O 8.47609 5.82671 5.15445 0.796596 -0.687938 -0.32915
O 0.83964 3.49852 7.33693 0.137545 -0.192712 -1.186463
O 11.5025 5.5888 1.93597 1.341785 -1.799937 0.319057
O 3.24933 11.0963 8.21202 -0.861329 0.144465 0.703189
O 1.93077 3.37835 11.7163 -0.404549 -0.386355 0.081653
O 10.7208 4.30299 12.2524 1.48132 0.934188 -0.021406
O 12.3645 1.57309 3.57146 1.25154 -0.768133 -1.807014
O 7.70303 4.17623 9.6263 2.332019 -1.205567 0.056359
O 6.04274 0.51238 9.53092 0.317027 -0.541677 -0.63817
O 2.12201 10.0928 5.61972 0.807594 -0.875093 -1.176424
O 5.10203 4.82243 9.34065 0.938398 0.248861 -3.408297
O 0.70345 10.3775 7.91748 -0.165552 -1.462959 0.035874
O 10.9988 2.29154 5.9297 0.812637 0.188226 -0.385223
O 3.54161 5.57658 11.4204 0.050409 -0.231383 0.13482
O 1.92998 0.22564 1.31845 0.861325 -0.164564 0.559758
O 4.69346 2.72876 8.03468 0.475391 -0.65062 -1.960823
O 5.60803 6.19965 0.61436 -0.795367 -0.019707 0.421434
O 2.07815 7.72808 10.7696 0.025224 -0.717975 -0.352525
O 9.2935 11.7652 0.33282 -0.956135 0.207418 -0.777915
O 7.65312 4.50032 0.64942 -1.455837 -1.421285 -0.255496
O 12.1642 6.50914 10.1292 -1.201082 2.025636 -0.219163
O 2.18323 7.55691 4.35885 -0.596806 -0.089762 1.450283
O 12.2843 8.03137 7.77477 -0.270688 -0.49129 0.716799
O 4.44069 10.8985 6.14475 0.527555 0.337229 -2.911868
O 10.0373 7.48451 11.4644 0.886218 0.032709 -0.187363
O 10.4204 0.05455 2.8674 0.877837 1.27505 0.332976
O 1.69705 6.17919 6.84176 0.81571 0.351411 -0.621583
O 12.2952 3.6145 9.82734 1.266925 0.523722 1.068463
O 4.19725 1.32866 2.16456 -0.048204 0.183976 1.459538
O 11.147 10.1927 11.3311 0.385598 -0.487815 -0.190386
O 10.0545 10.1938 5.47197 -1.324629 0.818956 1.478611
O 0.67114 8.07286 2.06853 -1.156375 -0.353861 0.90752
O 7.18202 10.6369 8.83856 0.037228 -1.627839 -0.749872
Na 8.85252 3.16327 11.567 0.057166 0.023361 -0.190511
Cl 3.05749 1.14178 10.0739 -0.020748 -0.309278 -0.061661
