190
energy=-1023.34159716 config_type=nep2xyz pbc="T T T" virial="-16.373381442319772 -1.8831727050147737 2.363048717386071 -1.8831727050147737 -19.29665639738479 -4.027055234680022 2.363048717386071 -4.027055234680022 -12.7131383144056" Lattice="12.4 0.0 0.0 0.0 12.4 0.0 0.0 0.0 12.4" volume=1906.6240000000003 Properties=species:S:1:pos:R:3:force:R:3
H 12.0943 2.79906 3.03042 -0.911356 -0.47236 0.984558
H 10.2221 1.7129 3.85239 -0.889405 0.274431 -0.254082
H 6.90625 8.43922 0.6092 0.075691 0.485861 0.209129
H 8.61702 11.5178 7.55312 -0.123859 1.595484 0.262885
H 2.96842 3.34364 12.3156 0.196919 -0.317236 0.069556
H 11.6975 0.78783 7.74573 -0.065553 -0.063653 0.592184
H 2.9744 6.28097 2.46009 -0.261553 -0.154228 0.413613
H 6.26481 11.4041 9.54662 0.067213 0.615584 0.409952
H 1.34354 2.32193 11.159 0.438084 0.429987 0.08196
H 8.86981 12.3744 4.44402 0.158086 0.993969 0.149226
H 11.6505 9.01391 10.1998 -0.384246 -0.407061 -0.125998
H 1.52731 8.33268 3.29886 0.540535 0.246357 0.061454
H 9.34618 2.6909 10.0929 -0.537628 -0.357828 -0.018239
H 0.42385 1.03403 9.67923 0.41485 0.321754 -0.119385
H 0.77798 11.1729 6.94252 -0.558284 0.101287 -0.311437
H 2.86992 4.4473 9.42457 0.726623 -0.310891 0.265134
H 8.37336 4.13646 11.7312 1.164755 0.116229 -1.592194
H 7.32161 8.57881 9.58877 -0.48265 -0.716971 -2.983962
H 5.96733 1.45821 5.73464 0.448873 -0.023659 -0.07884
H 2.41886 0.27405 9.22951 -0.326315 0.444056 0.740891
H 1.33075 3.96773 11.0589 0.356759 -0.386206 -0.184129
H 8.14024 11.0683 10.5121 0.592112 -0.20568 0.604702
H 1.48706 5.94617 10.6645 0.363908 -0.605413 0.147191
H 12.0674 2.52408 4.62534 -0.309847 0.171471 -0.639245
H 12.1868 10.2281 11.452 0.736485 -0.320095 0.774982
H 5.15629 0.13298 6.17403 0.291042 0.04617 -0.134234
H 4.01826 0.66451 4.49319 0.282234 1.051806 0.345513
H 10.5613 12.0525 11.4185 -0.23308 -0.103657 0.297815
H 5.84134 0.6174 9.17626 0.216046 -1.272252 0.191986
H 4.56917 5.59934 8.56234 0.95076 2.023638 0.793058
H 5.59261 10.4274 6.00918 -0.115056 -0.108874 0.063189
H 3.61366 0.05346 3.21848 -0.587948 1.091141 -0.073772
H 2.94239 1.46615 7.57253 -0.79685 0.03328 -0.616312
H 8.04045 4.70091 1.53737 -2.014551 0.572664 -0.454848
H 0.85093 3.25809 0.7653 0.334597 -0.285989 -0.115554
H 0.45148 3.72477 5.95112 0.184067 0.982973 -0.02491
H 2.56997 7.31059 6.60662 -0.056087 0.259103 0.148689
H 7.9501 9.20459 7.34993 -0.597945 -0.299293 0.792862
H 6.66401 4.2241 0.68162 0.343016 -0.568804 -0.255238
H 11.2341 7.29601 9.50358 0.492621 0.289285 -0.313633
H 3.70234 2.32502 3.26636 0.729774 0.183826 0.052067
H 3.56368 1.8491 6.27352 0.840885 -0.100409 -0.845839
H 10.1967 5.60473 2.37326 1.468521 -0.155867 -1.069165
H 5.60237 11.0149 7.50141 -0.38824 0.321215 -0.334556
H 7.80824 0.48282 1.2731 -0.398943 -0.6596 0.105682
H 3.69587 10.3874 0.49465 -0.160881 -0.145946 -0.181443
H 0.6251 0.19235 10.9565 1.289085 1.304853 -0.579175
H 6.10066 5.69646 4.17969 0.847062 1.191746 1.693895
H 6.99576 5.02315 6.65317 -1.044674 1.801374 -1.568466
H 8.36638 2.0528 5.13958 -0.836126 0.203286 0.765888
H 6.53214 7.59673 5.25214 0.001583 -0.180557 0.087316
H 9.33995 9.3571 6.78769 0.339537 -0.001415 0.051743
H 8.521 6.77855 8.77878 -0.375188 0.896267 0.194591
H 10.4168 7.80738 10.7922 -0.182324 0.314666 -0.232475
H 9.20819 4.84086 10.5054 -0.428315 -0.202517 0.45057
H 0.81801 5.43142 9.41624 -1.836187 0.166271 -1.424402
H 0.48957 9.70821 1.21021 0.403512 -0.067732 0.411905
H 2.72757 8.44472 7.6672 -0.684944 1.231993 0.38563
H 11.9874 5.85697 7.73092 0.017664 0.264254 -0.380027
H 2.76137 4.49215 3.31219 -0.134479 -0.184434 0.327881
H 11.7466 2.30438 7.65581 0.297131 -0.379754 0.511682
H 11.4499 2.91468 0.85781 -0.789035 0.051569 0.140045
H 3.3583 3.74269 8.18368 0.09253 -0.652381 -0.60654
H 7.40691 3.5483 6.80789 0.515841 0.97084 0.446064
H 0.46015 7.47775 4.1651 0.593968 1.33475 -1.376518
H 4.60567 3.84503 3.3551 0.318656 -0.317578 0.166589
H 9.51897 0.50259 10.5978 0.094743 -0.629459 0.65825
H 7.83388 6.8672 5.1738 2.698153 0.319731 -0.524073
H 0.85319 11.3509 3.1729 -0.797522 -1.091287 -0.906854
H 11.9889 10.3646 3.10962 0.13153 0.099389 0.045247
H 10.2573 1.81931 9.07785 -2.013591 -0.237017 0.981811
H 6.13715 6.35889 0.95294 0.092734 0.346926 0.030356
H 10.1954 3.09612 12.2838 0.533636 -0.269986 0.255431
H 9.78798 4.16221 2.87335 0.254118 0.184005 0.177731
H 0.78496 9.9678 10.2246 1.544774 0.085594 -0.37036
H 8.92676 8.08548 12.2928 -0.194795 -0.292227 -0.840365
H 8.74934 0.55951 8.39248 -0.16964 -0.477472 -0.5162
H 9.8043 10.5596 3.9175 -0.670545 0.360771 0.307561
H 4.94374 2.8979 9.36338 0.183464 -0.23204 0.080027
H 8.53922 5.35776 8.31653 -0.64949 -0.988186 -0.640281
H 1.15891 3.95754 2.12011 -0.735615 -0.408602 0.186423
H 2.59721 10.4796 5.0939 -0.223077 -0.200961 0.694033
H 11.1337 9.09094 5.78327 0.203963 -0.622483 0.521874
H 8.92355 1.39956 2.96512 -0.725993 0.177109 -1.517134
H 7.58082 9.84277 1.06618 -0.407128 -0.362195 -0.225333
H 6.36512 2.83245 8.76197 -0.111321 -0.160258 0.200516
H 10.0973 9.02131 3.77244 0.203979 0.027742 0.044139
H 7.40222 11.1187 3.0543 -0.948192 0.709933 -0.277345
H 2.89964 9.48806 9.67308 -0.894331 0.493406 -0.997624
H 5.89226 10.9553 2.83712 -1.551462 -0.487591 0.500633
H 4.6124 7.86175 10.0351 -0.163608 -0.615774 1.017213
H 1.71812 9.58013 0.1766 -1.410231 -0.44952 0.455328
H 11.7632 10.5639 7.05704 -0.562254 -0.822446 0.10406
H 12.167 5.89604 1.37551 -0.66877 0.58062 0.065466
H 8.05414 1.33778 6.44952 0.514726 -1.784366 1.450216
H 10.0548 7.2086 0.32957 -0.341664 -0.467572 -1.398345
H 2.03209 6.5644 0.5698 -1.774362 0.149995 -1.437069
H 5.67232 9.40688 4.12594 -0.115771 0.106688 0.191157
H 3.7673 9.49884 11.5355 -0.964822 0.98217 1.213619
H 7.0259 2.1501 0.15326 0.023774 0.195856 0.649991
H 3.8193 3.35144 1.54601 0.29551 -0.203713 0.282545
H 10.238 6.78437 4.77135 1.845437 -1.013536 2.69115
H 3.91866 12.3804 8.76096 -0.661101 -0.188318 -0.055641
H 11.9268 7.10946 2.30195 -0.095039 -0.145457 -0.063864
H 6.59371 2.4126 11.1276 -0.63913 0.658739 -0.316835
H 9.60156 6.39836 3.48928 -0.345683 0.726877 0.703585
H 12.1143 11.9633 1.19712 0.074479 0.288835 -1.009515
H 4.68427 7.65555 11.6727 0.176536 0.059916 -0.622102
H 4.63394 2.93371 0.07231 -0.577464 0.615578 0.33085
H 6.21369 5.07125 2.79799 -0.943939 -0.133357 0.891539
H 11.7794 0.9322 0.37809 -0.017442 -1.685517 -0.057323
H 8.40146 11.2489 5.52656 0.188085 0.145738 -0.000649
H 4.93827 7.31301 1.42565 0.666402 -0.400063 -0.596611
H 4.163 6.97222 7.9931 0.118397 0.344931 0.198258
H 10.6002 5.90432 8.49517 0.159388 -0.202333 0.249662
H 3.2631 7.81089 2.47821 -0.042666 1.576646 0.907252
H 0.90854 7.50371 0.00085 0.266749 -0.982247 0.181349
H 8.99338 1.38638 0.87553 0.130186 0.08069 -0.100499
H 1.43528 2.49553 6.20548 0.360423 -0.170824 0.126071
H 11.8485 8.32773 6.97526 0.794385 -0.387671 -0.046213
H 2.57941 10.8131 8.93731 0.098825 0.42514 -0.580851
H 7.23204 9.93412 11.184 0.413696 0.416363 0.610441
H 3.12847 10.7448 6.51502 -0.071108 -0.162718 -0.155912
H 7.11035 9.76893 4.7265 0.419892 0.201057 -0.14831
H 1.75856 5.49217 4.1268 -0.022315 -0.674598 -0.902765
H 6.48679 7.81443 8.29474 -0.021091 -0.154012 0.987922
O 0.52814 2.77539 5.92999 -1.036581 -0.526684 0.148981
O 5.11409 11.0041 6.64896 0.09688 0.042086 0.634737
O 5.11153 1.00594 5.689 -0.55309 0.007837 0.38279
O 1.62503 3.18362 11.6014 -0.449495 -0.219076 0.302106
O 8.113 1.39014 1.29252 0.336825 0.297962 -0.158908
O 8.54947 0.12859 7.52961 0.248174 -1.332947 0.372724
O 6.2375 9.42889 4.92887 -0.287314 -0.750975 -0.124295
O 7.58609 9.14453 0.38157 -0.010635 -0.303788 0.061638
O 2.76849 2.04414 6.77104 0.325331 0.249327 1.358596
O 11.4787 2.61484 3.80611 0.983444 0.041429 -0.360921
O 8.33047 11.5878 4.62039 -0.454825 -1.623163 -0.292844
O 10.5047 9.90455 3.88726 0.578057 -0.749194 0.000125
O 12.006 12.3521 0.27437 0.023581 1.087548 0.845791
O 5.61322 5.12749 3.61331 -0.118351 -1.435327 -2.794178
O 9.81562 7.1788 4.06242 -1.949789 0.89709 -2.44411
O 8.46949 9.78377 6.78081 0.435912 0.639323 -0.603415
O 6.93362 6.70012 5.29743 -2.511007 0.070549 0.544216
O 9.4886 7.34953 11.9017 0.732162 0.729041 2.508314
O 9.22204 1.44599 3.85847 1.797096 0.052381 1.539194
O 2.31805 10.4754 6.04061 0.228566 0.294485 -0.431877
O 0.60549 3.23046 1.71784 0.746361 0.963821 -0.222187
O 9.61589 12.0887 11.1969 -0.349192 0.815527 -0.80138
O 4.82785 6.59499 8.63358 -0.162855 -2.278184 -0.291501
O 9.31813 1.83236 9.60314 2.429322 0.132983 -1.130437
O 5.62929 12.0341 9.13066 -0.537984 0.766499 -0.422283
O 0.31025 10.7704 2.56713 0.313975 1.471789 0.780774
O 11.0093 8.62942 6.65212 -1.077399 1.223974 -0.982142
O 11.5951 5.90687 8.61916 -0.196715 -0.00453 0.042577
O 9.0068 5.95559 8.90707 0.820031 -0.222278 0.374842
O 3.96814 3.24072 2.88981 -0.829444 0.245117 -0.360081
O 11.636 1.59012 8.33382 0.164282 -0.019598 -1.291086
O 7.35762 4.44962 7.28281 0.80991 -2.79625 1.132479
O 10.9258 8.12181 9.9533 -0.022828 -0.015307 0.61306
O 10.631 2.48001 0.52505 0.153545 0.380672 -0.347364
O 12.2234 11.3911 7.08659 1.101512 1.14618 0.20328
O 3.29808 7.03731 1.94209 0.343311 -1.220243 -1.672151
O 2.29361 9.88526 8.9797 0.684364 -1.445628 1.756983
O 7.32943 8.19703 8.61576 0.418644 0.567842 1.758259
O 3.20116 10.1991 12.0784 0.802576 -0.921854 -0.73862
O 3.65273 3.91184 9.08361 -0.822324 0.883077 0.011756
O 7.40896 10.4484 10.3775 -0.697425 -0.289262 -0.899354
O 1.12225 0.86483 10.3599 -1.880974 -1.413781 0.786325
O 6.65779 11.2977 2.41417 2.626602 0.007858 -0.469729
O 12.2838 10.0378 10.5147 -1.948412 0.269115 -1.108197
O 5.74943 7.25637 0.82982 -0.688331 0.093942 0.294774
O 2.96219 0.06605 8.46186 1.372879 -0.343514 0.06056
O 11.4344 6.40826 1.79896 0.890483 0.147294 -0.257388
O 5.76888 2.34536 9.36348 0.301356 0.399072 -0.278119
O 3.17728 7.7324 7.2351 -0.072284 -0.917994 -1.247992
O 3.45376 0.89982 3.71986 0.069077 -2.04363 -0.618516
O 9.12818 4.02978 11.0667 -0.821719 0.483176 1.163073
O 0.75837 9.23119 0.40561 1.458314 0.365591 -0.754693
O 1.20128 6.53139 12.3366 1.687242 1.102769 1.349181
O 3.84159 3.41695 0.46652 0.483391 -0.316657 -0.844737
O 4.274 8.15121 10.9241 0.170172 0.181502 -0.487199
O 2.00471 5.11081 3.23185 0.034629 0.340321 0.529033
O 9.44873 5.01652 2.5629 -1.522813 -1.023413 0.112117
O 1.52125 5.20438 9.98893 1.172406 0.607491 1.67076
O 7.80602 2.11373 5.98341 -0.298022 1.770932 -2.083635
O 7.0581 4.90336 1.24196 1.824484 0.190113 0.901667
O 6.49072 2.78784 12.0284 0.04414 -0.79215 -0.206975
O 0.59847 8.12727 3.37205 -1.508528 -1.630397 1.342264
Cl 3.70541 9.77701 3.16627 0.213881 0.339727 -0.087513
Cl 0.33611 6.15481 5.68146 0.309114 -0.281354 0.249759
190
energy=-1023.39268263 config_type=nep2xyz pbc="T T T" virial="-6.973142894412512 1.13497073289275 0.9912994843531673 1.13497073289275 -7.395052978544242 -2.3833504775126784 0.9912994843531673 -2.3833504775126784 -7.6411731443932975" Lattice="12.4 0.0 0.0 0.0 12.4 0.0 0.0 0.0 12.4" volume=1906.6240000000003 Properties=species:S:1:pos:R:3:force:R:3
H 0.03457 2.15583 9.21952 -1.12401 1.350833 -1.729469
H 12.2961 8.80061 6.97158 -0.83365 1.544385 0.114273
H 1.88771 1.33923 6.25568 -0.078559 -0.364418 0.255374
H 6.82917 4.61494 6.0083 0.120734 -1.066692 0.133004
H 12.3648 10.4599 4.0291 0.169385 0.168719 -0.266077
H 5.06447 9.53724 4.34638 0.548008 -0.249492 0.147762
H 8.70661 2.79421 11.897 0.477935 -0.875049 0.952416
H 1.15652 10.8416 9.33634 -0.61503 -0.25288 0.118345
H 0.4997 11.7705 3.31323 -0.442468 0.967072 -0.515683
H 4.08341 0.45883 4.53795 -0.797452 -0.239118 -0.323689
H 3.9147 4.53664 7.178 1.268424 -1.332248 -1.16365
H 1.81791 6.96558 3.06556 -0.187428 -1.023734 -0.197544
H 1.42809 2.38411 10.8205 -0.611148 -0.327363 -0.242691
H 2.21027 10.1603 3.30115 0.372789 0.423707 0.00349
H 8.00165 7.54999 2.95379 -0.14397 0.027756 -0.241273
H 12.1982 4.81667 10.5799 -0.140719 -0.389972 -0.767436
H 10.3301 0.55051 4.9875 -0.152935 -0.264109 0.738556
H 10.0055 7.48111 6.08846 -0.417597 0.855014 1.590091
H 9.55593 2.45117 4.36762 0.30943 -0.25134 -0.253747
H 5.08129 0.85817 2.04103 -1.132571 -0.594674 0.406349
H 4.82729 3.33573 10.6061 0.385503 -0.325825 0.210378
H 0.45017 6.90746 9.90342 -0.21367 -0.160624 0.025709
H 1.82099 3.34004 0.73972 -0.83696 0.017901 0.984
H 7.76233 3.71915 7.54011 -0.846793 -0.078041 -0.318244
H 8.25136 9.6512 2.41425 2.361725 0.739696 -0.929214
H 8.99349 3.61781 3.48189 -0.710099 0.290425 -1.017542
H 10.9325 10.6043 1.57325 -0.042887 1.025149 0.103479
H 6.11332 9.77073 10.325 -0.231386 -0.252102 -0.081855
H 12.3403 1.10497 10.2994 -0.675178 -0.880226 0.362476
H 1.99969 8.3873 3.29193 0.322181 0.916014 0.258775
H 6.11234 9.32316 7.95573 -0.185886 -0.181505 -0.068671
H 10.6539 9.13166 1.16933 -0.322489 -0.176101 -0.252141
H 7.05381 9.86001 3.28212 -0.485667 -1.26162 -0.822838
H 8.88734 4.90652 9.11064 -0.026439 -1.120932 0.046068
H 5.60892 6.4166 0.45778 -0.692261 -0.304238 -0.396744
H 2.58045 11.8289 0.24019 -0.698714 -0.448997 0.073209
H 10.4601 9.23913 7.84763 0.470159 1.154364 -0.344421
H 4.95831 0.43555 5.74053 0.297421 0.133987 1.467753
H 10.8094 9.13497 2.82009 1.111622 -0.427685 1.218818
H 4.19896 4.49538 5.67218 0.529743 -0.81349 0.884702
H 8.69597 0.22313 7.61068 -0.977162 -0.239218 -0.190959
H 3.81844 7.19723 11.7086 -0.001101 -0.592917 0.093016
H 3.83099 8.19985 8.09441 -0.534719 -0.227348 -0.873689
H 5.065 10.2988 8.59417 0.384879 -1.658182 0.271115
H 11.3478 4.63426 0.31767 -0.320814 -0.141453 -0.07375
H 1.20178 1.67464 3.95254 -0.488825 0.023467 0.165076
H 3.18702 9.68264 2.0766 0.120315 0.90832 2.117331
H 11.6122 10.2126 8.33065 0.059219 -0.159557 0.125081
H 1.51153 11.4044 5.57452 1.223661 0.292064 1.220221
H 7.96161 3.60707 5.5262 -0.581416 0.026141 0.246784
H 7.65732 7.75607 12.3317 -0.187393 -0.21958 0.142637
H 6.94256 8.3708 1.19567 -0.08983 -0.400917 -0.109498
H 2.21327 11.7282 7.95467 -0.308387 0.017462 -1.644812
H 6.54293 0.83762 7.20683 1.286549 -0.423498 0.482716
H 2.70042 3.13957 11.1797 0.300939 -0.149235 0.205662
H 2.02288 3.98943 2.21993 0.204445 -0.05683 -0.505141
H 9.20571 7.37771 10.5474 -0.788645 0.34219 0.122058
H 10.4932 6.44957 5.2059 0.973609 -1.73191 -0.796161
H 4.2133 5.80277 0.93242 0.436938 -0.181164 0.328516
H 11.2636 1.06148 3.88391 0.742808 0.414336 -0.264642
H 4.61356 4.74064 11.3143 0.454026 0.337056 0.625554
H 5.29644 0.94511 10.5497 -0.62746 -0.647321 -0.008529
H 12.2072 4.68007 8.94365 -0.252286 -0.303187 0.449417
H 3.05169 11.8386 5.94266 -0.820401 -0.19077 0.123069
H 1.71174 7.62109 10.3048 1.778759 -0.021509 0.09339
H 7.9469 11.9326 8.74501 -0.521798 -0.156389 0.67051
H 6.42609 9.31546 11.8763 -0.655924 1.319463 -1.879038
H 4.38882 8.15547 10.7417 0.20467 0.411237 -0.59257
H 8.60564 1.32507 1.69016 0.992946 0.932101 -0.813606
H 8.80859 0.32606 2.92344 -0.38465 0.694296 -0.936842
H 12.2733 8.18843 3.25288 0.32014 -0.309553 0.320088
H 5.09507 11.0102 4.59463 0.621438 0.088142 0.42671
H 6.714 0.60095 1.68689 1.479216 -0.292826 0.90441
H 9.91261 5.418 10.354 -0.507975 -0.801742 -0.734779
H 5.93155 2.14622 6.62244 0.04702 0.80796 0.032702
H 11.4679 6.60228 1.11275 0.046286 1.125143 0.007447
H 12.0803 4.85409 5.09034 0.676958 -0.446055 0.625491
H 7.60514 10.3424 6.92613 -0.807916 -1.253843 -0.041863
H 0.85386 2.51973 6.09051 0.766478 -0.459871 -0.065101
H 1.85237 0.30759 9.17077 0.186854 -0.590406 -0.476458
H 11.3603 5.25231 2.88329 0.146434 0.057739 0.275173
H 8.73219 6.90319 4.08011 0.707625 0.034069 2.276568
H 10.8155 1.06154 7.05581 0.166248 -0.195734 0.294867
H 1.28572 8.1333 7.14845 -0.269671 0.063084 0.058891
H 4.39196 10.1716 0.17709 -0.544419 -0.748196 -0.608775
H 11.3816 0.6866 1.85573 0.339739 0.551143 0.282151
H 3.19948 6.78001 7.74314 -0.354933 1.333277 0.068083
H 3.57476 11.6933 2.76796 -0.17588 0.152501 0.076967
H 8.58874 1.31196 10.0962 0.061023 -0.616201 0.13253
H 2.81922 0.49522 2.03619 1.337166 -0.42692 1.340103
H 1.93593 5.26953 9.32258 0.358183 -0.108797 -1.304934
H 9.97169 7.53526 11.786 -0.330141 0.628106 0.749843
H 10.5772 4.36878 4.63831 -0.956801 -1.947875 0.264312
H 0.12257 4.82278 1.88934 -0.385867 0.019024 0.082211
H 1.23013 4.87711 6.94082 0.40034 -0.248181 -0.842889
H 11.729 11.2578 10.5999 0.206086 0.029968 -0.111316
H 4.02219 7.13114 4.40176 0.095634 -0.14105 0.001803
H 7.26828 7.13116 6.24217 -0.350124 0.232344 -0.272626
H 0.92689 2.32191 2.57715 -0.051409 0.391324 -0.669892
H 5.15426 0.17014 8.52609 0.110923 0.28137 0.030714
H 3.95593 7.67718 5.8903 -0.054784 0.12038 0.048005
H 3.41305 4.95028 9.45328 -0.389875 0.111867 -1.535785
H 9.30272 11.5032 10.4637 -1.078583 -0.060959 0.141626
H 1.18456 6.17721 6.22421 -0.005134 -0.394963 -0.568822
H 0.08206 12.1996 1.12069 0.464911 0.681255 -0.021251
H 8.46026 8.11106 7.62287 -0.196081 0.129886 0.22149
H 6.59948 1.49658 11.0289 -0.847817 0.565875 0.417697
H 7.89655 10.9188 10.9647 -0.767823 -0.842467 0.594968
H 3.87256 12.0355 9.20351 0.683546 0.013642 0.272923
H 6.45617 9.68934 6.05632 0.713419 -0.202551 0.298248
H 0.68483 9.47823 9.93555 -0.241602 -1.072026 0.112713
H 5.64853 0.85649 0.44688 -0.363869 0.54339 -1.613567
H 9.22595 7.07062 8.62206 0.25536 0.769777 -1.512841
H 7.20528 4.28286 2.24036 0.45801 0.455546 0.090796
H 3.08292 9.23537 12.1917 1.228793 0.35786 -0.021161
H 8.86492 3.28662 0.9747 -0.341486 1.232945 0.790678
H 8.42106 5.32687 2.41089 -0.572816 0.197012 0.237
H 10.5723 3.4834 11.9926 0.601889 1.117292 0.049336
H 1.98571 0.76363 12.284 0.065906 1.920004 -0.932336
H 11.0698 12.1595 11.7937 0.421032 -0.277164 -1.569282
H 8.05095 2.67284 9.69018 -0.334639 0.985137 -1.317576
H 11.9562 7.55107 12.3213 0.731248 0.042457 -0.511566
H 10.651 11.8495 6.96243 0.895552 -1.52806 0.613962
H 5.86177 6.87764 5.47351 -0.03098 0.555278 0.191355
H 9.07835 3.26897 8.01924 1.972063 -0.624468 -0.353979
H 10.9524 8.15001 4.35526 -0.270738 -0.523761 0.108652
O 1.77816 12.3802 0.36508 0.614886 -1.517674 0.945021
O 5.32734 9.31243 8.56319 -0.77742 1.814392 0.752841
O 9.36526 3.40255 4.33887 -0.03915 -0.327306 1.244129
O 0.73784 11.0314 3.85898 0.235076 -1.148587 0.8819
O 11.129 4.31042 11.8227 -0.433731 -0.666175 0.004921
O 11.2161 5.05781 4.73311 0.837982 2.580512 -0.815833
O 6.6237 6.4819 5.94772 0.658069 -1.125775 0.174536
O 11.3877 7.53348 0.69163 -0.581013 -0.479458 0.223918
O 3.52899 7.82977 11.0209 -0.211349 0.157692 0.288332
O 8.26776 3.57326 8.38559 -0.717502 0.721979 0.456077
O 5.82397 0.88144 1.41282 -0.082733 0.444405 -0.044112
O 7.11187 9.46853 6.79312 0.729773 1.689546 -0.801593
O 0.33789 10.2854 9.54598 0.633898 0.999876 0.086985
O 9.32764 7.75559 7.85852 0.066046 -0.90922 1.057208
O 2.74597 5.2229 8.72177 0.254399 -0.094045 2.2943
O 4.2529 12.2972 5.3131 1.064841 0.645512 -1.417743
O 6.79677 7.76748 0.42778 0.434005 0.648912 -0.218103
O 3.47742 9.90427 0.40997 -0.46507 0.497216 0.524525
O 0.34031 7.97441 6.94355 1.428499 -1.772029 -0.180828
O 10.2359 0.2926 6.87813 -0.964974 1.743933 -0.873501
O 5.61666 1.47445 11.3084 1.324112 -0.217784 -0.110002
O 6.16198 10.1008 11.2394 0.63493 -1.483178 2.255557
O 1.28302 7.75829 3.1901 0.546813 -0.411235 -0.215344
O 2.0467 2.52687 11.5682 1.013961 0.752263 0.561183
O 0.56082 1.61779 9.77739 1.576156 -1.072612 0.909007
O 8.21995 0.60977 2.17578 -0.546497 -1.540935 1.313283
O 11.2034 12.0644 10.7955 -0.756325 0.491076 1.769067
O 4.80608 5.90788 0.15126 0.312008 0.639996 -0.206796
O 2.31152 11.8637 8.90299 -0.312433 0.95105 1.954818
O 7.7592 12.3748 7.89688 1.665034 -0.107524 -0.649021
O 4.4308 4.20747 10.5274 -0.772604 -0.140244 -0.477597
O 2.1522 11.5893 6.33456 -1.230143 -0.248077 -0.878687
O 4.53835 4.07003 6.50931 -2.160022 2.067046 0.295152
O 11.4651 8.65067 3.62938 -1.432351 1.873532 -1.484829
O 8.56677 6.79277 3.17255 -0.648105 -0.30574 -2.665268
O 9.21499 2.64754 0.35917 -0.242239 -0.675147 -1.588713
O 8.04804 2.03861 10.4059 0.055015 -0.480091 1.540279
O 10.0719 7.31006 5.15635 -0.374488 1.041581 0.112064
O 0.61256 1.60919 3.16111 -0.026432 -1.048004 1.026126
O 0.25171 5.05241 9.72851 0.255923 0.646306 0.378828
O 8.30616 11.5587 10.3977 2.186475 1.028051 -0.897568
O 3.15552 9.95065 3.10797 -0.385845 -0.689828 -2.448224
O 3.58945 0.28414 2.68342 -1.04009 0.317107 -1.412399
O 5.72851 1.26785 6.95729 -1.39904 -0.16162 -0.639071
O 1.651 2.08417 5.69781 -0.761625 0.626583 -0.366064
O 7.42967 9.24592 2.56483 -1.976819 0.701776 1.775119
O 11.6681 5.32065 1.95522 0.492838 -0.446841 -0.201564
O 11.5476 12.291 1.36172 -0.439372 -1.458159 -0.747268
O 10.9726 10.0729 7.59582 -0.729595 -0.979071 -0.002691
O 10.3141 9.87453 1.73183 0.188281 -1.446954 0.167697
O 10.3459 0.82425 4.06074 -0.564156 -0.109497 -0.176229
O 9.17729 7.92755 11.3583 0.726755 -0.854791 -0.433643
O 8.17083 4.39405 2.17916 -0.111072 -0.588267 -0.277901
O 4.48386 7.68611 5.05512 -0.192393 0.094848 -0.211526
O 5.72821 10.2494 4.5105 -0.781822 -0.322318 -0.242517
O 1.37526 5.22864 6.03 -0.643894 0.738856 1.16202
O 3.16838 7.76247 7.48137 0.828318 -1.174848 0.80655
O 1.37869 3.5174 1.63741 0.850242 0.600849 -0.627133
O 7.15299 3.65832 6.10454 0.55494 1.337896 -0.711658
O 9.26645 5.61864 9.64567 0.638772 2.287717 0.884432
O 4.87412 12.1094 9.33639 -0.66811 -0.033507 -0.550062
O 0.78216 7.63917 10.4552 -1.502305 0.307887 0.242005
Cl 3.76299 5.39486 2.80449 -0.625664 0.095059 0.430291
Cl 11.5062 3.11456 7.6003 -0.267866 -0.157734 -0.253408
190
energy=-1023.75681676 config_type=nep2xyz pbc="T T T" virial="-8.625106398079192 6.132095475333989 1.4684265479617182 6.132095475333989 -8.160034248309007 -0.27089640534706066 1.4684265479617182 -0.27089640534706066 -10.477088649816215" Lattice="12.4 0.0 0.0 0.0 12.4 0.0 0.0 0.0 12.4" volume=1906.6240000000003 Properties=species:S:1:pos:R:3:force:R:3
H 0.55163 3.14937 3.75463 0.359815 0.587135 -0.334558
H 11.2665 2.91335 5.15249 0.3073 -0.397242 -0.149312
H 6.36393 7.50369 10.091 -0.517345 -0.278086 0.051827
H 9.60205 12.2065 8.54908 0.186342 -0.312866 -0.283479
H 1.44066 2.65476 0.73854 2.4271 0.352307 0.066974
H 0.259 1.92391 9.67659 1.050028 -1.967075 -1.644462
H 0.90599 9.383 2.69226 0.621233 0.332821 0.030218
H 6.78429 10.046 8.93283 -0.076 1.619952 -1.206653
H 0.15041 1.23359 1.46713 0.458873 0.691865 0.09855
H 1.27149 11.2899 6.67224 -0.435864 -0.144217 -0.535786
H 11.3526 9.59573 7.88124 0.630251 -1.497151 -1.032861
H 0.58456 10.2771 11.4255 0.105578 -0.599859 -1.416999
H 9.12136 3.09077 10.6936 0.057755 -0.692666 -0.05242
H 12.38083 1.24749 3.17331 1.021633 0.768623 0.184563
H 9.67751 0.17628 5.85553 0.106196 -1.328878 -1.128388
H 1.24964 4.76485 8.77343 1.195411 -0.024716 -1.042671
H 10.1392 4.75745 11.903 -0.537501 0.08066 -0.385896
H 9.81844 8.31177 7.27483 0.650373 -0.303281 0.137698
H 7.81278 0.75948 4.40591 0.447668 0.475149 1.031559
H 3.8132 0.47315 11.1735 -0.306857 -0.831675 -0.196719
H 0.26596 2.37336 12.1708 0.270005 -0.118098 0.525032
H 7.73483 10.9076 10.9112 0.294245 0.188213 0.328553
H 1.28418 5.60294 10.9188 -0.030092 -0.490229 -0.150995
H 0.90161 2.26995 5.01162 -0.303699 -0.644279 -0.347025
H 1.73847 0.2497 9.02062 -0.215429 -0.035286 -0.355541
H 7.02972 12.348 3.44343 -1.700342 -1.735133 -0.564343
H 4.09416 11.875 3.71087 0.684557 -0.388976 0.027115
H 9.14305 12.3058 0.41392 0.20548 0.409026 0.368047
H 7.44983 11.2969 8.15283 -0.516329 -0.029973 0.230792
H 2.94518 6.86894 11.6541 1.75144 1.233694 -1.525722
H 6.42168 9.82521 6.72322 -0.064573 0.216207 -0.209201
H 3.43707 0.18111 4.95215 0.256175 0.129084 -0.331123
H 4.60145 1.8753 6.42009 1.719162 1.27925 0.309236
H 6.33413 3.73064 1.15573 -0.08599 -0.485887 0.367505
H 11.852 3.72527 1.12854 -0.381568 -0.462508 -0.403327
H 1.37524 2.88225 7.00855 0.263633 -1.580583 -0.942365
H 4.24359 9.09143 5.68218 -0.1754 0.052465 0.136962
H 11.0368 10.9152 9.92498 0.1557 -0.661972 1.216193
H 6.22527 2.18195 1.49623 0.174342 -1.329665 -0.340864
H 12.222 8.68286 6.79551 0.152065 0.484731 -0.074642
H 3.81006 2.30619 3.50284 -0.317628 -0.064903 0.14916
H 4.03138 0.64504 7.31406 0.791415 0.260255 -0.86516
H 7.91688 6.41074 3.84011 -0.294732 0.023601 1.401565
H 6.19003 9.95452 5.12876 0.316047 -0.713448 0.716674
H 5.96616 12.011 1.07393 0.354651 1.584517 -0.315058
H 0.98228 11.4816 0.71563 -0.097214 1.008871 -1.858907
H 11.394 0.47374 2.28083 -2.014 -1.015583 -0.647048
H 7.26262 5.85322 1.07032 -0.311846 0.68603 1.275153
H 5.7405 3.72071 5.99817 0.285087 -1.030803 1.125552
H 9.06734 2.25462 5.88595 0.457333 0.187702 -0.291166
H 7.51945 7.39656 5.87083 -0.037992 0.297154 0.170516
H 11.77 11.8251 8.95294 0.444825 0.240206 -0.208263
H 7.42157 7.89022 8.41508 -0.351868 -0.068407 -0.147059
H 11.4504 7.33168 8.94107 -0.906562 -0.110154 -0.182401
H 9.36905 5.2482 10.5548 0.136846 0.683208 -1.045833
H 0.06032 6.23032 10.0382 0.679225 -1.469782 0.868968
H 2.96813 9.66236 7.96323 -0.44383 -0.295506 0.531602
H 3.51084 8.25361 6.66158 0.697685 -2.718614 2.381111
H 9.09726 5.35552 8.04022 -0.238297 -0.058392 -0.228535
H 2.2788 4.23048 3.64545 -1.605954 0.548265 0.05329
H 0.25825 3.38853 10.0772 -0.136185 0.4747 0.195181
H 9.91191 3.89375 2.02858 -0.444663 -0.344848 1.392297
H 2.51951 5.13185 7.834 0.024798 -0.180348 0.405329
H 6.83488 2.61589 6.50137 -0.23277 0.064448 -0.248843
H 1.1621 9.69092 10.0423 2.070112 0.776105 -1.508687
H 4.61091 3.61196 3.41855 -0.467483 0.124456 0.041916
H 8.65715 0.88155 11.5682 0.666325 -1.067158 0.634199
H 8.20975 5.98015 6.00372 -0.817798 0.995775 -0.484901
H 9.51151 9.42061 2.79084 0.138108 0.39714 0.058872
H 10.1683 10.4581 3.88822 -0.182841 -0.097205 0.137033
H 10.35 2.26973 10.2203 -1.209417 -0.339569 0.511387
H 4.94005 7.39831 11.0862 -0.93051 -0.629382 0.224806
H 8.61305 3.10168 2.65389 0.624513 0.411571 0.122463
H 8.29867 5.40316 2.70198 0.094409 0.502331 0.507148
H 1.19965 0.94095 7.68683 0.234881 0.667237 -0.908402
H 9.61611 7.86176 11.0665 -0.225394 0.11424 -0.196615
H 8.92185 1.0442 9.09032 -0.505572 -0.732489 -1.301387
H 7.52095 9.22672 2.28401 -0.320402 0.370768 -0.07734
H 4.83088 4.42101 9.53651 0.170638 -0.095699 -0.924926
H 5.81806 7.68878 8.18151 0.315426 -0.292852 0.289554
H 11.5787 5.19071 1.2311 -0.575602 -0.103235 -0.214406
H 0.3758 8.37255 4.68332 0.521818 0.09428 -0.392552
H 0.8439 5.38142 6.71693 -0.035763 -0.258327 -0.124366
H 9.98834 3.26813 4.38996 -0.237392 0.343009 -0.720118
H 9.1154 8.3812 0.07676 -1.079633 -0.193923 -1.809452
H 5.68625 3.34274 8.60251 -0.643263 0.960461 -0.379519
H 8.20918 7.86113 2.36823 -0.119311 -1.337233 0.244277
H 2.13817 11.7803 2.73887 0.509806 0.270341 0.70079
H 5.26879 11.4684 8.42365 0.602252 -0.090724 -0.283668
H 2.87248 10.6696 1.90622 -0.522488 0.439559 0.346961
H 4.40145 9.16257 11.7435 -0.520254 0.601345 0.237885
H 2.12374 8.50388 8.57885 -0.012141 -0.665128 -0.525628
H 10.9111 11.6791 5.8862 0.533511 -0.350045 -0.17501
H 0.48049 7.28445 1.72681 -0.155654 0.385446 0.346788
H 8.50803 1.28907 6.99273 -0.255672 0.032617 -1.10197
H 11.7853 8.31581 9.91918 -0.086701 -0.084801 1.276123
H 2.81593 4.61656 0.16895 0.143406 -0.101968 0.202554
H 6.05354 5.02307 4.6549 -0.475454 0.6852 0.191842
H 1.56522 12.0552 11.7742 1.785227 0.250415 -0.674539
H 5.33544 1.53624 11.7974 -0.338422 -0.098738 -0.282263
H 3.60232 3.08506 1.68554 0.523194 0.279678 1.841537
H 10.0312 4.28432 6.23461 0.246347 -0.25053 -0.533895
H 3.81756 11.23 11.4023 0.027305 0.67534 -0.298277
H 1.01173 5.87946 2.11578 -0.453137 0.12976 0.198919
H 5.06296 2.40447 10.4448 -0.636395 -0.187187 1.111762
H 10.7578 5.57346 6.67334 0.572944 0.247926 -0.408458
H 9.97194 11.341 2.17576 0.202987 -0.50024 0.082808
H 5.67098 9.93985 11.6558 0.78557 0.531975 -0.247588
H 4.0379 2.74645 0.23432 -0.735995 0.098406 -0.17887
H 7.93844 5.29808 12.2501 -0.975119 -0.773442 0.212167
H 9.06587 0.15258 2.54586 0.358068 -0.142931 -0.708779
H 1.18349 10.5678 5.30387 0.316425 -0.324554 -0.127146
H 6.37753 6.55368 11.6391 -0.553151 0.020463 -0.172724
H 3.18497 7.58653 10.1902 -0.095787 -0.062942 -0.822756
H 8.01856 4.62607 8.91425 0.036557 0.819259 -0.287236
H 11.8089 9.18583 2.90534 0.563991 -0.699006 0.236919
H 1.78538 5.86687 0.43331 0.067507 -0.414354 0.021802
H 7.04935 0.53822 0.33797 -0.055744 -0.793811 0.321788
H 2.50133 1.85961 6.59295 -0.390797 -0.43461 -0.739428
H 0.59772 6.65735 5.85461 -0.098492 0.549784 -0.184972
H 4.01702 11.9155 9.26203 -0.173692 -0.008604 0.553476
H 7.99583 9.32493 10.9314 -0.262372 0.596436 0.073782
H 1.80771 8.2145 5.37526 0.119417 0.635382 0.043322
H 4.78258 5.49072 5.45099 0.423206 -0.107021 -0.284886
H 0.9876 4.88062 4.47582 0.285477 0.434177 0.026754
H 8.70347 9.24423 7.02141 -0.694639 1.495145 -0.642571
O 1.48411 1.98012 6.506 0.653887 2.605201 1.358026
O 6.32841 9.31489 5.888 -0.365247 0.297148 -0.65915
O 7.71054 0.58596 3.47457 1.668918 1.426116 -0.543185
O 0.53162 2.40888 0.73499 -2.113474 0.072757 -1.589322
O 6.16198 0.55871 0.78373 -0.345943 -1.016397 -0.105233
O 8.85678 0.39692 8.29683 0.056898 1.149127 1.841728
O 5.11044 4.8232 4.81726 0.690096 0.153134 0.415245
O 8.81967 8.21243 11.5126 1.651503 -0.491374 2.12707
O 3.97463 1.1756 6.4372 -2.384619 -1.660767 0.719808
O 0.31636 2.30957 4.18895 -0.274472 -0.531674 0.822468
O 0.69146 11.1304 5.89869 -0.128926 0.721902 0.859841
O 8.31651 8.74119 2.00521 0.42211 1.015924 -0.305047
O 9.77215 12.2501 1.87116 -0.228703 1.017158 1.032674
O 7.05173 5.26234 0.357 1.077107 0.383574 -1.612902
O 9.8853 5.1821 6.5925 -0.685621 0.807984 0.885513
O 10.9275 11.372 9.10772 -0.120177 0.226411 -1.233824
O 7.47348 6.48896 5.54327 1.033547 -1.323108 0.140516
O 11.3056 7.44831 9.90179 0.88202 0.381646 -0.888702
O 10.3277 3.11493 5.29089 0.167489 -0.383923 0.353009
O 0.84899 8.29387 5.53746 -0.353961 -0.63854 0.207049
O 11.0947 4.3459 1.0133 0.837519 0.843511 0.31644
O 8.51571 0.02987 12.0704 -0.915906 0.89306 -1.678439
O 3.47303 7.62555 11.0985 -1.055115 -1.180743 2.447222
O 9.36418 2.16018 10.4275 1.275521 1.097705 -0.325326
O 6.6397 10.739 8.16568 1.062085 -1.365603 1.140341
O 10.3048 10.0045 3.03621 0.223865 -0.392085 0.057559
O 0.33668 5.72393 5.94411 -0.068858 -0.806824 0.290321
O 8.42005 5.50577 8.74074 0.003229 -0.799422 0.896831
O 6.51881 7.98457 8.8036 0.684159 0.262487 0.153675
O 3.70093 3.26252 3.35204 0.078363 -0.625102 0.098394
O 12.2861 2.5186 10.283 -1.095135 1.521651 1.738279
O 5.97164 3.03744 6.7194 -0.194802 0.696342 -0.719658
O 11.4919 8.68745 7.44841 -0.571184 1.194341 1.248179
O 9.38153 3.67575 2.89117 -0.523888 -0.123979 -1.503304
O 10.0712 11.7563 5.41701 -0.400777 1.315749 0.97388
O 0.29646 8.68498 2.97179 -1.415497 0.647739 -0.532821
O 4.43746 11.9774 8.39199 -1.156989 0.421342 -0.059794
O 8.85668 8.38143 7.35334 -0.288929 -1.169704 0.495961
O 0.73356 11.8709 12.1858 -1.290034 -1.477168 2.663401
O 1.76783 4.49744 7.91986 -1.21192 0.216653 0.864934
O 7.35698 10.0535 10.6701 -0.483415 -0.264556 -0.235639
O 12.3213 0.71276 2.30818 0.249636 -0.890343 0.963226
O 1.99335 11.003 2.19101 -0.107435 -1.252536 -1.170997
O 0.96308 0.3928 8.44563 -0.322699 -0.973419 1.868209
O 5.91998 7.20266 11.0399 1.87841 0.158716 -0.268638
O 3.32319 12.0116 11.0021 -0.147719 0.290679 0.008587
O 0.56071 6.37526 1.39015 0.336137 -0.671909 0.354674
O 5.53865 3.76481 9.47281 0.627209 -0.979197 0.889273
O 3.34891 8.91316 6.04843 -0.000986 2.39644 -2.453227
O 3.33892 12.39847 3.99314 -0.670513 0.759251 0.23989
O 9.28049 4.83502 11.4095 0.392017 -0.75695 1.121027
O 2.46657 9.37266 8.7603 0.310779 1.077293 -0.072919
O 2.43653 5.45754 12.2088 -0.308311 0.784089 -0.156161
O 3.29926 3.09669 0.7922 -0.792059 0.052261 -2.214295
O 4.76207 10.0481 11.9684 -0.356824 -1.053466 -0.000767
O 1.31192 4.59574 3.58815 1.542615 -0.360948 -0.338288
O 7.93432 6.29894 2.88658 0.257072 -0.842382 -1.533854
O 0.60783 5.3719 10.2419 -0.855567 1.242453 -0.820035
O 8.32428 1.65347 6.05408 -0.405723 -0.638203 1.523485
O 6.02682 3.05617 1.80658 0.172046 2.000636 0.27338
O 4.61935 1.90627 11.222 1.322509 0.384896 -0.456329
O 0.52434 9.56239 10.7022 -2.356324 0.070761 2.574997
Cl 5.81949 10.5516 3.11264 -0.087174 0.036188 -0.183018
Cl 4.0489 6.55831 8.18949 -0.528504 -0.199369 -0.464132
190
energy=-1022.54313238 config_type=nep2xyz pbc="T T T" virial="-16.420922785640872 0.8871488368572318 -8.385459947065348 0.8871488368572318 -11.5664815742184 2.5125034685174072 -8.385459947065348 2.5125034685174072 -13.180614306816802" Lattice="12.4 0.0 0.0 0.0 12.4 0.0 0.0 0.0 12.4" volume=1906.6240000000003 Properties=species:S:1:pos:R:3:force:R:3
H 0.40421 12.1268 9.2992 -0.126348 0.639652 1.370926
H 2.48753 5.93233 7.19066 -0.038979 -0.983624 -0.232129
H 1.77013 11.1747 4.59986 -0.679714 -0.525973 0.491178
H 6.62189 3.33581 7.36544 -0.930884 0.304841 0.450837
H 12.3352 6.78032 2.81916 0.609496 0.038569 0.279201
H 1.8869 10.8594 2.28557 1.328185 -0.670688 0.491264
H 7.40463 0.4462 12.2511 0.248699 0.349896 0.588218
H 12.2102 10.5315 10.741 -0.365241 1.005259 0.447352
H 11.8761 6.0014 4.15414 -0.343987 0.352334 -0.963307
H 8.27049 0.69714 5.24791 -1.318321 0.478065 0.352522
H 3.14257 2.10058 9.57955 0.494233 -1.132253 0.449406
H 1.39434 9.28092 11.2261 0.601176 -0.337596 0.80216
H 11.8811 2.1926 12.2524 1.043614 -0.127576 1.305366
H 2.24921 0.61716 2.90436 -0.115023 0.396105 0.213698
H 7.31862 8.36651 4.95551 -0.336986 0.002362 -0.729823
H 10.8588 3.82546 9.76507 -0.061756 0.166645 0.03689
H 10.4675 2.44998 4.48166 0.210073 0.135785 -0.123612
H 10.3137 7.75902 6.69908 -0.209077 -0.37158 -0.548139
H 8.90653 3.80005 4.6909 0.064273 -0.132114 -0.699634
H 4.89494 10.8322 3.55705 0.018405 -0.458487 -0.517486
H 1.80532 3.58705 10.2118 1.512097 -0.719598 -1.631989
H 2.81022 5.59609 9.62581 1.415457 0.660714 -0.639397
H 11.8573 3.68287 1.36726 -0.277923 -0.13867 0.165013
H 9.2139 3.44861 8.02655 -2.226693 -0.751295 -0.156257
H 5.44853 11.0822 0.80457 0.534527 -0.108238 -0.2637
H 7.77796 4.93509 4.35826 0.340045 -1.073913 0.704713
H 10.3163 11.7084 1.81504 0.241757 -0.384084 0.106233
H 7.36316 8.55255 11.4645 -0.07562 2.346903 0.845663
H 11.8594 0.38949 10.4626 0.716758 -0.348904 -0.255561
H 2.21688 8.66879 0.07921 -0.441256 0.004367 -0.08842
H 5.81391 8.73188 7.18172 0.689419 -0.270158 0.211715
H 10.2987 10.3241 0.97131 1.452071 0.934709 0.465219
H 4.6017 9.90476 1.119 -1.491313 -0.686464 0.242514
H 8.57466 5.79136 10.2834 -0.584186 -0.369569 0.912079
H 4.00304 5.90738 11.8076 -1.15387 -0.478027 0.557911
H 3.58146 0.3641 10.9693 -0.071022 0.149909 -0.604398
H 12.3763 9.07664 9.04057 -0.22635 0.039751 0.352072
H 7.307 1.76041 5.94855 0.291768 0.942971 1.05028
H 10.8995 10.0591 3.25162 0.036515 0.110629 0.851385
H 2.26878 2.4831 8.30821 0.475571 -0.251888 -0.031236
H 10.1691 11.7453 4.80533 -0.16153 -0.154344 0.300431
H 3.47615 8.68591 10.6509 0.800684 0.143419 -0.218467
H 3.27049 9.15266 8.70342 1.074074 -0.609452 1.427078
H 6.89152 9.60474 7.83281 -0.462269 -1.601081 -0.303091
H 10.281 2.11941 10.8074 0.283122 -0.631538 0.344164
H 0.61581 0.84919 1.37151 0.602818 -2.240148 1.058014
H 3.83406 1.98759 3.75992 0.355207 0.649809 -0.208074
H 1.14922 8.92164 7.95578 0.772492 0.498312 0.225115
H 6.10733 11.9528 6.4032 0.572542 0.481824 -0.936905
H 7.75743 3.75476 6.36657 -0.20448 -0.014398 0.178034
H 6.24031 6.163 11.0546 0.375916 -0.946946 -0.691704
H 6.75894 6.74934 12.38137 -0.194611 -0.047917 0.128388
H 2.96875 11.2701 7.95284 0.090993 0.556759 -0.317928
H 5.4852 2.38711 11.236 -0.239273 -0.50474 0.159048
H 0.83547 2.84151 12.125 0.223417 -0.288218 0.499739
H 11.5817 4.98057 2.3067 -1.377259 -1.763068 -1.067269
H 8.49236 5.87117 0.5184 -0.218721 -0.187555 -0.439771
H 11.8836 8.7111 7.44017 0.165257 -0.270894 0.83192
H 2.98927 6.27256 0.50133 -0.543392 0.749043 0.819288
H 10.3529 3.30678 3.11257 -0.014561 -0.661912 0.152767
H 1.6564 4.58468 11.413 1.473667 1.50881 0.849363
H 5.63046 3.70342 0.77975 -0.468461 0.08698 -0.577465
H 11.9061 4.123 10.8989 0.905606 -0.006034 -0.158097
H 5.06418 11.5861 7.41879 -0.065066 0.184271 0.07024
H 3.67312 6.93639 9.55064 0.058603 0.019588 -0.1696
H 9.93949 11.812 6.39153 -0.218069 -0.044215 -0.944356
H 6.53648 9.47855 0.0796 0.821867 0.336046 -0.459467
H 4.92713 8.04173 10.5374 0.143995 0.354805 -0.03567
H 8.73076 0.48505 1.94621 -0.057397 0.076542 -0.482843
H 9.49446 0.97986 3.18192 -0.183675 -0.639062 -0.506474
H 11.8672 10.2745 4.48571 0.03712 0.374766 -0.352362
H 2.4642 9.42752 2.67821 -0.062476 0.072497 -0.077714
H 6.69455 1.37403 3.8099 -0.238379 -0.348553 -0.701563
H 9.4727 5.05211 11.241 0.055868 -0.515566 0.158713
H 6.12565 3.67659 10.7893 0.45574 0.190745 0.395477
H 10.0102 8.51129 1.24113 -0.278945 -0.406247 0.944318
H 10.4133 5.63808 6.61674 0.901022 -0.242958 0.631825
H 4.47405 10.0293 5.56371 0.265653 0.501304 -0.089967
H 0.87443 12.3359 4.70094 -0.390711 -1.115722 0.656492
H 2.89127 0.27706 7.19318 -0.064885 0.290772 -0.121752
H 9.18088 8.2542 3.77058 0.029407 -0.165136 -0.578086
H 8.15431 8.51037 6.14859 0.38787 -0.078923 -0.697499
H 0.0749 1.86621 6.22828 -1.230426 0.494286 0.24181
H 2.23423 4.36392 6.83509 0.440703 -0.320055 0.264148
H 1.54225 0.39425 11.4458 1.223325 -0.449054 0.150837
H 4.81848 2.84045 2.74841 -0.242147 0.741419 0.703187
H 3.09202 9.2508 7.24962 0.828436 -0.297284 -1.908817
H 3.52309 0.01741 3.50154 -0.217457 0.651895 0.626849
H 7.24717 12.3987 9.08412 0.7768 -0.228626 0.190926
H 5.63588 12.1554 3.81463 0.135992 0.114242 -0.076928
H 5.21271 5.14036 9.43235 1.205256 -0.652997 0.077188
H 8.92114 6.66279 1.7911 -1.239664 0.345325 -0.354679
H 9.20734 5.85428 5.86916 -0.903822 0.000372 -0.4872
H 10.4441 7.6764 3.03708 -0.962011 -0.173429 0.315809
H 11.6721 3.91665 6.14903 -0.258917 -0.066651 -0.314015
H 11.7531 11.1538 7.33852 1.580016 0.538421 1.097388
H 2.39139 5.481 3.27997 0.31612 0.008017 -1.089018
H 4.52793 7.47934 2.99882 0.139365 0.525297 0.48669
H 0.07589 11.7594 1.67002 -0.109235 -0.033706 -0.082386
H 6.59929 11.1069 11.1964 0.224478 -0.964197 -0.22344
H 2.28089 5.00356 4.62173 0.350426 -0.98358 0.406627
H 6.76368 5.23536 9.0904 0.966746 0.503209 -0.656648
H 9.38341 11.4608 8.19412 -0.149578 -0.299607 0.101377
H 0.39636 4.997 6.19891 -1.94989 0.090162 -0.359199
H 3.74513 3.59314 3.78109 -0.290194 0.765202 -0.379058
H 8.59313 6.18825 7.82042 0.460402 -0.449838 -0.155792
H 4.37544 4.54909 1.2562 -0.937801 0.538327 -0.888097
H 9.82372 10.0115 7.59479 -0.096867 -0.229832 -0.116055
H 5.46857 12.3199 10.983 1.331896 -0.554593 0.480221
H 4.59096 8.60386 5.0633 0.462248 -1.227577 -1.328604
H 11.2388 9.29699 11.2307 0.126123 0.580901 0.094573
H 6.89709 0.89542 2.27146 -1.330235 0.695309 1.273739
H 7.46023 7.12392 8.20921 -0.094222 -0.17213 0.456521
H 6.16626 4.91558 2.64716 -1.531946 -1.665043 -1.101656
H 2.31594 0.34968 0.44356 0.136112 -0.318719 -1.107546
H 7.90821 1.91369 0.08444 -0.253386 -0.054976 0.283334
H 7.29969 5.81225 2.66757 0.541395 0.505736 -0.594398
H 9.47766 1.01536 11.5617 -0.176403 -0.150881 0.673699
H 4.06419 0.26192 9.37391 -0.210754 -0.159846 -0.012549
H 0.64498 11.5891 6.62697 0.38187 -0.191422 0.50205
H 8.56155 12.24255 10.0442 -0.63024 0.215091 -0.139089
H 8.85203 9.19062 0.47432 -0.118996 -0.425497 -0.503028
H 11.079 1.04389 6.09309 0.078834 1.823734 0.133523
H 5.72406 6.76697 3.55076 0.557585 -0.339417 0.340177
H 10.6474 3.00888 7.66296 -0.340976 -0.035429 -0.167136
H 10.8067 9.04199 5.81037 -0.50013 -0.198253 -0.23779
O 4.28669 0.58914 10.2673 0.594525 0.199619 0.351527
O 6.6859 8.62585 7.64895 -0.306105 2.144925 -0.189206
O 8.36322 4.51444 5.07215 -0.498442 1.106001 -0.228109
O 11.5827 6.36048 3.26768 0.52544 -0.378278 0.933164
O 10.3246 1.18197 11.1288 0.42467 0.702246 -0.690467
O 9.65915 6.254 6.63214 0.387628 0.571027 -0.102674
O 5.24339 7.61067 3.65659 -0.983977 0.229831 -0.529504
O 9.77113 8.8572 0.38637 0.245232 0.913707 -1.144054
O 4.2577 8.52024 10.0107 -0.918968 -0.38236 0.807978
O 10.1011 3.73398 8.02794 2.602187 0.477421 0.601118
O 6.19508 1.19397 2.9377 1.66283 -0.500344 -0.735351
O 4.26759 9.11614 5.79039 -0.556291 0.68317 1.642796
O 11.903 9.63344 10.6003 0.404506 -1.307947 -0.654248
O 7.9093 6.30156 8.51457 -0.442139 0.684084 0.142904
O 6.13119 4.75869 9.63496 -2.708222 0.332411 0.326654
O 7.32164 1.05648 5.30925 1.106717 -1.523461 -1.265952
O 6.01504 6.78078 11.7468 -0.402147 0.812851 0.456278
O 2.45749 0.29067 11.868 -1.487406 0.360773 1.073237
O 2.13569 5.28181 6.54285 -0.405913 1.020283 -0.203035
O 11.4563 1.99057 6.28991 0.840078 -1.81688 -0.522533
O 5.0975 4.01444 1.54755 1.461807 -0.772432 0.664176
O 7.34285 9.50327 11.8608 -0.579931 -2.647998 -0.511643
O 2.28712 9.15567 11.6381 -0.364447 0.091856 -0.586866
O 0.30786 2.35379 0.4253 -1.468412 -0.248124 -1.495204
O 0.36542 0.0039 10.2838 -1.072603 -0.442803 -1.317688
O 9.21766 0.13815 2.70914 0.374837 0.92766 0.753181
O 0.33409 11.3652 7.53745 -1.916051 -0.175498 -0.439011
O 3.12283 5.63141 12.2067 1.731366 -0.240099 -1.199875
O 3.45689 12.1064 7.73898 -0.276002 -0.772825 0.595164
O 9.92107 12.35 5.53266 0.212643 0.140708 0.233395
O 1.2861 3.86497 10.9482 -2.297427 -0.509519 0.834468
O 6.0186 11.5035 7.23667 -0.031037 -0.649864 1.016491
O 2.86098 2.80893 9.01809 -0.87924 1.582652 -0.198375
O 10.9564 10.0166 4.24715 0.283189 -0.084931 -0.40182
O 8.2551 8.39449 5.17237 -0.515091 0.129075 1.286598
O 8.06208 1.00739 0.4074 -0.553241 -0.248415 -1.030392
O 8.22095 12.3004 9.1401 0.166564 -0.133791 -0.360989
O 10.6718 8.69036 6.71816 0.86373 -0.025916 0.209245
O 0.87428 12.316 1.84238 -0.793827 2.783591 -1.200079
O 11.0289 3.78443 10.7343 -1.498932 -0.02107 -0.454078
O 10.0428 10.9461 7.65975 -0.230696 0.938625 0.598307
O 2.91607 0.80343 3.59912 0.586599 -1.269961 -0.698098
O 5.11142 11.4513 4.25344 -0.357129 0.137602 0.305542
O 6.0698 3.06905 11.5807 0.043006 0.044936 -0.183038
O 0.90228 11.3893 5.04214 1.321297 1.659989 -1.851603
O 5.50636 10.1626 1.1238 0.573158 0.719802 0.277332
O 9.51099 7.97344 2.87505 0.993123 0.013249 0.509201
O 4.41895 2.87547 3.6763 -0.561295 -1.994582 0.278182
O 0.26011 8.59358 8.22289 -1.335618 -0.436629 -0.783609
O 10.9213 11.0101 1.42523 -1.047647 -0.59807 -0.196092
O 9.87971 2.66674 3.73264 0.199839 0.365917 0.060502
O 8.12014 6.37896 1.2579 1.049447 -0.022139 0.699606
O 6.64542 5.42591 3.27294 1.08731 1.133365 1.394914
O 2.51346 4.63518 3.73944 -0.498285 1.06302 0.800471
O 2.66703 10.384 2.7132 -1.024859 0.89099 -0.321907
O 11.7927 4.86488 5.96127 2.545658 0.177532 0.291979
O 2.66059 9.47846 8.05872 -1.475736 0.73319 -0.022483
O 11.1337 4.18029 1.80466 1.161945 1.608655 1.130789
O 7.51863 3.15329 7.12788 0.958879 -0.263393 -0.479571
O 8.54375 5.33515 11.1755 0.81943 0.640691 -1.18955
O 6.29422 11.943 11.5393 -1.478021 1.786831 -0.31921
O 3.6058 6.0213 9.18979 -1.379756 -0.758501 0.509836
Cl 2.02535 2.19229 6.19512 -0.064405 -0.075692 0.185301
Cl 2.03385 7.49809 2.09589 0.034456 -0.3315 -0.034588
190
energy=-1023.0014771 config_type=nep2xyz pbc="T T T" virial="-11.576834757870305 2.407448404978317 1.0948194206611133 2.407448404978317 2.643786597307988 -6.803814790753958 1.0948194206611133 -6.803814790753958 -0.6835957260919237" Lattice="12.4 0.0 0.0 0.0 12.4 0.0 0.0 0.0 12.4" volume=1906.6240000000003 Properties=species:S:1:pos:R:3:force:R:3
H 0.00477 3.07839 4.54649 0.814903 -0.268881 -0.383151
H 10.8665 1.45926 4.90469 -0.318899 0.449291 -0.058425
H 8.18384 8.03091 0.46928 0.499674 0.421379 0.226181
H 8.74598 0.20556 8.83973 -0.103032 0.301075 -0.173093
H 1.69123 2.44859 0.0893 -2.017802 0.601371 -1.315984
H 11.9119 2.93749 8.5237 -1.080651 -0.033783 -0.52618
H 5.01594 5.93385 1.67692 0.301278 -0.663586 -0.281213
H 5.81689 10.7968 9.21063 0.237174 0.369455 -0.613247
H 0.04075 2.08021 11.1094 -0.479643 -1.201005 -0.581072
H 9.57781 11.8041 5.32354 -0.293582 0.223391 -0.396375
H 12.0641 9.85175 9.17267 -0.033331 0.860043 -0.475297
H 0.86779 8.35902 2.98863 -0.687024 -0.798245 0.547537
H 9.15809 3.13869 10.9411 -0.094574 -0.163404 -0.074283
H 11.623 12.1938 10.5608 -0.212753 -0.091035 -0.130549
H 0.79346 10.6824 5.2938 1.709584 0.473347 -0.608094
H 2.51035 5.40836 8.77613 0.531047 0.004196 -0.017814
H 9.34022 4.52367 12.2843 0.28562 0.042018 -0.059425
H 8.34169 9.01728 9.35178 -0.263941 -0.367902 -0.484441
H 6.59284 1.39692 5.99979 1.015427 1.17136 0.214906
H 2.21691 1.12598 8.86744 -0.085162 0.74625 -0.585528
H 0.61102 3.6175 10.9086 -0.590095 -1.230002 0.896692
H 8.70333 11.0303 11.0361 -0.1142 0.771132 0.405906
H 1.32599 5.69057 10.5865 0.657046 1.883911 1.616413
H 0.50431 1.70808 5.2929 -0.453017 0.935026 -0.06824
H 0.66132 11.9064 8.58572 -0.032005 0.043705 -0.197304
H 6.17274 12.3286 5.73412 -0.815843 0.770137 -0.374673
H 4.83889 0.65523 4.34138 -0.372335 0.391546 -0.702172
H 9.38835 12.3275 0.13603 -0.779388 0.533643 -0.698564
H 6.59345 12.1254 8.69138 -1.087012 -1.192607 -0.447201
H 4.61525 6.9707 8.32055 0.007712 0.701512 0.186063
H 7.35991 10.7251 5.63458 -1.07706 -0.00409 -0.118951
H 3.43579 12.3842 4.13672 0.25678 0.352526 -0.495762
H 4.2385 2.51856 7.65787 -0.450227 -0.340283 -0.353199
H 7.4229 3.48718 0.32265 0.389194 0.571906 -0.9502
H 11.4769 3.42854 0.21543 -0.888278 -0.202936 -0.131214
H 1.58465 3.23249 8.97048 -0.081674 -0.464295 -1.051797
H 1.55814 7.80148 7.33362 0.063185 -0.645572 -0.590708
H 9.22378 10.6506 8.69003 0.111087 -1.216118 1.606439
H 6.33831 2.54866 0.93916 0.054181 -0.660556 -0.514391
H 0.51562 8.52044 8.95776 -0.537099 0.814119 0.380158
H 3.53116 2.01771 3.23944 0.20884 0.527267 -0.723878
H 4.36265 1.57571 6.40318 -0.953565 0.772974 0.808374
H 11.0129 3.48624 5.87742 -0.436855 0.991249 0.682005
H 6.45299 11.1109 6.838 -0.458951 -1.165852 -0.568474
H 5.84417 0.0718 0.53103 -0.096851 0.33683 -0.556773
H 2.76216 11.6539 12.1925 0.720609 0.249175 0.060858
H 11.6101 0.06763 12.1276 0.6277 0.310696 -0.832976
H 6.09824 5.30588 3.29717 -0.794006 -0.538555 -0.114564
H 6.50162 5.47165 6.72976 0.680559 -0.462289 0.476176
H 8.88456 1.667 6.03131 -1.243293 1.0701 1.565991
H 5.91723 6.95103 5.16016 -0.985505 1.501608 0.137428
H 10.4691 11.5596 8.09882 -0.928559 -0.930327 0.59962
H 8.59308 6.76667 9.14168 0.076159 1.248857 0.262449
H 11.8522 8.8006 10.4121 -0.407862 -0.47716 1.243195
H 8.56809 5.09074 11.0125 0.074278 0.430349 -0.456149
H 0.45457 5.43782 9.24557 -0.416943 0.351478 -0.177846
H 2.29048 8.8321 1.11944 -1.189783 -0.098626 -0.475676
H 2.50917 9.00437 7.6893 -2.291243 -0.765096 1.052425
H 11.165 5.45427 7.30611 0.591478 0.381998 0.717179
H 1.28601 3.93188 3.00068 -0.391031 -0.013252 0.567091
H 10.5092 3.51381 7.93087 0.981965 -0.504235 0.325247
H 9.93468 3.06744 2.04459 -0.278964 -0.191511 -0.257387
H 3.11841 5.4609 7.33451 0.038746 0.280869 0.20903
H 7.32228 4.22087 7.28834 -0.026732 -0.170124 -0.500652
H 1.67148 7.73114 4.07472 -0.217977 -0.658106 0.080895
H 3.92654 3.52683 2.68335 0.495095 0.181642 0.172028
H 8.90811 0.86922 11.338 0.685926 0.770395 -0.332308
H 7.35619 6.57429 5.04175 2.816437 1.287197 -0.210575
H 11.7559 10.5496 4.04421 0.288436 0.372252 0.085509
H 10.9197 9.92927 3.00064 -0.416151 -0.382538 -0.403444
H 10.0474 2.61704 9.76274 1.355887 0.263211 -1.060445
H 7.02161 6.73565 10.9872 0.413981 -0.708587 -0.91177
H 8.44641 2.50087 1.99363 -0.179796 0.198289 -0.413607
H 9.57186 3.7612 6.40506 0.578504 0.370227 -0.342379
H 12.39013 11.1148 7.38743 0.18944 -0.084414 -0.649283
H 10.6469 8.44221 12.2047 -0.055779 0.068515 0.229751
H 8.39022 1.65786 9.4475 0.665711 0.071723 0.859228
H 9.31826 9.93331 4.11058 -0.483011 -0.616336 -0.384966
H 4.19943 4.19555 8.62787 0.19565 0.845803 -0.122152
H 7.88808 5.5283 8.85711 0.607191 -0.068645 0.802462
H 11.6354 4.63188 0.90941 1.051411 2.077516 0.852496
H 3.04795 10.4302 4.36279 -0.835104 0.671129 -0.288081
H 12.2432 7.68308 5.11407 -0.09422 -0.022557 -0.17392
H 9.52644 1.46465 4.00335 0.444627 0.165399 0.272276
H 9.15755 8.98308 1.48779 -0.913596 -0.900025 -1.201869
H 5.69234 3.57056 8.62858 0.213236 0.712962 -0.249688
H 9.1158 8.3942 3.69159 0.115184 0.320038 0.144974
H 4.52603 11.9591 2.38033 0.473484 -0.350509 -0.615519
H 4.39678 10.7613 7.42424 -0.379419 -0.030855 -0.277219
H 4.52599 10.5697 1.65794 -0.052736 -0.49176 0.175508
H 4.97337 8.98457 9.59604 -0.326005 0.107933 -0.380479
H 2.05259 9.48619 12.1888 -0.060665 1.056905 -0.473345
H 12.36052 9.61663 5.97802 -0.343864 -1.105688 0.192045
H 1.38922 6.05306 0.6154 -1.221989 -0.65022 0.040258
H 8.02835 1.67503 7.52975 0.639326 -0.276836 -0.206203
H 12.2301 8.77913 12.3018 1.189293 0.292741 1.558015
H 3.05746 6.57999 11.9931 -0.497299 -0.015985 -0.072013
H 4.76657 9.23512 5.41824 0.291275 1.356472 -0.727383
H 3.49634 10.7817 10.9866 -0.128053 0.463951 0.976506
H 4.63461 1.03086 10.9902 0.845101 -0.068623 0.265825
H 2.91217 2.41621 1.34297 0.090625 0.290753 -0.872776
H 9.97025 7.71588 5.62058 0.369185 0.038655 -0.248634
H 2.14044 0.0191 9.8729 0.150655 -0.608096 2.212348
H 0.73952 5.89313 2.00076 -0.091946 0.496311 2.058897
H 4.38962 2.24014 10.0041 0.892639 1.17058 -1.041061
H 9.35599 6.38512 5.95042 -0.246351 0.961575 -1.401431
H 11.0821 11.9155 2.10219 0.415914 0.405032 -1.650728
H 5.54354 9.19807 10.9502 0.61851 0.03474 0.812202
H 3.26319 2.20965 11.9365 0.099361 -0.308968 -0.908359
H 6.35126 4.15006 2.30611 -0.083836 -0.083546 -0.735289
H 10.4281 0.87754 1.78128 0.501284 -0.440096 -1.280903
H 9.39906 10.635 6.25619 0.222232 -0.427513 1.440387
H 6.19324 6.96142 12.2486 -1.387382 -0.60167 1.055627
H 5.0294 8.18461 7.42553 -0.150284 0.018168 -0.650599
H 11.1719 6.44821 8.5954 0.538918 -0.649826 -1.399298
H 4.26715 7.21048 1.4508 -0.501825 1.354743 0.587943
H 1.76999 7.50921 11.9831 0.201178 0.509541 0.426189
H 6.90924 0.33655 11.8134 -0.178421 0.395177 0.605145
H 2.10073 2.77771 7.54775 0.121198 -0.260529 -0.104415
H 12.0088 7.15283 6.56705 0.069892 -0.492957 0.639437
H 3.09366 11.3763 7.82432 -0.588613 0.473269 0.329673
H 8.82212 9.5061 11.323 0.096257 -0.460793 1.106924
H 2.98181 11.0908 5.74552 -0.624322 0.272286 -0.58836
H 4.08305 7.82159 5.32303 0.242332 0.571322 0.484537
H 1.01796 4.8275 4.22852 0.560291 0.872929 0.654524
H 7.03803 8.4356 8.81915 0.690637 -0.342216 -0.500333
O 1.39414 2.62497 8.20652 -0.06167 1.061797 1.394469
O 6.38325 10.7995 5.87116 1.60542 0.653141 0.862576
O 5.83862 0.90653 5.69011 -0.45964 -1.630744 -0.315851
O 0.40997 2.84305 11.5447 0.760849 2.383795 -0.237836
O 6.11653 0.73772 12.2354 -0.43468 -0.749177 0.132256
O 8.04061 0.87373 8.98607 -1.352849 -0.872486 -0.935073
O 4.81926 8.3516 5.73042 -0.417736 -2.058166 0.177001
O 9.00617 8.56835 0.57572 0.62669 0.498273 0.753839
O 3.68245 2.09664 6.95174 1.300774 -0.506565 -0.572219
O 12.1587 2.333 5.16614 0.128456 -0.924294 0.492364
O 9.13084 10.935 5.39798 -0.037502 0.379523 -1.224674
O 9.26676 9.28831 3.33818 0.236208 0.038195 0.030853
O 10.9511 0.15226 1.29937 -1.12975 -0.064273 2.757886
O 5.63906 4.74275 2.62057 0.50319 0.672825 1.420878
O 9.26809 7.12867 5.28099 -0.347354 -1.282335 1.391856
O 9.51427 11.2513 8.0344 1.245585 1.954031 -1.753255
O 6.51388 6.22116 5.15875 -1.711016 -2.565681 0.045655
O 11.5047 8.55673 11.748 -1.146998 -0.390592 -1.252184
O 9.90003 1.22034 4.88546 -0.702709 -0.696101 -0.312363
O 2.57184 11.1899 4.80902 1.182021 -1.174921 0.620757
O 10.9065 4.05647 0.73004 -0.531928 -1.717384 -0.606558
O 8.68312 0.07863 11.8379 0.799488 -1.192013 1.048335
O 4.95172 7.89915 8.35004 0.047257 -0.814723 0.62252
O 9.4454 2.32494 10.4426 -1.486399 -0.299216 1.814549
O 5.97836 11.3618 8.3917 1.051439 1.19959 1.282729
O 11.6703 10.5381 3.07334 -0.015098 0.158804 0.109234
O 11.7494 7.83831 5.95096 0.015313 1.263509 -0.819369
O 11.7429 6.06816 7.8632 -1.178476 -0.174557 1.118692
O 8.55901 5.88247 9.53073 -0.99335 -0.925584 -1.229622
O 3.27003 2.81975 2.63894 -0.663929 -0.931776 -0.062447
O 10.9191 2.8777 8.56143 0.961081 0.344614 -0.309738
O 6.83704 5.01059 7.56162 -0.198302 0.188028 -0.183405
O 12.0337 8.90467 9.4257 1.120261 -0.555783 -1.847575
O 9.35482 2.31042 2.28302 0.818687 -0.356696 0.711396
O 12.39329 10.558 5.78326 -1.19744 0.446961 0.486929
O 4.7265 6.5394 0.96383 0.184072 -0.553913 -0.992556
O 3.43233 10.7003 7.21369 0.968004 -0.204285 0.425835
O 8.01039 8.39315 8.6477 -0.466759 0.650189 0.90436
O 2.71219 10.9323 11.5667 -0.21165 -0.863264 -1.279984
O 3.37307 5.39976 8.29344 -0.838914 0.191667 -0.31262
O 8.64148 10.1471 10.6423 0.016734 -0.420639 -1.634856
O 12.1084 0.2278 11.2649 -0.267883 0.025898 0.831882
O 4.88583 11.4586 1.59389 -0.086853 1.243546 0.174479
O 12.2574 11.3906 8.3118 -0.304029 -0.078731 0.97058
O 6.88973 7.31918 11.7187 0.770214 1.467839 0.061965
O 2.18668 0.17085 8.9551 -0.226242 -0.917974 -1.707552
O 0.57659 5.69113 1.10507 0.614603 -0.274971 -1.382506
O 4.80471 3.50156 8.97641 0.162689 -1.620186 0.665102
O 1.60992 8.5304 7.95816 2.238547 1.195705 -0.388188
O 4.09979 0.58864 3.65835 -0.074812 -0.21663 1.329943
O 8.58704 4.38246 11.6745 -0.165511 -0.302862 0.927452
O 1.58615 8.86678 0.37357 1.102693 -0.300131 1.193909
O 2.09158 6.59512 11.7979 1.363187 -0.535355 -0.718456
O 2.59567 2.24541 0.27676 2.366189 -0.507936 3.246978
O 5.1293 9.70733 10.2545 -0.490685 -0.177278 -0.281468
O 0.61562 4.15994 3.68081 0.038944 -0.421486 -1.135079
O 10.4428 4.22887 6.26404 -0.586713 -1.329452 -0.273805
O 1.04083 5.08863 9.92813 -0.203058 -2.573925 -1.668234
O 8.21737 2.18017 6.69702 0.810507 -0.296378 -1.590145
O 7.06034 3.15017 1.14054 -0.221335 -0.238362 1.355415
O 3.99281 1.65292 10.6317 -1.650911 -0.803112 1.508448
O 0.79636 7.61731 3.64894 0.560447 1.60039 -1.13237
Cl 3.70712 8.92333 2.6939 -0.442749 -0.163469 0.099371
Cl 2.35553 6.40897 5.65364 0.242271 -0.370868 0.28228
190
energy=-1023.38030161 config_type=nep2xyz pbc="T T T" virial="-11.996959810337914 7.025063515416257 -4.703356131371236 7.025063515416257 -2.4504676680836424 -1.40213047195625 -4.703356131371236 -1.40213047195625 -11.996352899572113" Lattice="12.4 0.0 0.0 0.0 12.4 0.0 0.0 0.0 12.4" volume=1906.6240000000003 Properties=species:S:1:pos:R:3:force:R:3
H 0.93527 2.48211 6.34632 0.523528 0.020079 0.737646
H 11.1817 3.26025 5.49374 -0.980559 -0.400784 0.439696
H 6.37387 5.92658 8.54849 0.032937 0.044044 -0.193023
H 11.54 2.48101 8.84856 -0.023262 -0.000402 -0.192805
H 0.78929 3.66164 0.67677 -0.739929 -0.592764 0.013075
H 1.67185 2.48575 8.50781 -0.218989 -0.044504 0.513043
H 11.8513 8.29431 1.36375 0.769551 -0.520538 -0.675005
H 10.7391 11.0292 7.9284 0.645035 0.386575 -0.243068
H 12.293 2.31194 1.02104 0.334565 -1.052506 0.73552
H 0.40125 12.3257 5.77958 -0.147012 -0.151173 0.331031
H 9.45443 10.2148 4.14988 -0.489067 -1.708825 -0.510945
H 3.3347 7.58504 2.10407 -0.403773 1.172081 1.485792
H 9.92067 2.82708 10.8966 1.193424 -0.892482 0.436433
H 11.1202 0.63609 1.76446 -0.341561 -0.311807 0.399545
H 6.90622 7.03985 4.56027 0.776822 0.963794 -0.02197
H 1.56584 6.28079 9.94846 -0.187172 0.298364 0.812914
H 9.59676 5.60009 0.81636 -0.127281 0.306253 0.104266
H 8.39337 5.48464 7.60583 0.657738 -0.134775 -0.33383
H 8.16511 0.3334 4.69448 0.151165 0.419724 0.721658
H 5.55776 11.5981 10.7389 -1.470836 -0.340551 0.231924
H 0.22754 3.21215 10.5466 -0.015813 -0.203337 0.125514
H 8.44941 9.55165 9.47271 -0.113217 1.695188 0.058256
H 2.15989 7.92573 11.3395 -0.133629 0.124323 0.180824
H 0.50285 1.89352 5.04276 0.043238 -1.0229 -0.768677
H 4.06293 11.6459 9.9509 1.098925 0.219582 1.490746
H 7.06682 12.3159 3.63273 1.45729 -0.187479 0.333451
H 4.81201 10.7844 4.37617 0.909808 1.421058 -1.346391
H 8.78457 0.05222 0.69946 0.509085 0.010451 0.618617
H 11.0287 10.3391 9.27381 0.442288 -0.590311 0.418409
H 3.81155 7.70221 0.55514 -0.772772 -1.087986 1.59619
H 6.70068 8.47575 6.68598 0.134166 -0.676811 -1.088947
H 3.74776 11.0444 5.51152 0.900178 -0.298407 -0.65717
H 4.80548 1.20514 8.52258 -1.155259 -1.014633 -0.207934
H 6.17548 4.20082 4.38426 0.090883 -0.460172 1.158563
H 11.097 4.07334 1.36934 0.605092 0.394943 -0.133868
H 2.68346 0.51715 5.40024 1.617417 -0.103947 0.521148
H 1.80804 8.998 3.90724 1.0181 -0.429645 -0.325196
H 0.46569 11.7151 7.50658 -1.359069 0.356113 -0.086676
H 7.57728 3.72541 3.33682 -0.005674 -0.52866 0.117648
H 10.3096 8.89963 4.304 -0.732561 -0.18218 0.061499
H 1.38776 1.60785 2.42435 -1.613229 0.197741 -0.553386
H 4.19341 0.4232 7.36266 -0.441867 -0.134079 0.638569
H 5.25073 6.63728 2.36648 -0.004481 0.153302 -0.26089
H 6.99809 9.83937 7.33382 -0.325519 -0.197109 0.42536
H 7.01377 10.6005 11.905 -0.245024 0.952086 -1.581191
H 4.09034 11.5969 0.07849 -0.121258 -0.622533 1.255945
H 0.08118 0.3222 1.0759 -0.178494 0.361384 1.036178
H 6.65432 6.73759 1.61138 -1.28256 -0.474711 1.846921
H 5.90636 2.75448 6.90397 -0.215832 -0.241776 1.21327
H 9.17501 1.66789 6.70636 -0.981012 -0.689529 -0.49014
H 3.36569 7.49433 4.97434 0.293768 0.466475 -1.421835
H 11.9391 0.61728 7.55328 -0.437543 -0.053921 0.301612
H 4.95086 8.95448 7.84187 -1.021393 0.024998 0.691284
H 12.0207 7.95508 9.2877 -0.761423 0.399363 0.154722
H 9.11871 5.30225 11.7743 -0.397185 1.004564 0.164764
H 0.61309 7.74554 11.0187 -0.101413 0.349043 -0.32693
H 2.64255 10.1297 8.25186 0.086874 0.546463 0.179544
H 0.99585 9.89538 2.81002 0.293286 -0.558032 0.961916
H 9.19013 4.63796 9.45227 0.493892 -0.050754 0.194527
H 2.03178 5.25826 4.96495 0.072611 0.320543 -0.463165
H 0.79363 4.25609 9.5509 -0.0673 0.668449 -0.140495
H 9.44386 3.54815 2.37033 -0.19139 0.646236 0.45266
H 2.23026 5.45615 8.83683 0.214789 0.143966 -0.571411
H 6.92229 1.69292 7.28655 -0.625374 0.667312 0.757833
H 1.33728 10.9037 10.3054 1.348636 0.872741 -1.253985
H 2.57179 1.08238 3.01605 0.695145 0.467882 -0.746001
H 9.1595 1.17877 12.077 0.486722 0.048411 -0.256803
H 3.98403 8.81983 4.39219 -0.652568 -0.650177 -0.198195
H 9.8979 9.25333 0.66215 -0.03363 -0.135189 -1.390852
H 9.93129 9.27918 2.13491 -0.064847 0.050892 1.187131
H 11.0253 2.43233 11.9954 -0.269257 -0.05076 -1.001246
H 4.88585 6.12316 8.57069 -1.2866 0.372116 -0.677166
H 8.9386 2.12083 2.67112 -0.532521 -0.46737 0.13002
H 6.55494 5.05287 3.02056 -0.159776 0.717129 -0.329734
H 2.74648 1.51846 7.83269 -0.16395 0.17219 0.343025
H 9.85078 7.22078 11.9253 -0.324436 0.869124 -0.791117
H 10.9224 1.13278 9.23757 -0.126196 0.819093 -0.890572
H 6.77388 8.99464 0.38081 -1.005526 0.432471 0.293169
H 6.20839 4.35393 9.86524 -0.060101 -0.356131 0.438275
H 3.63003 8.13596 7.73523 -0.298262 -0.53019 -0.250499
H 10.9953 5.13574 2.61685 -0.158877 0.057218 -0.877744
H 11.6267 7.25861 4.59133 -0.590863 1.317874 0.503539
H 0.23867 6.93633 7.89132 -0.15266 -0.252601 -0.494721
H 9.73222 3.1756 4.82414 0.651857 0.19582 1.318683
H 11.0939 8.27077 10.6329 -0.669644 -0.385828 0.185802
H 6.4409 2.98036 9.22335 0.484805 0.275548 0.839603
H 5.77931 10.191 0.92267 -1.300281 -0.192994 0.033055
H 0.77591 10.6406 0.45051 0.963042 0.499576 1.038931
H 8.70053 11.1504 8.45772 -0.374462 0.142002 -0.425146
H 2.08522 11.1358 1.1842 0.314513 -0.054797 -0.06947
H 3.57926 9.5843 12.108 0.017519 1.448644 0.78334
H 2.40949 11.6851 8.48611 1.167261 1.194108 -0.069709
H 8.13638 8.09739 4.83961 -0.042328 -0.017617 -0.696026
H 12.0942 6.83788 2.77612 0.461619 0.358382 -1.304206
H 8.30197 0.33335 6.94034 0.296434 -0.304147 0.066173
H 0.35104 9.94097 10.6605 -0.717172 -1.117887 0.101974
H 3.39272 3.58292 0.85397 1.005245 -0.931992 -0.090177
H 6.55734 4.58566 6.3478 -0.691886 -0.087178 -0.227148
H 4.42889 11.581 1.66914 0.774516 1.151511 1.151027
H 6.86439 1.49209 0.36917 -0.634172 0.7127 -0.714059
H 3.93882 2.20361 1.48622 -0.182294 -1.258419 0.898735
H 10.1957 4.54081 7.02025 -0.49684 0.317456 0.808748
H 4.08892 9.30365 10.6623 -0.2832 -0.019472 0.432248
H 0.23888 5.84622 3.9157 -1.17125 -0.062198 -0.97695
H 6.74961 2.44643 11.4746 -1.115986 -0.146228 0.88992
H 10.5938 5.81814 7.83972 1.257607 1.549869 0.094366
H 9.99961 11.1982 1.79513 0.018679 -0.281093 0.096007
H 7.74354 8.37569 8.7703 -1.069175 0.087827 -1.013986
H 5.05299 2.65743 0.21504 -0.007153 -0.449255 0.840166
H 7.66979 7.20266 12.0301 -0.447733 -0.226715 0.118926
H 9.10852 12.1406 2.78502 -0.552565 -0.261396 0.659163
H 1.25067 11.6246 4.67312 -0.173884 -0.906728 -0.546916
H 6.28602 7.2307 11.3059 -0.212885 0.019275 -0.308094
H 2.64012 5.41908 1.06884 -0.111809 0.487065 0.240262
H 8.08848 3.95551 10.3516 0.303603 0.349722 -0.251688
H 0.52589 7.23116 0.67851 0.952366 0.235242 -1.865012
H 2.17737 4.45008 2.23275 0.029425 0.262136 -0.167383
H 7.62811 11.9121 11.3735 0.332493 0.68085 -0.01956
H 4.26128 0.44625 4.9092 0.109458 0.327009 -0.643083
H 11.6946 7.50711 6.72457 0.206134 0.575448 -0.332946
H 7.35729 11.9301 8.54308 -0.545662 0.062007 0.698003
H 9.243 8.06692 10.6263 0.702582 0.256553 1.036837
H 12.2289 8.70641 4.79943 -0.207469 -0.141297 0.088118
H 4.96291 4.68874 6.16229 1.086479 -0.7738 -0.538419
H 1.32466 3.96114 4.69383 -0.458515 0.472364 -0.634005
H 7.68993 6.31658 6.46892 0.082163 0.4245 -0.138462
O 3.67886 0.49244 5.67877 -1.906314 0.057853 0.511005
O 6.54847 8.97444 7.48339 0.246312 0.756659 0.36916
O 8.04777 12.1757 3.92121 -1.484622 -0.118506 -0.653792
O 12.3445 3.15217 0.54156 0.385667 2.325417 -0.859031
O 7.09712 11.1914 11.0074 -0.181825 -1.110507 0.889129
O 10.9875 1.75959 8.46688 0.058059 -0.773222 0.878686
O 5.77158 4.14663 5.8594 -0.662112 1.277662 0.96435
O 9.91923 8.10479 11.4063 -1.270665 -0.616045 0.060384
O 4.05464 0.54342 8.35099 1.605631 0.852121 -0.801116
O 0.53087 2.72885 5.49374 -0.287227 0.945567 0.078865
O 1.09522 0.06804 5.09115 0.270036 0.797501 -0.264396
O 6.67003 9.91305 0.75875 2.001797 -0.49881 -0.138127
O 9.72025 12.1116 2.02412 0.82672 0.419956 -0.802674
O 6.72748 7.47168 12.1253 0.757208 -0.101431 0.438152
O 9.96707 5.11261 7.81275 -0.789514 -1.929233 -0.690298
O 11.9781 12.0951 7.19891 2.034049 -0.582998 -0.359707
O 3.53551 7.96846 4.08945 0.079385 0.212945 1.504284
O 11.9657 8.38044 10.1681 1.280537 0.789143 -1.029892
O 10.199 3.23693 5.71286 0.405294 0.198763 -1.603553
O 11.5004 8.13506 5.16255 0.6237 -0.804365 -0.769928
O 10.5094 4.72523 1.81701 -0.23057 -0.637819 0.8692
O 8.42117 0.65057 0.02747 -0.902817 0.295869 -0.467204
O 3.53047 7.09307 1.32952 1.254449 -0.387283 -2.943762
O 10.5053 2.06273 11.2357 -1.115314 1.232721 0.386288
O 10.3614 10.8085 8.78573 -1.449651 0.237282 0.147261
O 10.4054 9.64469 1.37478 0.254385 -0.204104 0.126671
O 11.7544 7.2922 7.67806 0.253593 -0.716783 0.810976
O 8.98356 4.41346 10.3827 -0.119345 -0.558223 0.059169
O 4.02855 8.83438 8.25988 0.879373 0.801162 -0.170591
O 2.32026 1.6777 2.27129 0.79092 -0.819511 1.538144
O 0.45053 3.34236 9.61615 -0.133032 -0.619465 0.269169
O 6.14539 2.1978 7.71686 1.004623 -0.215211 -1.683663
O 9.43666 9.2337 3.90581 0.763798 1.567008 0.760251
O 8.7906 3.03516 2.93451 0.887455 0.025827 -0.263059
O 7.47025 7.4987 5.22409 -0.672792 -0.654393 0.375188
O 0.01914 7.48777 1.4267 -1.676157 0.976841 2.147309
O 7.85341 11.3604 7.96146 1.107372 -0.173398 -0.182305
O 7.53055 5.66407 7.17761 -0.922229 -0.239942 0.160025
O 3.90266 11.1738 1.0012 -0.802601 -0.74408 -2.872533
O 1.37034 5.68479 9.20228 -0.002509 0.122493 -0.129389
O 8.37074 8.62324 9.43133 1.05614 -2.009457 1.22524
O 12.0292 0.98854 1.66556 0.657869 -0.82466 -0.817442
O 1.14258 10.9466 1.341 -1.108746 -0.46334 -0.782818
O 1.84561 1.899 7.76309 -0.312749 -0.058862 -0.882133
O 5.5923 5.84771 9.13323 1.391985 -0.364248 0.885949
O 4.51245 11.5657 10.8476 0.620973 0.141949 -1.449523
O 11.7813 6.24154 3.4791 1.013657 -1.480144 2.414139
O 6.62744 3.47781 10.095 -0.811544 0.029558 -1.795478
O 1.00106 9.47875 3.73557 -1.061572 1.304406 -0.610733
O 4.31944 10.3772 5.05218 -1.39167 -1.471713 1.824082
O 9.04168 6.01146 0.09688 0.496121 -1.392639 -0.237451
O 1.98339 10.8492 8.4337 -1.029803 -1.49154 -0.153288
O 2.27693 4.52969 1.25794 0.311616 -0.403768 0.072977
O 4.14075 2.8121 0.79284 -0.785933 2.408 -1.271685
O 3.61429 8.93172 11.4309 0.295331 -1.651526 -0.960353
O 1.51355 4.84183 4.23532 0.5017 -0.52605 0.977977
O 6.20686 6.50173 2.51465 1.148139 0.226116 -1.777468
O 1.39653 7.31938 11.4461 0.863425 -0.907794 0.252455
O 8.36294 1.15336 6.40992 0.735049 0.817246 0.362908
O 6.72363 4.233 3.55803 -0.035456 0.186563 -1.086059
O 6.25085 2.12007 12.2785 1.258349 -0.209443 -0.344536
O 0.88246 10.6204 11.076 -0.785935 0.024892 1.12503
Cl 5.24318 0.4591 3.06748 0.17106 0.079354 0.039832
Cl 3.151 6.22815 6.67877 0.302334 -0.346134 -0.118003
190
energy=-1023.27158605 config_type=nep2xyz pbc="T T T" virial="-5.6013341603241384 0.6129560730370937 0.5753871066128857 0.6129560730370937 -27.8857646569042 -0.06480854961870024 0.5753871066128857 -0.06480854961870024 -13.974751093762215" Lattice="12.4 0.0 0.0 0.0 12.4 0.0 0.0 0.0 12.4" volume=1906.6240000000003 Properties=species:S:1:pos:R:3:force:R:3
H 1.59552 12.1732 8.56598 -1.586393 -0.301773 0.911872
H 4.70495 3.59873 5.84805 0.321697 -0.613068 0.438781
H 4.18359 7.50259 5.62791 0.241428 0.232304 -0.35571
H 9.55015 4.95715 6.33218 -0.481667 1.004527 1.197722
H 0.19878 4.82367 11.6161 0.456995 -0.343278 0.85918
H 4.64663 5.49672 6.8732 -0.056402 0.580626 -0.283264
H 10.0542 5.34953 4.2632 -0.017001 -0.804819 1.359467
H 0.85754 11.8783 10.3501 -0.35836 0.053965 -0.448281
H 0.94829 5.57544 0.42604 -0.334783 -0.115402 -0.106533
H 9.40846 12.3586 7.55074 -0.029536 0.318629 -0.239407
H 0.70566 5.01885 7.87804 0.30536 -0.723144 -0.72141
H 2.4134 2.3446 1.57537 -0.215018 -0.489774 0.165145
H 8.92632 0.44759 0.68925 -1.220422 0.019838 0.318976
H 11.3091 1.36463 3.71384 -0.215428 0.306213 -0.066595
H 6.89941 8.32196 6.11872 0.642141 0.049046 -0.39568
H 10.6512 4.54247 10.4699 -1.57047 0.665383 0.56927
H 9.31944 3.82188 0.03039 0.145898 0.455742 0.043905
H 11.1357 7.53027 6.95789 1.142107 -0.169008 -0.582309
H 7.24173 9.15821 1.38307 -0.355253 0.974611 -1.781807
H 4.76633 11.4979 1.97233 -0.193091 -0.550906 0.790022
H 12.3476 3.02488 10.5043 -0.285349 -0.322832 -0.267407
H 2.77695 7.64336 9.53803 -0.085681 0.038492 -0.530719
H 11.7845 7.35684 1.16206 -1.226936 0.593737 -0.980683
H 11.0108 2.82326 6.75045 0.546548 -0.215438 -0.150194
H 5.3507 0.242 1.15254 -0.299324 0.089862 0.008967
H 6.61328 8.0837 2.35221 -1.135264 -1.020079 -0.254269
H 6.94476 11.0155 4.84703 -0.367686 0.394438 0.312779
H 8.88511 10.8688 12.1031 1.42713 2.068315 0.383661
H 0.1752 11.3309 8.59416 0.147199 0.084265 0.809621
H 2.10259 3.78953 1.20349 -0.485637 0.226539 -0.373436
H 8.75967 9.27464 7.53471 -0.224426 -0.40473 0.271614
H 7.27948 9.9829 3.72251 -0.365287 -0.179215 -0.854145
H 4.11935 11.1183 12.389 0.822317 0.650361 0.854645
H 3.88791 5.4899 9.99577 -0.878815 1.589686 -0.05836
H 0.41535 2.24658 0.53379 0.105022 -1.743648 0.81049
H 2.40868 3.5449 5.79913 -0.312507 -0.718963 0.40696
H 11.2213 8.83397 12.1244 0.37763 0.53406 -0.740371
H 10.914 0.58507 7.34443 -0.35337 0.13858 0.242924
H 9.57494 0.13347 4.17739 0.195639 0.857784 0.217485
H 0.27339 6.52032 7.84403 0.440189 -0.15828 -0.034174
H 0.98584 11.6033 4.47884 0.516098 0.401448 -0.339913
H 2.6689 10.9293 11.8733 -0.321725 0.498932 -0.332685
H 4.08679 10.4596 10.3366 0.149367 -0.894515 -1.98188
H 8.64833 10.5692 8.41188 0.554188 -2.506474 0.299501
H 10.0075 0.31401 9.35291 0.575126 -0.116799 -0.360777
H 12.1549 9.69212 3.7565 1.217252 0.172488 0.319278
H 12.17 2.58749 3.24419 -0.314916 1.619246 -0.445357
H 3.72508 9.5538 8.89192 0.657631 0.747306 0.619061
H 7.21656 0.13249 7.42206 -0.904807 -0.506843 -0.641853
H 9.15123 3.54806 5.72729 0.591996 1.783032 -0.034381
H 0.97266 6.83546 2.2595 0.105632 0.24871 -0.596201
H 3.72197 3.04543 0.11039 0.488556 -0.062751 -0.888383
H 3.68052 11.7784 8.65717 -0.385905 0.301851 -0.847207
H 3.0153 1.99019 10.9505 0.791842 0.470851 0.176444
H 8.90042 1.91345 0.82253 -0.292421 0.941026 0.083437
H 10.399 8.16354 1.56184 1.001268 -1.334331 -1.6513
H 3.01867 7.41832 11.7708 -0.072505 -0.010341 -0.19776
H 11.5871 9.54207 10.6314 -0.001057 -0.579626 -0.217971
H 11.7724 1.58635 10.3309 -0.853298 -0.963043 -0.677415
H 10.4406 3.36854 1.13363 -0.616318 0.25748 -0.331778
H 11.8407 5.01101 9.53758 -0.062181 -0.394472 0.409931
H 0.18211 1.18914 1.72286 -0.862862 0.105395 1.555392
H 9.63738 6.40277 11.9655 0.679164 -0.736101 0.039229
H 8.05306 1.00515 8.29845 0.137511 -0.66512 0.384426
H 1.99454 6.31557 9.53322 0.108469 0.404428 0.048468
H 1.07966 0.71841 4.06134 0.830783 -1.165859 0.69573
H 10.3857 10.8472 11.815 2.354707 -1.799584 -0.502016
H 1.68548 7.53081 0.95032 0.237493 0.093163 -0.057511
H 5.5535 2.65299 1.88684 -0.048791 -0.515742 -0.2331
H 6.78365 1.79772 1.42447 0.088392 -0.365947 0.056193
H 9.09323 0.82841 2.87851 -0.627168 0.385439 -0.945663
H 4.92332 4.65183 8.14228 0.124063 -0.215143 -0.935202
H 8.63592 1.82745 5.16913 -0.400203 -0.505671 -0.444096
H 5.46211 5.40796 10.0947 0.666109 0.972488 0.419556
H 4.33855 3.84162 11.1345 -0.460252 -1.76951 0.4382
H 7.16064 10.098 11.5384 -0.779172 0.047938 0.015748
H 9.09029 6.3193 7.93804 -0.735526 -0.797726 0.747131
H 7.50531 9.30906 9.29857 -2.079746 -0.241792 1.449498
H 2.95159 6.54104 5.98448 0.26778 0.242932 -0.078884
H 3.75381 0.32435 7.41144 0.509297 0.284565 -0.648655
H 10.1607 7.67635 3.48579 -0.419925 0.462885 0.126036
H 7.9994 8.96907 5.21506 -0.329321 0.299524 0.235308
H 10.4826 11.5054 6.0413 -0.645989 0.14611 -1.101166
H 4.42143 2.1515 5.0505 0.073768 1.360908 1.080313
H 2.67415 1.19441 9.64065 1.33878 -0.746916 -2.316896
H 6.85951 1.43562 11.8966 -0.120892 1.718265 -1.647517
H 5.83766 9.5192 9.76126 -0.118713 0.295193 -0.771647
H 3.24712 11.3925 4.1239 0.001433 -0.175312 -0.133939
H 10.7576 9.74112 8.59423 -0.650485 0.062847 0.005475
H 4.74395 11.5539 4.48909 -0.745755 -0.678676 -0.272535
H 6.91863 4.86993 7.59009 -0.884083 -0.256493 -0.706281
H 3.17999 8.82846 0.10006 0.04109 -1.74038 -0.021083
H 8.89182 7.24069 6.70608 0.474575 -0.200235 0.482684
H 8.93348 8.54624 3.09574 -2.082357 -0.144886 -0.820724
H 11.3218 4.72718 2.65328 0.083578 0.167858 -0.191033
H 2.08105 9.16136 7.57959 -0.279455 0.365225 -0.923208
H 4.58221 3.81464 3.54342 0.204675 0.545033 -0.445789
H 4.55513 9.30568 4.50621 0.812847 -2.685175 -0.156546
H 0.93412 8.71003 3.95418 -0.056552 1.133843 0.177433
H 9.13838 2.4032 9.69004 -0.107223 -0.120758 -0.357906
H 4.06455 4.24491 2.0888 1.8949 -0.551589 1.700914
H 8.01775 4.04318 8.42175 -0.400786 0.926626 -0.374312
H 1.96959 11.0711 6.36101 -0.726415 -0.770255 0.776376
H 12.1276 4.36109 1.25699 0.002746 0.099381 0.69105
H 5.7245 2.4612 11.4653 0.689927 -0.43006 -0.38714
H 7.19773 5.91428 9.29353 0.105075 0.914388 0.76465
H 0.84207 0.33734 12.1857 -0.027438 -1.387773 -0.289388
H 0.94045 10.1173 5.79578 -0.114848 -0.474554 0.256923
H 7.60596 2.29586 9.90076 0.508409 0.923632 -0.547593
H 6.83618 7.42422 9.97662 -0.012884 -0.699323 0.017615
H 0.47569 11.0981 12.0199 -0.531027 0.041 -0.326518
H 7.32556 1.79954 6.05657 -0.679194 -0.350505 -0.159573
H 8.51454 6.13789 11.0273 0.421454 -1.328471 -0.146776
H 5.29972 5.91127 2.42434 -0.414774 1.164663 0.297283
H 1.32431 1.80776 10.3607 -0.343893 -0.559797 0.559253
H 9.54501 5.6742 2.91876 -2.146496 -0.211764 -1.731384
H 4.53949 7.26171 1.84944 0.839625 -0.773161 0.515483
H 10.1033 0.36155 10.9129 -0.528525 -0.638961 0.607545
H 1.21633 4.391 5.46464 -0.32633 -0.793673 0.62391
H 3.20778 7.97093 7.4755 -0.267567 0.004738 -0.62282
H 12.0529 9.08619 8.18266 0.773454 -0.963755 -1.085023
H 6.49115 11.1351 0.22222 0.162075 -0.542752 -0.08909
H 9.76861 10.6535 4.84251 0.361962 0.757377 0.337737
H 4.95778 7.72668 3.8671 -0.018832 0.663683 -0.061326
H 0.16713 2.47931 6.58219 -1.359119 -0.238154 0.319277
H 12.3098 7.38894 5.79672 -0.309078 0.361521 1.419653
O 1.45407 3.6288 6.06158 0.621177 1.516414 -1.043046
O 8.86794 9.5359 8.47695 -0.584667 3.385268 -0.758647
O 7.295 8.72404 2.21252 1.587078 0.304592 2.213096
O 0.72777 4.6679 0.0602 -0.12664 0.683546 -0.880785
O 10.2268 0.88021 10.1105 0.522897 1.03675 0.229512
O 9.57689 6.8389 7.31577 0.520897 1.133477 -1.487258
O 4.92391 8.31074 4.67072 -0.642393 2.680131 -0.020707
O 7.21755 10.5044 0.03451 0.681349 -0.473539 -0.219516
O 3.58668 10.6848 11.709 -0.883947 -1.202586 -0.319681
O 11.6873 2.14503 6.95038 0.673654 0.440953 -0.292592
O 8.13018 2.27899 5.8683 1.236734 0.709128 0.070056
O 6.71587 9.14597 9.99848 2.49928 -0.283587 -0.653582
O 0.98287 11.8386 11.6268 -0.118413 0.538526 -0.25426
O 6.94623 6.43234 10.1356 0.109291 -0.2079 -0.740693
O 7.77699 4.95044 8.00563 1.143613 -0.806232 1.294935
O 10.376 12.2272 7.68778 1.005405 -0.414275 -0.466192
O 0.87539 7.0742 1.28075 -0.323243 -0.894515 0.587401
O 2.37186 1.35582 10.5086 -0.143391 0.559443 1.235493
O 4.113 3.07494 5.27456 -0.483894 -0.506991 -1.505648
O 10.1981 11.5137 5.06821 0.561327 -1.792376 1.017953
O 0.66772 1.34839 0.92261 0.884824 1.731737 -2.492757
O 9.74951 11.4666 12.0956 -4.033984 0.465502 0.647188
O 2.83295 3.1879 1.38102 0.002341 0.337286 0.338558
O 8.29878 1.15179 1.0282 1.275609 -1.809903 -0.31487
O 0.6857 12.0315 9.09474 1.977983 -0.132562 -0.194
O 5.80886 1.80413 1.44652 -0.270141 0.660165 0.62982
O 2.71302 8.59957 8.04442 0.68494 -0.289426 1.609471
O 0.18892 2.05618 10.5681 -0.187355 1.846533 0.585697
O 3.14774 0.0435 8.10424 -0.171912 -0.896788 1.863498
O 1.64252 12.3264 4.40019 -1.018131 0.739027 -0.378735
O 11.5488 4.36538 10.2373 1.883275 0.457514 -0.842596
O 7.93239 0.03739 8.05618 0.303935 1.106907 0.635705
O 0.70304 5.80965 8.40882 -0.690694 0.650846 0.569797
O 9.44926 1.03375 3.74018 0.431334 -0.303863 0.631689
O 7.86704 8.35078 5.95999 -0.364181 -0.617094 0.73797
O 10.2992 5.78259 3.43782 1.821084 0.99858 0.418457
O 11.6977 9.69763 8.80641 -0.118367 0.907115 1.101409
O 12.1166 7.70559 6.74413 -1.079259 -0.563781 -0.505628
O 0.72778 9.70045 3.98962 -1.483734 -1.488665 -0.340947
O 9.33543 5.6623 11.3879 -1.065754 1.687975 0.151192
O 1.32789 10.3674 6.66456 0.751761 1.233764 -0.977739
O 12.2133 1.67836 3.49413 0.224617 -1.970342 0.193335
O 4.11599 10.9328 4.01301 0.690497 0.959432 0.405916
O 4.13345 2.89586 11.6005 -0.227917 1.761282 -0.36152
O 3.7957 6.89128 6.32634 -0.85592 -0.864066 0.722548
O 5.0589 11.6886 1.08016 0.409099 1.010498 -0.124483
O 9.82815 8.60235 3.36548 2.638177 -0.388317 0.604337
O 6.63597 2.13734 11.1868 -0.10622 -1.506562 1.582744
O 11.5016 9.66284 11.591 0.268154 -0.237582 0.871213
O 7.61772 10.4297 4.50347 0.708199 0.086584 -0.194742
O 9.71696 3.07946 0.50369 0.997467 0.178185 0.128569
O 3.05718 7.82954 0.25774 0.593745 2.022321 -0.099311
O 5.24716 6.9261 2.46813 -0.696197 -0.503636 -0.912218
O 4.9069 4.22689 2.68947 -1.792085 -0.103973 -0.877099
O 5.15351 4.71633 7.17146 -0.028589 -0.248106 1.247757
O 11.7208 4.01235 2.10039 -0.100884 -0.548201 -0.287757
O 4.38973 10.1836 9.35185 -1.009636 0.484688 1.008327
O 10.8378 7.61335 0.79102 -0.20706 1.160298 2.145779
O 9.77175 4.37079 5.63052 -0.264779 -2.420396 -0.918606
O 4.63692 4.91096 10.0553 0.447485 -2.14031 -0.144724
O 8.30877 2.63357 9.22151 -0.661533 -0.833936 0.821285
O 2.72419 6.78976 10.0033 -0.280709 -0.550618 0.541471
Cl 5.56185 0.47027 6.19956 -0.054229 -0.300831 -0.418845
Cl 0.92707 6.4992 4.0871 0.279147 -0.008807 0.763334
190
energy=-1023.06986747 config_type=nep2xyz pbc="T T T" virial="-8.794339300048991 0.24613206606015006 6.948771262091708 0.24613206606015006 -12.284825916705222 -1.8844817282351292 6.948771262091708 -1.8844817282351292 -14.007583776170954" Lattice="12.4 0.0 0.0 0.0 12.4 0.0 0.0 0.0 12.4" volume=1906.6240000000003 Properties=species:S:1:pos:R:3:force:R:3
H 12.0072 0.48419 4.5912 -0.575126 0.064443 0.298527
H 9.91607 0.66569 4.66097 1.118278 0.234679 0.366331
H 7.28904 7.69852 1.5109 0.065454 0.111292 -0.08095
H 7.85802 11.3562 8.20683 0.509515 -0.261117 0.013557
H 3.27459 4.28241 11.7401 -1.141338 -0.002128 -0.086871
H 12.1839 0.92515 8.31332 -0.225165 -0.324516 0.328203
H 2.2122 8.17457 2.6152 -0.116743 -0.283537 0.149367
H 4.99757 10.6663 10.3127 0.009485 0.273076 -0.632222
H 1.33108 2.8548 11.2205 0.045277 0.499639 -0.407611
H 8.62868 11.2417 4.79031 0.320556 1.400479 -0.146527
H 10.7364 8.66281 10.2146 -0.259726 0.192026 0.314106
H 1.82023 8.9851 4.73119 -1.11816 -0.676493 -1.54523
H 8.85518 2.09497 10.2559 -0.358084 0.80436 0.508647
H 0.1763 1.08614 10.7978 0.269174 0.112571 0.243684
H 1.19012 11.5685 8.49929 0.785376 -0.514138 -0.199868
H 2.33358 5.19946 8.40121 0.828777 -0.019073 -0.001819
H 7.21385 3.26166 10.7247 0.821473 0.403675 -0.35236
H 7.45041 8.24086 10.0945 0.594132 -0.169347 -0.042969
H 5.71714 1.06027 5.87908 -0.024189 0.862528 -0.328748
H 2.07545 0.37611 10.2239 0.051173 -0.129258 -0.584687
H 1.32061 4.13226 10.2224 -0.319055 -0.110553 -0.326066
H 7.97934 10.93 11.3411 -0.702722 -1.837405 0.101546
H 1.64336 6.63465 10.4197 0.181749 -0.359401 -0.763929
H 11.8545 1.92715 5.2669 -0.611822 -1.411996 0.115326
H 12.1119 10.0922 10.4222 0.299943 0.277054 -0.496406
H 4.48481 0.17694 6.03775 0.147869 0.90555 -0.07874
H 3.94511 1.38749 4.3915 0.232232 -0.05505 0.989612
H 10.1788 11.2706 10.8612 0.296736 -0.883797 0.224785
H 5.96445 11.4409 9.23862 -1.41395 0.008684 0.791823
H 4.87654 6.24458 8.78612 -0.741853 1.219804 0.144434
H 5.16882 10.4033 6.40912 1.494686 -1.558423 -0.035235
H 3.68228 0.63242 3.0799 -0.210663 0.360409 -0.75188
H 2.46233 1.41148 7.93846 0.085323 -0.85833 0.803064
H 9.11283 4.14574 1.37775 0.953862 1.001047 0.149699
H 0.66762 4.4005 0.15834 -0.949037 -0.147383 0.631822
H 0.4771 3.92356 5.93399 -0.068051 0.113545 0.113111
H 3.09588 6.37765 6.2817 0.535252 1.718525 -1.54106
H 8.5028 8.6859 8.1413 -0.470396 0.197687 0.142775
H 8.19511 3.68807 0.18595 -0.126602 0.339863 -0.454442
H 10.4444 7.15406 10.5121 0.030361 0.516701 0.315149
H 3.86373 2.46395 3.13268 -0.894739 -0.832621 -0.521035
H 3.36857 1.96628 6.81533 3.025633 -0.963253 -1.581682
H 9.67713 6.10304 0.67631 0.007495 0.191248 0.310362
H 4.45618 11.0604 7.69996 0.463763 -0.518045 -0.191936
H 9.57687 1.06818 1.18659 -1.088951 -0.032421 0.993845
H 4.06972 10.4278 12.2439 0.136332 -0.141927 0.396218
H 0.56131 0.26862 11.9993 -0.842346 -1.299099 1.513646
H 7.017 5.09635 3.60585 0.466983 0.725849 0.395459
H 7.77798 4.85255 6.03258 -0.002061 0.286119 0.075676
H 8.09086 1.353 5.27856 0.332024 -0.672127 -0.360896
H 6.94336 7.02644 5.36814 0.376611 -1.300639 -0.826446
H 9.76841 9.37452 7.62278 -0.206385 0.530259 -0.469195
H 8.41967 6.17519 9.17277 0.384278 -0.470317 0.086191
H 9.92 8.83496 12.3075 0.170238 0.354582 1.561787
H 8.59921 4.23908 10.3396 -0.906181 -0.308738 -0.015656
H 0.5589 6.27709 9.39446 0.054629 -0.084011 -0.530906
H 0.48495 10.5506 12.0133 1.314102 -0.718488 -0.511463
H 2.77876 7.17207 4.92056 -1.085135 -0.169549 -1.439416
H 11.5864 6.4681 7.66303 0.208897 -0.387767 1.416601
H 2.5701 4.70503 3.29762 0.108296 -0.074658 0.16881
H 12.0887 2.25044 7.70691 -0.138496 1.036107 -0.652897
H 11.2555 2.63971 0.31358 0.992288 0.941014 1.23009
H 3.13055 3.90826 7.83564 -1.036131 0.620519 -0.317829
H 7.73328 3.31352 6.29599 0.163632 0.03824 0.467297
H 0.64516 7.85486 4.54067 0.091419 -0.176161 0.266644
H 5.04373 4.05236 3.01255 0.174355 0.102062 -1.110518
H 9.45132 0.05964 11.2754 0.0078 0.309759 0.491519
H 8.37057 6.79695 4.74744 -0.615179 -0.868725 -0.446202
H 1.0288 11.1911 4.0419 -0.254012 0.485034 -0.171365
H 12.1039 10.5758 3.80853 -0.852223 -0.492888 0.09541
H 10.0462 1.44096 9.53374 -0.62524 -0.191214 0.331512
H 7.838 6.0034 11.5523 0.302891 -0.155437 0.205172
H 9.76729 2.81785 12.2484 0.223161 0.147472 0.240748
H 10.9953 5.27017 0.90406 1.025669 -0.33468 0.048145
H 11.5842 10.6955 9.05872 0.088232 -0.093238 0.92632
H 8.87368 9.01532 1.23254 0.049371 -0.098895 0.370646
H 8.17076 0.38904 8.8112 0.009118 -0.301053 0.422731
H 9.87843 9.43996 4.41595 0.131327 -0.041158 -0.240169
H 4.71488 4.28601 8.35464 2.187567 0.801952 0.417054
H 8.70983 4.8584 8.376 -0.56385 -0.918438 -1.616763
H 0.65979 4.56877 1.73715 -1.374677 -0.539654 -1.350661
H 3.08916 10.8481 3.92046 -0.666495 -0.558484 1.986226
H 11.0675 9.23464 5.86355 0.391455 -0.970636 -1.325642
H 9.05812 0.64086 3.37594 0.001333 -0.134356 -0.998869
H 6.92185 9.04816 2.34602 0.26867 -0.33045 -0.138414
H 6.25226 4.21596 7.84447 0.744339 0.069112 -0.910095
H 10.442 8.07937 3.98874 -0.509115 -2.107924 -0.55586
H 6.78752 10.1331 4.07923 0.647919 0.534983 0.328046
H 1.77363 8.05601 6.84888 -0.284194 0.375115 1.557535
H 5.60881 10.5315 3.08689 -0.301467 0.042056 0.004051
H 4.61898 7.12742 10.8662 0.215273 0.375042 0.330325
H 1.93058 10.1928 11.2019 -0.931568 -0.239029 0.270049
H 12.3872 11.0538 7.42281 0.768228 -0.317471 -0.292599
H 0.12179 7.95651 1.34435 -0.279997 0.39557 0.116555
H 7.68109 1.136 6.80248 -0.190467 0.473292 -1.105217
H 10.6698 9.08399 1.44155 0.105833 -0.606687 -0.552268
H 1.892 7.32311 0.40489 -0.053128 0.214493 -0.037426
H 4.62983 8.16725 5.9305 0.9184 -0.17833 -0.516908
H 4.42408 8.88275 11.9665 -0.505394 1.105888 -0.585413
H 5.89507 1.49729 10.2419 -0.077185 -0.544984 -0.226335
H 4.18373 3.90753 1.61916 0.199732 0.180018 -0.442925
H 10.6679 6.23766 4.53763 -0.372784 0.142026 -1.027045
H 3.37665 12.1554 9.5673 0.095508 -0.053223 -0.177022
H 12.18 8.77889 2.61972 0.501142 -0.100369 2.031095
H 5.69206 2.91864 9.488 0.271205 -0.1377 0.308758
H 10.3069 6.14326 2.91761 -0.446645 0.532335 0.956462
H 12.2756 11.5662 1.50119 0.047687 -0.242554 1.209327
H 4.7528 6.33957 12.1649 -0.430579 -0.583221 0.597986
H 4.70531 3.85135 11.6725 -0.259918 0.400371 0.751967
H 7.33849 4.09361 2.39576 0.077384 0.147815 -0.289631
H 11.1313 11.2649 0.41794 -0.741302 0.382933 -0.023547
H 8.13061 10.3152 6.01694 0.371961 -0.014028 -0.475541
H 6.6237 6.85258 11.8084 1.19161 0.078461 1.236508
H 3.97371 7.51513 8.44031 -0.731663 0.281801 -0.769116
H 10.4841 6.04112 8.66873 0.208296 -0.432068 0.384025
H 3.12801 8.7651 1.59139 1.463506 2.863732 -0.884517
H 0.88348 8.0909 11.8782 0.489102 -0.104978 -0.050043
H 8.39153 1.79503 1.92174 0.140907 0.380947 -0.471219
H 1.28096 2.62732 6.36061 1.21092 -0.348111 0.457785
H 11.8916 8.93883 7.23766 1.297583 -1.107386 -0.016796
H 1.53449 7.82277 8.40758 0.087402 -0.897692 0.388164
H 6.95617 9.83956 12.0025 0.509286 0.426849 -0.290782
H 3.23351 10.763 5.58929 -0.457319 -0.055228 -0.78
H 5.97765 8.76187 5.24579 -0.799376 0.009388 -0.298522
H 1.14971 5.19754 3.97268 0.747626 -0.248807 -0.474486
H 6.62003 7.46509 9.06882 0.432664 -0.047663 0.107473
O 0.43876 2.96401 6.07289 -1.424201 0.577537 -0.504107
O 4.48575 10.9577 6.72151 -1.96804 1.982205 0.518038
O 4.73382 1.12726 5.78638 -0.002655 -1.58199 0.326955
O 1.58718 3.79575 11.0779 0.436594 -0.468512 0.878817
O 8.86469 0.95448 1.88476 0.955165 -0.120524 -1.291551
O 7.48866 12.2356 8.36504 -0.404754 0.319186 -0.348495
O 5.60145 8.3543 6.04015 0.411372 0.218449 0.560818
O 7.52149 8.62725 1.65674 -0.3149 0.410065 0.241622
O 2.57777 2.0749 7.26038 -2.546623 1.664976 1.124539
O 11.3905 1.02572 5.13835 1.119516 1.040458 -0.276467
O 8.1129 10.4687 5.04564 -0.506404 -1.687896 0.717125
O 10.715 8.95709 4.23883 0.06273 2.958808 0.617334
O 12.0607 11.4727 0.57931 0.661502 0.191151 -1.024811
O 6.69079 4.38428 3.05963 -1.052301 -0.732385 0.173337
O 10.0715 6.58125 3.80044 0.481568 -0.838672 0.080155
O 8.79083 9.50696 7.71001 0.087896 -0.206989 0.167863
O 7.48705 6.35036 4.83799 0.025167 1.898036 1.356739
O 9.82511 9.23288 0.88492 -0.516393 -0.423155 -2.049024
O 9.06739 0.35306 4.30186 -0.83309 -0.268923 1.10628
O 2.59939 10.6517 4.82007 1.094751 0.309392 -1.382902
O 0.03508 4.32424 0.93292 2.277051 0.619468 0.819537
O 9.70077 11.5903 11.6606 -0.37371 0.585923 -0.727737
O 4.57247 7.15617 9.07641 1.78579 -1.585718 0.783958
O 9.16962 1.23539 9.96616 1.197951 -0.492783 -1.31544
O 5.00839 11.3165 9.5556 1.299718 0.009577 -0.465698
O 0.15111 11.4036 3.63453 1.089524 0.010041 0.013383
O 11.2507 9.45008 6.77087 -0.827556 1.987781 1.784615
O 11.4365 6.29214 8.64937 -0.037713 0.727762 -1.603949
O 9.04237 5.38972 9.08249 -0.221922 1.192285 1.464942
O 4.17153 3.79333 2.58449 -0.207391 -1.042862 1.826246
O 11.8709 1.82849 8.53915 0.048727 -0.869164 0.605209
O 7.84503 4.19304 6.74882 -0.387358 -0.105409 -0.144399
O 10.3579 8.04906 10.8914 0.05224 -0.333391 -0.176701
O 10.6123 2.38962 12.0792 -0.81642 -1.178968 -1.335
O 0.31844 11.6521 8.10561 -1.598737 0.848588 -0.091036
O 2.74713 7.96881 1.82562 -1.18508 -2.677972 0.577431
O 1.48951 8.47897 7.71062 0.124524 0.614096 -1.903949
O 7.52854 7.49712 9.45381 -1.21704 0.703316 -0.254687
O 4.09792 9.74749 11.5539 0.256254 -0.759002 0.344472
O 3.12866 4.89868 7.87403 -0.157504 -0.838168 -0.040858
O 7.36243 10.1345 11.1638 0.314171 0.806204 0.197718
O 0.90355 0.94001 11.4388 0.409624 1.6696 -2.075083
O 6.03211 9.79849 3.56942 0.053235 -0.675346 -0.31032
O 11.2842 10.2896 9.91357 -0.570501 -0.106716 -0.76044
O 7.52682 6.61216 12.2362 -1.323894 -0.03973 -1.147884
O 2.48036 0.08795 9.35852 0.036023 0.236776 0.62311
O 12.1171 8.78351 1.68833 -0.131539 -0.412009 -1.820469
O 5.71119 4.37033 8.62426 -2.723207 -0.266068 0.209689
O 3.31512 7.1978 5.6903 0.144311 -1.985407 3.129751
O 3.42075 1.48721 3.55519 1.089867 1.230322 -0.548845
O 8.14308 3.60167 10.9586 0.057328 -0.070025 0.033331
O 0.97392 9.96597 11.3052 0.121506 0.454959 0.9688
O 1.20998 7.1919 12.1035 -0.221279 0.095237 -0.131013
O 4.09215 4.38976 12.2371 1.462583 -0.565362 -0.568187
O 4.92955 7.21439 11.8085 0.028598 0.070178 -1.172734
O 1.65251 4.96296 3.15518 -1.120345 0.366583 0.050508
O 10.2459 5.69998 1.35154 -0.869145 0.070512 -0.389982
O 1.54718 6.33676 9.45656 -0.585486 0.261794 1.444567
O 7.48895 1.67707 5.9788 -0.494447 -0.395383 1.577392
O 8.37078 3.60346 1.14218 -0.894961 -1.077895 0.669346
O 5.8892 2.44742 10.3389 -0.228216 0.760332 0.241574
O 1.32337 8.36771 4.0678 0.921483 1.116266 1.290735
Cl 4.04323 11.3364 2.02066 -0.318481 0.323468 0.109474
Cl 12.2755 6.04648 5.70224 0.353651 0.023539 -0.044539
190
energy=-1023.54944918 config_type=nep2xyz pbc="T T T" virial="-11.218888308369591 -4.960103185727361 0.49478697687225826 -4.960103185727361 -12.638702494011739 0.2912695667402327 0.49478697687225826 0.2912695667402327 -9.199696190548769" Lattice="12.4 0.0 0.0 0.0 12.4 0.0 0.0 0.0 12.4" volume=1906.6240000000003 Properties=species:S:1:pos:R:3:force:R:3
H 11.6185 12.1448 7.94699 -0.751908 0.90182 -0.527727
H 2.97623 4.26012 4.38969 0.353199 -0.189872 0.053368
H 4.16593 7.53364 5.0461 0.277984 -0.198462 -0.146136
H 9.05041 5.08601 6.16825 1.490104 -1.387247 -0.65669
H 1.13452 4.72983 11.2508 -0.568839 0.016033 -0.094454
H 4.18772 5.29496 6.57769 0.174807 1.398 -1.303369
H 9.5943 6.18664 2.68869 -0.461487 0.679126 -1.366336
H 0.67515 12.1424 8.72028 -0.797499 -0.118143 -0.51607
H 1.25809 5.99777 12.2343 -0.255103 -0.170941 -0.346342
H 9.60444 0.45486 6.80072 0.003781 0.110263 0.087151
H 0.38792 5.07082 7.49332 -0.354896 0.54544 0.772348
H 2.22733 3.39949 1.52858 -0.965479 -0.242328 0.009279
H 9.27237 0.26146 0.93883 -0.03675 1.403857 0.259736
H 11.6352 1.00239 4.22539 1.081269 0.254972 -0.054258
H 6.74345 8.47877 5.69128 -1.197483 -0.359357 -0.15803
H 11.1879 4.09976 10.5068 0.353888 -0.022607 -0.721222
H 10.2793 4.3774 0.53561 -0.477782 1.185928 -0.825536
H 10.4341 7.57292 10.3681 -0.639276 -0.733363 0.979717
H 8.14263 9.49642 1.60869 -0.027855 -0.137955 0.686975
H 4.92136 11.6065 1.83284 -0.145419 0.335419 -1.034037
H 12.1509 2.80517 10.2122 -0.294396 -0.562774 0.179768
H 2.37052 8.15811 9.1099 0.45935 0.204181 -1.233047
H 11.4101 7.1508 12.2939 -0.224358 -0.272693 0.262631
H 10.4615 3.13497 6.72105 0.20682 0.585008 0.71473
H 5.77403 0.32352 0.94346 -0.860642 -0.669817 0.065418
H 8.94204 8.37423 2.43629 -0.148332 0.428439 -0.152712
H 7.78943 11.098 4.53694 -0.35115 0.282905 0.246963
H 8.53035 10.9538 12.2557 0.348664 -0.406548 0.436811
H 11.5229 10.7355 8.97032 -0.252157 0.010814 0.126941
H 2.68411 4.38448 0.32392 -0.551912 -0.098477 0.42092
H 8.17069 9.6244 7.52943 -0.268119 -0.267233 -0.292776
H 8.6764 10.2047 3.65159 0.063349 -0.939565 -0.63077
H 3.85613 11.7304 12.334 -0.024991 -0.512834 -0.955549
H 6.04313 4.84594 1.64219 0.753765 0.01647 0.068532
H 12.2866 2.98843 1.43735 1.114089 -0.952401 0.90159
H 1.81474 1.94312 6.90225 -0.162418 -1.100437 1.226398
H 11.5662 9.86738 1.99576 0.164802 -0.149865 -0.712947
H 10.7092 1.42089 7.49883 -0.895218 -0.428154 -0.035524
H 9.61408 11.8981 4.21756 0.200042 0.922307 0.739146
H 11.8396 6.01001 8.2913 -1.514838 1.320974 -0.439354
H 0.84335 10.8018 4.93674 0.868359 0.589789 -1.007895
H 2.36359 11.8621 12.0803 -0.893562 0.43014 -0.357131
H 4.77188 6.87952 9.17121 -0.287838 0.546822 0.190735
H 7.83272 10.8915 8.41069 0.439024 -0.598577 -0.134325
H 9.74011 0.42167 9.0468 -0.483423 -0.114501 -0.626066
H 11.5041 9.39826 4.29828 -0.281823 -1.331293 -1.403526
H 0.54526 1.67219 4.96637 -0.313098 -0.377339 -0.985926
H 4.36501 8.13319 8.3081 -0.616476 0.449045 -0.690354
H 6.74923 12.3892 7.04613 -0.443974 -0.441479 0.69328
H 8.90533 3.51829 5.62513 -0.083886 0.270476 -0.251928
H 0.86835 6.84023 1.5486 -0.662671 0.42041 -0.453229
H 4.50433 4.78435 10.2212 -0.211286 0.763952 -0.719155
H 3.67825 12.1184 10.4004 1.332008 -0.186155 -1.183899
H 1.82892 1.79109 9.2349 0.22134 -0.984615 -0.319334
H 9.71827 1.84866 1.17068 -0.568008 -0.800447 0.253902
H 10.0249 6.91641 0.54708 -0.163536 0.318771 -0.161485
H 1.93383 8.41428 10.9487 -0.396807 0.311631 1.579596
H 12.1586 9.73155 0.47809 -0.451311 0.46702 0.987283
H 11.0845 0.89692 10.1961 -1.037898 0.245597 0.162552
H 10.5554 4.06496 2.07237 -0.225335 0.033693 -1.224165
H 12.2614 4.13899 9.21335 -0.203931 0.899467 0.073234
H 0.42314 2.12794 2.71134 -0.226136 -0.214575 0.514192
H 10.1211 5.50898 11.2416 0.722018 1.401466 0.423909
H 6.93125 0.95622 8.19066 0.202302 0.195666 0.548506
H 1.16415 7.16063 9.0439 0.410695 0.350103 0.333703
H 0.9679 12.13 3.97605 0.003758 -0.333048 0.640256
H 10.0675 10.9046 0.42101 -0.23679 -0.283609 -0.563159
H 0.93387 7.88254 0.33498 0.284074 -0.169618 0.175976
H 6.36647 2.46966 1.37737 -0.400504 -0.71256 -0.221763
H 7.56513 1.56306 1.10231 0.47112 -0.404611 -0.060673
H 9.74322 0.54847 3.12075 0.107511 0.73989 0.784632
H 4.00348 4.43309 7.71859 1.468117 -0.494025 -1.046617
H 8.75755 1.34311 4.83654 0.590839 0.128524 -0.055364
H 6.58873 5.41325 0.2969 0.057278 0.024855 -1.613552
H 3.22501 5.62161 10.202 -0.077957 0.525471 -0.000312
H 6.8992 9.44125 12.0525 -0.316134 -0.168699 -1.00329
H 8.25793 5.94058 7.56102 1.511037 0.471751 -0.735866
H 7.54513 9.03922 9.6686 -0.160733 -0.143204 0.900279
H 2.80491 6.70628 5.10954 1.002545 0.102915 0.078286
H 4.90272 12.0182 9.09687 0.477104 -0.548386 -0.119804
H 10.7815 7.60563 6.16152 1.748474 -0.105793 0.461971
H 7.90209 9.35341 5.37248 0.621724 -0.35978 0.402203
H 0.04214 9.03102 6.49356 0.167768 0.989698 -0.180409
H 4.11868 3.64485 5.22918 1.204617 0.654025 1.560915
H 2.95688 0.64668 8.84571 -1.056732 0.272149 0.128464
H 5.5056 2.35421 11.269 0.292141 -0.063117 0.584501
H 6.20642 8.38867 9.87885 -1.203145 -0.173996 -0.233242
H 2.90429 11.4758 3.19689 1.70961 -1.618547 0.031325
H 9.83777 10.093 8.92706 -0.017712 0.693116 -0.175353
H 4.3271 11.5033 3.79651 0.662447 0.327272 0.462464
H 6.17285 4.91099 7.59339 0.740061 -0.157437 0.097487
H 2.37154 9.71966 11.8107 -0.590055 -1.371244 0.345235
H 8.67444 7.14668 6.65127 -0.107345 0.262999 -0.167319
H 12.1687 7.03902 5.77201 0.8449 -0.708867 -1.393731
H 10.3797 4.81379 4.30259 -0.04989 -0.253967 1.073799
H 3.03849 9.6257 7.04401 0.043342 -1.688953 0.638181
H 5.04063 3.94114 3.22734 -0.184789 -0.255116 0.258168
H 4.82585 9.46305 4.0286 -0.727726 1.164607 -0.511213
H 12.1581 8.21396 3.41319 -1.709221 1.040781 0.593821
H 8.25882 2.24213 9.32243 0.008414 -0.282973 0.173902
H 4.34962 3.72836 1.83519 0.000103 -0.082212 0.119098
H 7.35775 3.99301 8.1431 0.178565 -0.588533 0.091262
H 4.07057 11.5033 6.00665 0.541583 -0.04551 0.075901
H 11.5812 5.49154 3.38663 0.126908 0.025934 0.726649
H 4.81893 1.76442 10.0234 0.434884 0.307087 0.122378
H 6.88192 5.58346 9.86697 0.046104 -0.139514 -0.180025
H 0.9597 1.03213 0.54127 0.034 -0.122881 0.815759
H 2.62926 11.1535 5.66049 -0.635331 0.135533 -0.688286
H 6.73537 2.70593 9.41724 -0.420587 -0.337874 0.733813
H 7.14555 6.81102 10.7782 0.027367 -0.814413 -0.039446
H 0.51254 11.9293 0.85991 -0.076334 0.311577 -0.349563
H 7.33706 1.40966 5.27735 0.217075 0.471542 0.357636
H 8.9964 4.69702 10.7702 -0.744947 -0.477875 -0.413578
H 5.77753 6.78742 1.6857 0.354058 -0.870082 -0.079841
H 12.2884 0.96254 11.2225 0.248825 -0.560521 0.252266
H 8.36019 6.34057 1.65308 -1.226888 -0.739508 -0.027069
H 5.83941 8.25268 1.52515 0.35102 1.166981 -0.457223
H 9.30239 0.13517 10.5952 0.472697 0.717878 -0.836076
H 2.24932 2.9858 5.98309 -0.090523 0.503434 -0.876785
H 3.1759 8.1313 6.57832 0.103574 -0.774791 -0.408192
H 10.9301 9.16075 9.527 -0.190429 0.565609 -0.508541
H 6.26917 10.7023 0.45388 -0.468944 0.098442 0.056775
H 0.19142 10.5901 7.01759 0.076686 -0.203352 0.345141
H 5.38989 8.11065 3.47444 -0.304159 0.584652 0.272706
H 11.9659 2.82183 6.80607 -0.455419 -0.014306 0.934997
H 9.96458 7.25331 8.86016 -0.406597 -0.106476 -0.142775
O 1.43808 2.68153 6.42888 -0.056981 0.354679 -0.43668
O 8.37386 10.0436 8.38889 -0.513238 0.916829 0.173012
O 8.61568 9.30511 2.45604 -0.009586 -0.121799 -1.031031
O 1.74108 5.32237 11.6952 1.01305 -0.038342 -0.137319
O 9.58383 0.82424 9.92362 -1.080318 -0.822325 1.883653
O 9.11567 6.39388 7.09914 -2.250755 -0.327201 1.195125
O 5.22804 8.65845 4.30884 0.787045 -1.900861 0.585748
O 6.96028 10.0046 0.42898 0.90231 -0.032032 0.51329
O 3.14978 11.5197 11.616 1.171512 0.067796 1.121676
O 11.1477 2.8182 7.38122 0.782756 0.096334 -1.647781
O 8.20064 1.85574 5.46251 -0.683756 -0.175334 0.034741
O 6.98825 8.64864 10.3985 1.260898 0.198981 -0.425359
O 0.9488 0.11684 0.20099 -0.358108 -0.075356 0.04
O 7.09941 5.80771 10.7874 0.302282 0.868968 0.132601
O 7.0929 4.91795 7.98401 -0.840593 1.285783 -0.242756
O 10.1985 0.51288 7.56597 0.725605 0.096565 -0.641896
O 0.41025 7.10294 0.70191 1.171777 0.145095 0.698377
O 1.96606 0.96972 8.71462 0.665723 0.347596 -0.059159
O 3.47175 3.44126 4.58447 -1.780009 -0.240859 -1.421838
O 0.31552 9.97534 6.28028 -0.167173 -0.514704 -0.788806
O 0.65704 2.45065 1.82524 -0.917192 1.233666 -1.854658
O 9.43739 11.3242 12.1803 -0.145 0.645161 0.380999
O 2.96181 3.78233 1.05146 1.637083 0.126955 -0.207902
O 9.13328 1.10903 1.50223 0.978605 -0.545875 -0.741282
O 12.2951 11.5996 8.35763 2.242727 -0.073347 0.580255
O 6.63311 1.68303 0.83684 -0.478186 1.103179 0.254011
O 2.98335 8.63388 7.37181 -0.0012 2.578809 -0.017265
O 11.9465 1.30691 10.3901 1.748288 1.123768 0.028958
O 4.21697 0.1139 9.53756 -1.695388 1.048137 1.404493
O 1.42552 11.2988 4.24399 -0.995913 -0.434454 0.663712
O 12.1556 3.83468 10.1624 -0.3353 -1.371515 1.083437
O 6.69499 0.02162 8.04088 0.339309 -0.328284 -1.205005
O 0.12518 5.38043 8.39239 2.034072 -1.368909 -1.308849
O 9.92285 0.47811 4.11014 0.038066 -1.589997 -1.631258
O 7.63051 8.62507 6.00875 0.999396 0.626652 0.07
O 9.17677 6.74689 1.92896 1.633991 -0.369863 1.368264
O 10.7337 10.1612 9.39689 -0.171806 -1.162327 0.609413
O 10.5971 7.70421 9.43204 1.008963 0.042353 -0.600952
O 11.2904 8.76387 3.53272 2.189007 0.467306 0.820737
O 9.95677 4.72677 10.6977 -0.306116 -0.100538 0.245078
O 3.26825 11.1184 6.37629 0.100982 0.001839 0.650214
O 0.21586 1.26383 4.11286 -1.194679 0.313809 1.173158
O 3.83023 11.032 3.12295 -1.702926 1.04385 -0.451591
O 4.07676 5.53928 9.73196 1.6e-05 -2.151637 0.81916
O 3.72012 6.77429 5.51189 -1.03496 -0.087502 -0.154306
O 5.17891 11.8837 0.89479 0.591861 0.488971 0.886487
O 11.7527 7.58009 6.42258 -2.437748 0.389336 0.911881
O 5.29741 2.57896 10.36 -0.631457 -0.309062 -0.640769
O 11.7044 10.3316 1.12124 0.17833 -0.246168 -0.105124
O 8.62926 10.5938 4.55435 0.854202 0.563855 0.583516
O 10.5301 3.69407 1.12385 0.785048 -1.439384 2.272399
O 1.92008 8.81852 11.8984 0.555217 1.249903 -1.374875
O 5.32058 7.5906 1.96417 -0.568412 0.072282 0.425223
O 5.23658 3.69715 2.319 -0.062762 0.191927 -0.714172
O 4.58278 4.47473 6.88061 -1.387146 -0.362298 2.494794
O 10.679 5.12787 3.43893 -0.157311 0.119533 -1.58703
O 4.88646 7.85073 9.0623 1.109135 -0.390823 0.620641
O 10.461 7.03538 12.0538 -0.035039 -0.350834 -0.224489
O 9.53922 4.27445 5.71758 -1.085106 0.429753 0.43982
O 6.72745 5.47973 1.22887 -0.241254 -0.16938 1.220607
O 7.48347 2.53401 8.81747 0.467249 0.024844 -0.58321
O 1.7576 7.6549 9.64028 -0.685529 -0.72078 0.223141
Cl 6.1928 12.0086 4.89665 -0.761026 0.438135 0.215703
Cl 1.16278 6.57588 3.83846 -0.336325 -0.318138 -0.074146
190
energy=-1022.70457772 config_type=nep2xyz pbc="T T T" virial="-8.8822937602458 -4.41428810368342 -1.2032422439398458 -4.41428810368342 -11.247151309718179 1.5135402482196123 -1.2032422439398458 1.5135402482196123 -8.278215244684937" Lattice="12.4 0.0 0.0 0.0 12.4 0.0 0.0 0.0 12.4" volume=1906.6240000000003 Properties=species:S:1:pos:R:3:force:R:3
H 11.2303 11.5013 4.65868 0.446934 1.048453 -1.275461
H 9.15224 4.84644 4.77902 0.153842 0.393022 -0.31698
H 6.23645 7.87667 1.30259 -1.028879 -0.05364 -0.413217
H 11.2014 2.49781 8.34604 -0.024158 -0.81042 0.719695
H 3.92707 3.82224 0.15732 -1.134511 0.045428 -0.458921
H 1.73804 12.2534 8.82015 -0.779637 -0.476547 -0.112504
H 3.6939 6.86694 2.68688 0.266469 -0.004326 0.741178
H 5.55651 11.8873 12.0335 -0.298202 -0.053979 -0.638993
H 1.82874 2.66591 12.2804 0.554696 1.14825 0.129747
H 8.26779 10.0671 3.39231 -0.333244 -0.442804 -0.166849
H 10.1356 8.66718 7.67713 0.260919 -0.209383 -0.087018
H 1.21549 9.043 2.38486 -0.375261 0.91109 -0.201048
H 10.2449 2.58967 0.31194 1.459425 0.249851 -0.122089
H 0.36792 1.17193 0.31295 -1.292363 0.309619 0.370514
H 5.00561 9.32183 5.20861 0.790287 -0.263258 0.938211
H 10.9489 4.33745 6.95055 0.232596 0.51899 -0.082414
H 7.64801 3.09275 11.7445 -0.957568 -0.741752 -0.158237
H 6.64547 6.53459 11.7647 -0.152978 -0.423794 0.014132
H 6.42265 11.3517 4.38207 -0.880658 0.95426 -0.398784
H 4.15286 11.8046 10.0488 0.092578 0.458434 -0.922207
H 1.19771 3.94606 11.7477 0.274313 0.21596 -0.837179
H 8.42891 11.7854 10.3876 -0.778498 -0.535704 -0.746737
H 11.9614 4.62842 10.1137 0.64096 -1.067754 0.827343
H 10.8464 11.6581 6.16761 -0.020331 -1.063714 -0.441495
H 11.4927 10.7368 10.1819 0.070827 0.302676 1.187025
H 4.93908 11.0133 4.38419 -0.703874 -0.287482 0.032295
H 4.33222 0.96907 5.03796 0.438732 -0.379736 -0.082073
H 10.2313 12.2752 11.2968 0.297598 -0.022585 0.240714
H 6.37283 11.5932 10.6738 -0.637832 0.559733 0.27537
H 4.98346 8.51624 7.16198 -0.748629 -0.768366 -0.280734
H 7.14881 9.30343 6.8575 -2.072089 0.276086 -0.434443
H 2.86353 1.16422 4.96573 -2.931425 -1.590668 -0.287188
H 3.80425 1.52179 8.47271 0.054492 0.282276 -1.042401
H 9.35843 5.96189 1.36972 -0.895872 -0.374587 0.611168
H 1.67121 4.0819 1.29483 -0.141655 -0.721592 0.519167
H 8.90197 0.26641 6.88887 -0.564744 0.599567 -0.590263
H 3.11094 7.47084 5.9122 -0.839566 -1.486136 -0.367251
H 5.20534 11.7624 8.37039 -0.677452 0.387712 -0.01852
H 8.69948 4.67981 0.86351 -0.482823 -0.128734 0.236322
H 9.39593 10.0076 7.45366 -0.198413 -1.291956 0.409838
H 4.34604 2.68025 3.83934 0.22847 0.536381 -0.302429
H 3.82247 1.86894 6.86314 -0.132271 0.217063 0.932153
H 11.0787 7.41023 0.24433 -0.053207 -0.382525 0.460766
H 6.1904 10.5477 6.92154 -0.274255 0.010233 0.307821
H 8.83775 1.59653 2.68513 0.34708 -0.836214 -1.105873
H 1.95563 9.77144 12.0252 0.135102 0.17172 -0.081193
H 1.6529 0.39396 0.5436 0.231067 -0.439936 0.377706
H 7.5314 1.77267 5.4731 -0.469422 -0.497885 -1.135045
H 8.05382 4.8927 6.6098 -0.826103 -0.439191 0.699651
H 9.01112 4.68318 3.19108 0.223849 0.528808 -0.14837
H 8.09243 6.76317 5.0518 0.148107 -0.147057 0.565507
H 6.72941 11.7425 8.615 -0.387031 0.296921 -0.646316
H 7.81457 5.52263 9.82354 -1.816807 0.972459 0.590427
H 8.85387 8.30538 9.72114 0.14539 0.349548 -0.388998
H 8.57226 4.03429 11.0763 0.499398 1.350677 -2.057089
H 12.1374 2.99484 10.0864 0.833348 1.558849 0.603402
H 12.2057 11.2231 0.29596 0.177757 -0.013308 -0.33503
H 1.61671 7.0665 5.96146 -1.410754 -0.320017 0.685945
H 11.4135 6.22303 8.55198 -0.804855 -0.304403 0.700419
H 4.08793 5.05554 3.47277 -2.581521 0.561866 0.057582
H 0.41266 11.238 8.58275 0.681668 0.951615 0.430652
H 11.1734 3.1423 2.1478 0.574504 0.169976 -0.048
H 9.6035 3.67286 7.24726 -1.987144 0.15213 -0.041025
H 7.62968 3.30283 6.74175 -0.107379 -0.815879 0.06778
H 0.94844 7.98862 3.51485 -0.006189 0.333984 -0.53851
H 6.89324 2.21683 3.5045 -0.810979 0.316601 -0.184662
H 10.5147 0.99056 10.2952 -0.921877 -0.050011 -0.264602
H 9.17729 6.83938 6.14381 1.675838 0.855192 0.74285
H 11.6388 8.24716 5.55929 1.549581 0.508625 -1.475616
H 11.9248 9.69923 5.02502 -0.139132 0.601393 0.342862
H 11.5673 3.16903 11.9943 -0.308292 0.105568 0.448411
H 6.81244 5.57889 1.48261 0.365477 0.738805 0.154959
H 0.33589 3.83849 2.74436 0.087052 -0.543473 -0.5966
H 11.5432 7.116 1.73982 -0.396288 -0.235584 -0.590615
H 11.694 9.33769 9.57623 -0.332448 0.939538 0.058089
H 7.61669 7.91103 10.5999 0.527 0.919813 -0.571775
H 11.9764 1.14683 8.70973 1.558387 -1.695476 -0.872067
H 6.75343 11.498 1.462 -0.253317 0.001682 0.531047
H 4.8583 3.44174 8.34068 0.558521 0.328975 0.178356
H 8.46775 4.6194 8.6827 -0.308092 0.575421 1.126296
H 2.15055 4.57494 2.79011 -0.272263 -0.130843 -0.077579
H 0.78006 0.23825 5.79923 -0.461818 0.308845 0.644886
H 1.36215 9.14791 5.83829 0.32179 1.037592 -0.011228
H 11.085 3.86982 3.63465 -0.105073 -0.309009 -0.727951
H 3.94304 8.36158 3.38736 0.009278 0.119271 0.343571
H 6.25272 4.18152 7.99023 -0.814978 -0.367133 1.419904
H 9.37582 10.1472 1.76373 0.132033 0.641053 -0.623896
H 5.35223 11.6482 2.14909 -0.967814 1.004653 3.068497
H 3.25381 8.76651 8.39438 -1.312256 0.541499 -0.05037
H 5.84143 9.50334 1.31988 -0.331503 -0.384583 -0.147108
H 4.91426 5.54087 9.1985 -0.812986 0.334064 0.40856
H 10.6964 10.7758 0.14345 1.400239 0.652915 -0.957983
H 3.41705 9.54024 5.44874 0.404421 0.170252 -0.410777
H 12.0297 7.20939 10.5734 -0.359722 -0.740318 -0.363674
H 6.76562 1.17344 6.84434 0.837142 0.525643 -0.882479
H 8.82229 9.92297 0.30283 0.374988 1.072508 0.907192
H 2.35723 6.20254 11.8559 -0.144907 -0.700215 0.974115
H 8.54926 7.97115 3.16864 -0.287981 -0.179669 1.032623
H 2.19711 9.39637 10.4545 -0.055622 0.36958 -0.546207
H 5.93877 1.35509 11.0546 -0.246835 0.204574 -0.047973
H 4.77804 3.22117 2.34466 -0.025751 0.136876 1.550354
H 10.7914 8.84483 3.48112 -0.017452 0.265646 0.237895
H 3.23784 11.1839 9.0027 -2.693 -3.956644 -0.853898
H 0.19336 8.3611 11.4808 0.314193 0.127243 -0.146812
H 5.78128 2.73714 10.2517 0.354729 -0.05235 0.567129
H 10.2379 8.41143 2.08532 -0.04327 0.570214 0.789976
H 12.097 11.7837 2.71336 0.835288 -1.143575 -1.481535
H 3.71739 6.3668 10.1139 0.75885 -0.337329 -0.444037
H 5.30971 3.14988 0.03081 0.14137 -0.430611 -0.692815
H 8.19256 3.03928 3.88961 -0.289554 -0.938418 0.207115
H 11.049 0.44873 3.0242 -0.861209 0.668362 -0.659725
H 9.18395 10.6456 4.44939 -1.597206 0.644226 -0.643486
H 5.47035 5.02345 1.12943 -0.17076 1.340516 -0.259644
H 4.4799 7.33716 8.01607 -0.055838 -1.31812 1.132371
H 10.066 5.89335 9.4091 0.159012 -0.281378 -0.024936
H 2.61202 7.95367 2.45135 0.651541 0.289976 0.376229
H 2.30686 7.54192 11.0695 0.370282 -0.89965 0.294346
H 9.08707 0.80571 1.26981 -0.420327 -0.306626 -0.028022
H 9.21298 12.1962 8.2545 -0.066976 0.146733 2.001105
H 1.60304 10.6808 5.95719 -0.65057 2.007226 -0.732003
H 1.87942 9.44125 8.01107 -0.048599 0.207345 -0.836115
H 7.83203 10.2334 10.1572 0.23456 0.605741 -0.406102
H 1.18208 0.19197 4.32001 -0.064251 -0.515109 0.864533
H 7.0485 7.67521 3.18508 0.451099 0.084394 0.645193
H 2.88496 5.83398 4.31943 -0.17547 0.475051 0.677072
H 5.93246 6.66766 10.3728 -0.561765 -0.197047 -0.184255
O 9.46505 12.055 7.36533 0.610285 -0.68054 -1.351673
O 6.17729 9.58629 6.68224 2.478632 -0.357785 0.200659
O 5.51897 11.7644 4.20147 1.545569 -0.265007 0.231936
O 2.02244 3.68542 12.2232 -0.390633 -1.376543 0.64784
O 9.4901 1.32353 1.96459 0.185119 0.778645 1.333745
O 11.4714 1.83945 9.07658 -1.341404 2.475575 0.41514
O 7.83161 7.66936 3.78512 -0.353298 0.210016 -1.605913
O 6.47305 8.78979 1.48503 1.457873 0.094237 0.535702
O 3.90077 2.22737 7.79376 -0.106467 -0.446202 0.221345
O 11.0745 10.9981 5.45411 -0.746154 0.2045 1.74671
O 8.32766 10.8463 3.94234 1.375916 0.14613 1.308031
O 9.20713 10.629 0.90647 -0.696272 -1.514405 -0.691259
O 11.8205 0.0001 3.36129 -0.30735 0.841027 1.797842
O 7.76148 2.12578 3.89886 1.070782 1.005454 -0.15721
O 10.0607 9.05619 2.86735 0.387509 -1.350578 -1.156444
O 6.04253 12.0021 7.93393 1.692717 -0.352477 -0.021731
O 8.43639 6.32818 5.89328 -1.81091 -1.214579 -1.24456
O 8.1687 8.70854 10.2615 -0.746593 -0.94802 1.135357
O 9.45308 4.33368 4.00008 -0.52934 -0.419327 0.339253
O 1.50889 12.39235 5.23773 0.199596 0.142117 -1.570501
O 1.51128 3.97518 2.30706 -0.204051 0.488962 -0.074416
O 9.76133 0.48749 10.7103 0.376812 -0.033552 0.040708
O 4.24199 7.82184 7.22466 0.880159 2.082566 -0.660082
O 11.2292 2.75157 0.43055 -1.174055 -0.189234 -0.379253
O 5.51349 12.0329 11.0511 0.580408 -0.28142 0.840345
O 12.2318 8.78652 4.87871 -1.253422 -1.630232 1.027142
O 1.98549 9.85382 6.17284 0.285395 -2.984923 0.488674
O 11.0429 6.04269 9.46256 1.13826 0.280128 -0.540799
O 8.61013 5.11327 9.54755 2.054787 -1.574285 -1.475492
O 4.91894 3.32727 3.35168 -0.186569 -0.375133 -1.280032
O 0.87073 12.1089 8.39022 -0.358795 -0.127952 -0.39212
O 7.72257 4.14686 7.22434 0.944486 1.574423 -0.862701
O 9.24633 9.02657 7.63118 -0.107605 1.600354 -0.598818
O 11.6668 3.40235 2.97479 0.033218 0.40097 0.641728
O 4.16239 9.4329 4.77858 -1.070154 -0.116457 -0.991136
O 3.69858 7.8694 2.55534 -1.225841 0.139747 -0.783037
O 2.45016 9.26648 8.7571 1.499589 -0.484699 1.080029
O 6.81156 6.52013 10.8053 0.182908 0.596415 0.614764
O 1.92168 9.09174 11.3343 -0.395867 -0.230271 0.633744
O 10.5261 3.55959 7.32742 1.934775 -0.77578 0.130565
O 7.66698 11.2342 10.0022 1.037729 -0.161832 0.705946
O 1.25316 1.07282 12.3965 0.988006 0.998603 -1.121723
O 5.79247 11.3984 1.38615 1.444178 -0.965004 -3.592633
O 11.4741 10.2724 9.34879 0.475772 -1.375764 -1.207807
O 5.91558 5.92982 1.30703 -0.041322 -1.413205 -0.053983
O 3.78158 11.8919 9.10811 2.293043 3.225916 1.974816
O 11.8224 7.79921 11.3017 -0.156067 0.811942 0.720609
O 5.58108 4.02282 8.74834 0.05244 -0.002007 -1.200278
O 2.3989 6.87898 5.4707 2.118654 1.369782 0.005131
O 3.63047 1.61376 5.19588 3.134942 1.712275 0.30236
O 8.51421 3.48162 11.8267 0.635998 -0.539482 2.345023
O 11.527 11.1009 12.0011 -1.731178 -0.657946 1.227744
O 2.55787 6.56848 11.0122 -0.575591 1.372422 -0.841242
O 4.73734 3.66033 0.63312 0.654364 0.112171 1.178243
O 4.54027 6.42745 9.51507 0.704307 -0.257981 -0.371876
O 3.15254 5.56941 3.41847 3.398314 -1.59755 -0.751487
O 10.7375 7.1392 1.17535 0.614648 0.427423 -0.072541
O 0.06118 3.86292 10.5852 -2.03174 -0.449675 -1.595949
O 7.51999 1.68976 6.4294 -0.418701 -0.690151 2.239692
O 8.58854 5.34535 1.59652 1.55386 0.087176 -0.925023
O 5.99037 2.34126 11.1384 0.045804 0.077917 -0.604873
O 1.18405 8.08877 2.55567 0.302144 -0.802828 0.511752
Cl 1.48015 11.1153 1.65361 0.279091 -0.939838 0.24065
Cl 11.4765 6.45413 6.48824 0.171996 0.167022 -0.037267
190
energy=-1022.16179792 config_type=nep2xyz pbc="T T T" virial="-11.05764044804396 8.562439886457437 1.9842530980484203 8.562439886457437 -4.615794378140536 -2.6774403942822227 1.9842530980484203 -2.6774403942822227 -18.887586641023642" Lattice="12.4 0.0 0.0 0.0 12.4 0.0 0.0 0.0 12.4" volume=1906.6240000000003 Properties=species:S:1:pos:R:3:force:R:3
H 1.17327 2.15862 11.0231 -0.052137 -0.374646 0.224353
H 0.86183 8.24794 7.80349 -0.672289 -0.376292 -1.545513
H 3.11866 10.0824 6.04652 0.140487 0.255193 -0.194123
H 6.18793 4.66146 6.52704 -0.260119 -0.293687 0.06273
H 0.45474 8.67853 4.5305 -0.295944 -0.829833 0.566654
H 5.15493 8.52066 3.18826 -0.225752 -1.599423 -0.323687
H 8.19953 2.56668 10.8135 -0.263896 -0.385896 -1.172972
H 0.82122 9.19292 9.6815 -0.152463 -0.078469 -0.191055
H 1.42127 9.77535 4.32744 0.52358 0.430988 0.092333
H 6.6733 0.84738 5.82555 0.069842 0.003399 0.136909
H 2.69717 1.06063 6.75138 -0.366163 0.132205 -0.368717
H 2.3345 8.55066 1.9017 -0.778798 0.486218 0.470494
H 12.138 4.25277 12.2059 -0.509634 0.099972 -0.472202
H 2.61492 11.767 2.55572 -1.894334 0.002806 1.44949
H 8.27052 8.40579 2.81859 -0.19868 0.696357 -0.079104
H 10.1639 3.99877 8.20031 -0.160699 -0.524555 -0.231612
H 10.2829 2.4924 3.97834 0.194762 0.405447 -0.648274
H 9.89878 8.23385 4.86402 -1.254122 -0.574908 -0.393182
H 8.59627 3.88155 3.46712 -0.818295 0.104903 -0.130043
H 6.22961 0.14848 2.23818 -0.257072 -0.076058 0.25387
H 3.68684 4.38342 10.8935 -0.094088 -0.56686 -0.248473
H 2.59571 6.17993 10.9919 -0.273287 0.166453 0.12365
H 0.01757 4.5217 1.93529 0.420708 -0.040041 0.667016
H 8.46911 3.6283 6.8407 0.120702 -0.258236 0.29835
H 7.58396 10.2211 0.94418 0.308362 -0.70853 0.592186
H 7.17637 4.10188 2.80003 0.125648 0.249247 -0.149987
H 9.84946 11.8182 1.05042 0.188485 0.221679 0.218007
H 9.01464 8.99545 11.1442 -0.618182 0.696945 -0.013522
H 1.80395 0.69093 11.029 -0.058581 -0.400267 0.343933
H 3.47888 8.47703 0.90878 0.40082 0.559024 -0.936887
H 6.53884 8.80319 8.97777 -0.28709 0.411922 -0.286978
H 10.6912 10.4385 1.13797 -0.884682 0.647066 0.643719
H 6.59163 10.2502 2.10075 0.646361 -0.608339 0.507367
H 7.99678 4.5814 9.48752 0.104953 0.740957 -0.043073
H 4.87533 6.31873 1.53964 0.556193 0.555788 -0.249488
H 2.22045 11.0379 11.9084 0.569261 0.489274 0.189829
H 9.0152 8.51658 8.02925 -1.291554 -0.641381 0.118735
H 6.26843 2.30701 5.65555 0.13998 1.273539 0.249207
H 10.4874 11.1164 3.2553 -0.602202 0.000673 0.228681
H 4.19487 1.45768 6.41155 0.417967 0.006731 -0.614817
H 9.13669 11.819 5.16774 -0.25774 0.36042 0.119991
H 5.32468 8.37549 0.0075 0.51113 -0.411852 0.303453
H 3.57016 8.30245 6.21187 -0.039472 -0.479068 0.157613
H 5.57758 10.1287 8.82411 0.110364 -0.332443 0.062746
H 10.9789 4.50244 10.5522 -0.075736 0.154235 0.976007
H 1.10976 12.3162 4.0301 -0.344061 -0.739411 -0.817151
H 3.22718 11.7239 1.22463 0.685953 -0.223848 -0.408514
H 10.3882 8.92723 8.55853 0.004763 0.08683 -0.483979
H 5.50654 10.846 6.90905 -0.633789 0.344416 0.714209
H 7.0103 4.28618 5.23236 -0.477238 -0.819591 0.757599
H 6.99075 7.12405 0.58173 -0.660988 0.69529 0.721974
H 6.61361 8.49257 1.45316 0.324124 -1.113696 -0.408621
H 2.6226 10.0458 8.23868 0.065115 0.406452 -0.49479
H 3.30362 2.24017 10.3115 -0.398265 -0.231556 -0.389338
H 1.36261 4.27167 12.3242 0.251767 0.118136 -0.262442
H 0.5974 5.2871 3.12474 1.282624 1.085612 0.591629
H 8.25648 5.7285 11.2 -0.029665 0.199651 0.421377
H 10.1595 9.01725 6.34304 -0.365633 -0.513413 0.754215
H 3.59148 5.79155 2.14495 0.526144 -0.240618 -0.500609
H 10.6309 3.5931 2.82416 -0.298988 -0.997292 0.6951
H 3.56453 4.94766 12.3497 -0.657455 0.153963 -0.906651
H 5.15574 1.60264 11.1484 -0.48789 0.341337 -0.464587
H 11.3588 4.96402 8.19988 -0.488863 -0.243098 0.514207
H 4.41065 11.9373 7.42017 1.010172 -0.827623 0.608999
H 2.9941 7.66405 11.1274 -0.365496 -0.101845 -0.038425
H 8.72103 12.1712 6.63042 0.150706 0.214027 -0.201678
H 8.98592 7.50463 11.4756 -0.746526 -0.951396 0.570974
H 5.17075 9.23035 11.0818 0.308923 -0.06639 -0.107751
H 8.85413 1.85614 0.43243 0.004046 -0.338179 0.741786
H 9.23864 1.69547 1.97095 0.604065 0.643026 0.516888
H 11.6884 11.0146 4.1288 -0.526595 0.217787 0.545145
H 4.4968 9.75063 3.72885 -0.022785 0.324829 -0.215049
H 7.58365 0.61283 1.35733 0.484879 0.1981 -0.220641
H 9.37601 5.33153 9.29503 -1.146813 0.019684 0.549952
H 4.28902 2.57448 9.11079 -0.36178 -0.212699 0.891312
H 11.5243 7.8376 1.07756 -0.056412 0.415168 0.031584
H 9.77585 5.91974 5.8589 -0.68061 0.433395 0.444455
H 7.17212 10.7133 5.58138 -0.004677 0.175947 -0.568055
H 2.22837 11.3586 5.77423 0.420942 -0.787482 -0.632744
H 1.62592 11.3228 8.4149 0.228398 0.137568 -0.748171
H 9.70275 6.86889 2.08967 -0.304119 0.390609 -0.323111
H 8.26935 7.26612 3.86777 -0.388038 0.007826 0.069611
H 11.5154 1.33154 5.69373 -0.953346 0.667113 -0.287943
H 1.28171 7.65498 6.34386 -0.283831 0.418605 0.609093
H 0.33284 9.87277 0.36229 0.406706 1.89601 0.23512
H 0.32514 2.4405 0.85363 0.425395 -1.471008 0.46355
H 4.75666 8.47894 7.18978 -0.052178 0.227805 0.01968
H 4.73635 12.222 3.08075 -0.959041 -0.241068 -0.000309
H 7.41696 1.25002 9.15566 -0.37146 -0.359188 0.032977
H 5.72535 0.41734 4.21572 -0.291324 0.451602 0.033672
H 3.96208 6.78449 9.54314 0.789977 0.215278 -0.189139
H 8.92158 5.87114 0.29222 -0.450229 0.32081 -0.384725
H 8.28647 5.65119 5.31937 0.319818 0.505476 0.23843
H 10.5954 5.69018 2.06368 -0.178022 0.634936 -1.33211
H 12.0003 5.50082 5.73728 -1.278627 0.911688 1.850961
H 10.87 10.4672 9.82721 -0.90084 0.867172 1.571891
H 4.3373 6.15704 6.60845 -0.263997 -0.23153 -0.105006
H 6.12167 6.7604 5.75078 0.331793 0.160822 0.326689
H 0.7396 0.38498 2.61213 -0.258663 -0.076933 -0.005039
H 8.30143 11.0669 11.1808 -0.670111 -1.145658 -0.176232
H 5.27173 6.36806 7.89287 -0.333004 -0.563004 -0.72437
H 5.12572 7.69626 9.89737 0.306185 1.176198 0.634072
H 9.57173 11.9901 8.92626 0.136875 0.080184 0.125879
H 11.8261 6.80308 6.61891 0.301029 0.175224 0.173074
H 0.98848 0.99253 0.74258 0.731472 -0.32294 -0.721449
H 7.98064 7.14902 7.20763 -0.525164 0.480018 0.823458
H 4.52502 0.25506 11.7036 -0.038266 0.076071 -0.225898
H 9.01716 10.6972 8.34775 0.165424 -0.242817 -0.36557
H 7.11444 10.2051 10.524 -0.104342 -0.024183 -0.06428
H 6.22661 9.63229 4.81644 0.593549 0.426793 0.295203
H 0.24578 7.90164 10.3267 0.114574 0.226686 -0.255076
H 6.15508 0.5703 0.48284 -0.455725 -0.015218 0.050485
H 7.92876 6.87054 8.73886 -0.471968 0.43012 -0.507226
H 5.54051 4.24445 1.24236 0.709059 -0.057789 -0.071741
H 0.53424 11.1006 1.30243 -0.082436 0.327094 1.466131
H 7.59951 3.34439 12.0097 -0.827434 0.395919 0.637859
H 6.72623 5.05391 0.65719 0.128267 -1.406689 0.465293
H 10.0013 4.04389 11.6315 0.008682 -0.134055 0.347261
H 3.48025 10.5434 11.2173 0.360895 -0.071245 -0.138137
H 11.0023 11.4904 11.0109 -0.383919 -0.476324 -0.331659
H 8.3714 2.2278 8.46833 -0.10285 0.406826 0.048695
H 10.7595 8.65968 0.01837 0.874347 -0.122464 0.630248
H 9.9579 1.03683 5.47392 0.325512 0.714459 0.18574
H 5.28882 6.58229 4.5979 0.107847 0.170431 -0.59604
H 9.78243 2.77084 6.57994 0.479537 -0.466153 -0.28728
H 10.5849 9.62693 4.91889 0.26612 0.914196 -0.516568
O 3.14335 11.3351 11.6473 -1.155484 -0.034574 0.358045
O 5.93971 9.42702 9.44502 0.408762 0.519994 -0.018625
O 7.71879 4.35533 3.56956 0.7895 -0.209912 0.478293
O 0.65804 9.35695 3.9016 -0.147394 0.393781 -0.622031
O 10.8364 4.54421 11.5522 -0.432182 -0.044319 -1.77325
O 8.8323 6.25958 5.86207 0.298803 -0.553993 -0.515451
O 6.17328 6.94134 4.79677 -0.334306 -0.305976 -0.17551
O 11.4822 8.75532 0.74188 -0.889615 -0.353734 -1.225804
O 4.69317 8.72066 11.7526 -1.03228 0.251883 -0.345754
O 9.25929 3.21373 7.28121 -1.106889 0.288867 -0.337156
O 6.66428 0.1948 1.28637 0.236528 -0.179512 -0.203166
O 6.73997 9.85777 5.64518 -0.44396 -0.360323 0.520263
O 0.06042 8.57647 9.64936 0.004395 0.318088 0.098998
O 7.6899 7.58741 8.07559 0.866362 -1.246832 -0.423759
O 4.92832 6.94053 9.37137 -1.393293 -1.808078 -0.43861
O 5.91369 1.41702 5.62377 -0.094562 -1.358563 -0.263211
O 6.28509 7.56392 1.15301 0.374864 -0.04119 -0.505327
O 0.6961 10.8534 0.40551 -0.346657 -2.329495 -1.779867
O 0.54858 8.10777 6.85278 0.879374 -0.342079 0.826525
O 10.621 1.79058 5.49046 0.408165 -0.832793 -0.045479
O 5.31604 0.82338 11.7 0.396257 -0.607869 0.542567
O 9.56293 8.21047 11.2144 1.616934 0.569797 -0.44802
O 3.12481 8.07236 1.68842 0.279712 -0.938294 0.645468
O 0.53733 3.91627 0.28027 0.509658 -0.266448 0.855049
O 1.7228 1.51563 10.5536 0.224237 0.741987 -0.513072
O 8.92421 1.2069 1.20367 -0.245163 -0.092624 -1.356492
O 10.3217 11.0092 10.4884 1.885472 -0.216422 -0.800261
O 4.32889 5.52247 1.54735 -1.283304 -0.263069 0.586453
O 2.00462 10.5327 8.79868 -0.23089 -0.80855 1.248204
O 8.60298 0.07117 5.68279 0.125547 -0.951763 0.138621
O 3.043 4.79369 11.4937 0.917779 -0.203776 1.660449
O 5.06142 11.2235 7.72314 -0.058368 0.693479 -1.314955
O 3.54751 1.34432 7.10611 0.145594 -0.301094 1.207358
O 10.699 11.1061 4.23376 0.920722 -0.734761 -0.75454
O 8.84021 7.89983 3.40957 0.658965 -0.716261 0.178433
O 8.41105 2.98636 11.6515 1.130269 -0.001952 0.675889
O 7.71373 2.16142 9.19861 0.421028 -0.074458 -0.030082
O 10.4757 8.76481 5.42853 0.881443 0.745794 -0.095381
O 0.96372 11.9558 3.09351 0.207663 1.302166 0.815827
O 10.7747 4.46257 8.82703 0.850933 1.22561 -0.086206
O 9.05187 11.6535 8.18881 -0.66418 0.853106 -0.072233
O 3.46808 11.7331 2.16049 1.276522 0.064788 -1.120802
O 5.63145 12.2178 3.45217 1.019844 0.028079 -0.004846
O 4.17536 2.62074 10.0911 0.708549 0.534746 -0.741976
O 2.76984 10.643 5.32428 -0.275547 0.426979 0.453241
O 7.40366 9.7631 1.8073 -0.985551 1.375069 -0.960273
O 10.1554 6.31678 1.40787 0.611439 -0.921262 2.102849
O 0.30932 1.46791 1.19434 -0.912516 1.483622 0.25694
O 9.70174 9.19242 7.90507 1.627366 0.002065 0.258142
O 10.0434 11.0445 1.59846 0.856541 -0.845441 -0.473011
O 9.97521 2.9072 3.10348 0.369712 0.40415 0.389511
O 8.12404 6.08777 12.1253 0.239423 -0.375895 0.295184
O 6.49762 4.13492 1.00428 -0.408078 1.176174 -0.488463
O 5.1845 5.88444 7.00428 0.38419 0.638201 1.149959
O 5.34474 9.41689 3.39395 -0.248808 1.346202 0.595058
O 11.4112 5.91542 6.47055 1.347113 -1.201927 -1.984238
O 3.85201 8.77759 7.02312 -0.264456 -0.04335 -0.129388
O 12.2918 4.71226 2.90595 -1.641562 -1.007984 -1.452171
O 6.73316 3.92961 6.14048 0.966141 0.764386 -1.255789
O 8.39925 5.47242 9.61444 1.143349 -1.035202 -0.681247
O 7.75048 10.2467 11.2692 0.669399 1.155861 0.363161
O 2.3023 7.09224 10.736 0.515405 0.595344 -0.145377
Cl 0.75003 0.29116 6.07618 0.018334 0.143146 0.26372
Cl 2.75991 6.70283 5.04229 -0.056068 -0.075032 -0.07437
190
energy=-1020.89434667 config_type=nep2xyz pbc="T T T" virial="-19.17640476427848 0.9034402258451129 -2.153878706984328 0.9034402258451129 -17.089774150187154 6.142984168485129 -2.153878706984328 6.142984168485129 -14.658227817743196" Lattice="12.4 0.0 0.0 0.0 12.4 0.0 0.0 0.0 12.4" volume=1906.6240000000003 Properties=species:S:1:pos:R:3:force:R:3
H 0.65158 1.28948 10.7143 0.920844 1.775548 0.581726
H 1.85609 6.28364 7.635 0.940986 -0.083482 1.344084
H 1.97326 10.5603 4.61648 1.097 -0.60614 0.294706
H 6.50281 3.92338 5.87604 -0.141502 -0.014344 0.042338
H 0.53365 7.12429 3.60117 1.854224 0.180194 0.328133
H 2.60415 10.3472 2.02361 0.292427 -0.045255 -0.318992
H 8.30615 1.46392 11.9311 0.193941 -0.139016 -0.208182
H 0.98918 8.55866 9.53013 1.156634 0.055759 0.058712
H 11.7742 8.21776 3.65232 0.748346 -2.019041 -0.775073
H 7.06735 0.15711 6.43034 0.351379 0.477338 0.094496
H 2.65612 2.03418 9.5917 0.504787 -0.043713 -0.737637
H 2.51691 7.63163 0.44425 0.120887 0.032724 -0.318277
H 12.0673 3.83141 0.54094 0.65987 0.10795 -0.188057
H 1.4812 0.94109 3.52279 -0.39219 -0.656082 -0.509876
H 7.64075 9.12494 3.40751 1.52856 -0.959777 -0.125933
H 10.1697 3.74153 8.37717 -0.51987 0.075796 0.336143
H 10.5576 2.04317 4.30123 0.227961 -0.182177 0.408793
H 9.38828 8.49587 5.42075 0.244407 0.213068 -0.357075
H 9.13149 3.56548 3.4207 0.850435 -0.888488 -0.608597
H 4.42164 12.2183 3.93956 0.881226 -0.077605 0.044793
H 3.04475 4.00074 11.619 -0.770517 0.629556 -0.183627
H 2.5645 5.34232 9.78151 -0.1841 2.276849 -1.22996
H 0.22361 4.14669 2.6826 0.408533 0.024974 -0.500314
H 8.43971 2.94582 7.5594 -0.494234 0.291887 -0.157195
H 6.68477 10.1807 0.93824 -0.444617 0.079626 0.224697
H 7.84206 4.40905 3.20835 -0.250862 -0.138694 -0.634506
H 10.0924 12.0373 2.00439 0.183882 -0.22448 -0.221297
H 7.98817 8.9657 10.0425 1.083574 -0.584747 0.109002
H 0.63626 2.91329 10.8682 1.15552 -1.852245 0.166479
H 2.17554 8.93643 12.0918 0.285734 0.185005 0.029446
H 6.29148 9.91692 7.91418 -0.159712 0.360575 -0.585378
H 10.7569 11.0757 0.96402 0.247494 0.185151 -0.090551
H 5.47768 9.81714 1.84987 -0.513172 0.222025 0.12851
H 7.81786 6.00468 8.99136 -0.110528 0.077148 -0.100814
H 4.8369 7.10919 0.69773 -1.31414 -0.813897 0.709251
H 2.51403 11.5969 11.7555 0.721278 -0.220675 -0.434065
H 11.4164 7.96921 8.31449 -0.031244 -0.342371 0.006618
H 6.87939 1.77665 6.21618 -0.024803 -0.31705 -0.066206
H 11.2246 10.342 3.08817 -0.338607 0.110254 -0.439414
H 2.4834 1.6363 8.13892 0.003622 -0.290244 -0.372921
H 7.79974 10.7112 6.45241 0.091713 0.522778 -0.41662
H 5.29781 7.5143 11.0057 0.063313 0.283967 -0.738529
H 3.62297 8.03723 6.04621 -0.402117 -0.664149 -1.164938
H 5.23367 10.791 8.71837 -0.009915 0.942534 -0.365821
H 11.1574 4.15154 10.0697 0.10731 0.073401 0.599058
H 0.62401 1.69821 1.63038 0.127538 -0.317089 0.03991
H 2.82912 1.84084 3.55234 0.107822 -0.043668 0.239169
H 12.1338 7.1605 7.2714 -0.270086 -0.001869 -0.571909
H 5.76514 0.82423 7.83714 0.438838 0.213727 0.635062
H 7.93173 3.69137 5.27768 -0.157858 -0.080607 -0.365623
H 7.07291 7.04982 0.35832 -0.843809 0.184704 -0.443336
H 6.39915 8.447 0.62918 -0.090971 0.546909 0.624004
H 2.49795 9.30996 8.23802 -0.063824 0.181909 0.645726
H 4.51995 3.56067 9.29957 -0.11034 -0.386603 -1.018747
H 1.21855 3.99288 0.34375 0.129975 0.380155 -0.139255
H 12.1882 5.31324 3.50524 -0.723842 3.019571 -0.309969
H 8.47397 6.10605 11.5104 -0.170149 -0.369232 -0.032939
H 10.5754 8.38151 6.57482 0.751706 0.455025 -0.842736
H 3.70727 7.01301 1.92925 0.405681 -0.734478 -1.345574
H 11.2212 2.67157 3.03445 -0.525593 -0.149862 0.481673
H 3.00484 5.39867 12.26916 -0.763577 -0.173453 -0.291388
H 4.58686 2.46215 11.2562 0.039319 0.118241 -0.08378
H 10.8058 4.89758 7.65911 0.117913 0.124491 0.315987
H 4.60825 1.22695 8.75211 -0.033343 0.022891 0.504393
H 3.24144 6.7741 9.58124 -0.317185 -0.152871 -0.141442
H 8.95153 11.1182 7.44896 -0.299678 0.61425 0.134559
H 8.9933 7.75376 9.78123 -0.408188 -0.685506 -0.03782
H 5.2285 8.39287 9.66666 -0.223138 -0.950915 0.35721
H 8.63268 0.70711 1.68441 -0.015177 -0.463227 -0.170268
H 9.05765 0.77959 3.13017 -0.475344 -1.089256 -0.659325
H 12.3469 10.2535 4.14851 -0.226335 -0.172372 0.170534
H 3.20099 9.29393 2.97842 -0.196043 -1.099354 0.606659
H 6.86457 0.62787 2.74557 1.087991 -0.436876 0.538892
H 9.33854 5.55683 9.21254 -0.562185 0.299775 -0.000117
H 4.91579 4.79615 10.1494 0.046128 -0.296245 -0.083241
H 10.9646 9.72381 11.9014 -0.493453 -0.992044 0.106618
H 9.67493 5.99395 6.16072 0.758605 -0.265587 0.007955
H 5.40713 11.0136 5.23402 0.798719 -1.217464 0.171915
H 1.06954 11.5241 5.51717 0.253109 0.106055 0.860627
H 1.65012 10.5648 8.27533 -0.091687 0.058948 0.649689
H 9.44669 8.05625 2.0095 0.450464 0.066698 -0.599729
H 7.75403 7.65277 3.68453 -0.074277 -0.578507 0.215375
H 11.1032 0.62852 6.58377 -0.312609 0.528888 -0.698718
H 1.91284 6.20223 6.07516 0.448931 0.27435 -0.681377
H 0.73384 10.835 0.23904 -0.404936 0.23735 0.572789
H 3.69314 2.58565 1.83883 0.350373 -0.019001 -0.440047
H 4.18381 9.35593 6.55387 -0.096143 -0.308225 0.277164
H 2.86177 0.45003 4.51202 -0.708876 0.486079 -0.1941
H 6.97507 1.09803 9.8957 0.894095 -0.41607 -0.095772
H 4.90005 0.34195 5.35623 1.902233 1.826067 0.975621
H 4.40088 5.84069 8.14793 -0.445776 0.897948 0.516314
H 9.15112 6.51998 0.4531 -0.638053 -0.322212 -0.040446
H 8.40729 5.874 5.27789 0.8852 0.720261 0.140825
H 10.8838 7.55085 1.74629 -0.422913 0.281969 -0.434331
H 11.6404 4.6438 5.19393 -0.264699 0.111917 1.142858
H 12.0216 11.857 10.7943 0.091373 0.435071 -0.735361
H 4.35474 4.36396 4.47273 0.788236 0.562986 0.649493
H 5.83501 5.89426 4.5266 0.549856 0.846337 -0.685661
H 12.1972 0.45662 2.14326 -0.693591 -0.083108 -0.143029
H 7.17791 11.1452 11.3546 0.012833 0.430064 -0.447953
H 4.5472 5.31889 5.7324 -0.228541 0.113885 0.904971
H 5.68783 6.51713 7.42088 -0.178174 0.624164 0.695758
H 10.2521 11.7041 9.51461 0.148576 -0.459061 -1.144145
H 12.3182 5.21223 6.54691 -1.565539 -0.383803 -1.232721
H 4.66316 2.10128 3.00157 -0.463815 0.782184 -1.006131
H 7.89657 7.199 6.7428 0.108424 0.171109 0.128607
H 3.98934 1.1402 11.8849 0.273184 0.757282 -0.197603
H 9.70038 10.2752 9.4129 0.507791 0.402562 -1.087702
H 5.64265 10.8565 11.3525 0.214636 0.054619 0.09237
H 6.042 9.50077 5.43181 -0.285613 0.145973 -0.226065
H 0.29935 7.18332 10.1758 0.887277 0.774068 -0.166368
H 5.92676 0.70277 1.61094 -0.452767 -0.312295 -2.400235
H 7.79633 8.16609 7.97363 -0.079679 -0.319993 -0.084135
H 6.18688 4.03845 1.11954 0.35334 0.060506 -0.00977
H 1.04552 11.9424 1.41187 -0.08299 0.099868 -0.698661
H 8.34643 2.44936 0.76248 0.782891 -1.002193 -0.948433
H 7.58854 4.72291 0.83397 0.049392 0.473132 -0.366239
H 10.5844 3.13928 11.0732 -0.336957 -0.446274 0.20561
H 3.05578 10.8906 10.4207 -0.164561 0.561761 0.343274
H 0.33959 0.05674 9.44486 -1.001779 -0.237158 0.411398
H 8.55397 1.27314 9.75919 -0.237085 0.223284 -0.419131
H 12.2125 9.66372 10.9813 -0.097439 -0.920605 -0.407
H 9.62312 0.30833 6.29723 0.497079 0.539361 -0.745823
H 5.56188 7.02364 3.51848 -0.130202 0.176915 -0.080906
H 9.56155 1.9351 7.55918 0.393929 -0.326731 -0.429765
H 10.5759 9.54321 5.04551 0.521564 -0.5016 0.073884
O 3.27991 11.5467 11.1178 -0.356555 -0.32814 0.153491
O 5.77654 10.0107 8.71228 0.147319 -1.26994 1.100259
O 8.54312 4.18393 3.8283 -0.507857 1.053799 1.083394
O 12.0368 7.24764 3.35656 -2.323523 1.675319 0.124599
O 11.2492 3.82397 11.0052 0.342025 0.368198 -0.534566
O 9.00166 6.52759 5.7287 -1.395022 -0.581656 -0.474979
O 6.27706 6.69851 4.07566 -0.03612 -0.684756 0.399896
O 11.6293 10.2487 11.4705 0.609603 1.220312 0.269565
O 4.99032 7.50751 10.0642 0.11574 0.671683 0.187321
O 9.11375 2.56362 8.14059 0.015848 -0.332363 0.303967
O 5.98222 0.90412 2.51273 -1.124004 0.679811 2.03149
O 6.2117 10.4528 5.4692 -0.334741 0.070428 0.131379
O 0.22365 8.00055 9.65558 -2.211841 -0.403531 0.22696
O 7.2571 7.66117 7.34223 -0.12002 0.355266 0.056607
O 5.10958 5.7516 7.52088 0.472281 -1.217705 -1.153731
O 6.43444 0.89519 6.29497 -0.665124 0.036007 -0.472704
O 6.23851 7.59377 0.20127 0.510304 -1.396311 -0.478208
O 1.40293 11.3283 0.74137 0.971102 -1.062194 -0.514755
O 1.34017 6.24815 6.83507 -1.780186 -0.138134 -0.567112
O 10.3315 0.97716 6.05616 -0.15699 -1.203897 1.372683
O 4.39178 2.01488 12.0932 -0.328138 -1.011602 0.702604
O 8.94353 8.70651 9.962 -1.044296 1.640427 0.045071
O 1.81549 8.07989 12.3284 -0.435034 -0.072631 0.011196
O 0.52651 3.79443 1.00817 -0.922258 -0.67485 0.553404
O 1.27343 2.11209 10.9494 -1.719857 0.452004 -0.700911
O 8.63187 0.11433 2.50224 0.569201 1.924302 0.611685
O 12.084 0.23396 10.1821 0.509829 -0.512876 0.029474
O 3.91431 6.68551 0.99354 0.886469 1.108892 0.954041
O 2.0022 9.87513 8.89226 0.501434 -0.271012 -1.279191
O 8.30936 11.4795 6.7787 0.58856 -0.883042 0.406772
O 2.43491 4.77841 11.7317 1.428621 -0.537878 0.643972
O 5.54345 0.91071 8.8023 -0.076521 -0.367936 -0.542759
O 3.18209 1.9571 8.72896 -1.070136 0.540212 1.334321
O 11.4951 9.79481 3.83927 0.386833 0.559535 0.396561
O 8.34854 8.41078 3.55458 -1.242463 1.606424 -0.210477
O 8.86364 1.69641 0.31275 -1.313725 1.354764 1.143859
O 7.86833 0.84635 10.2853 -0.916317 0.08101 0.536789
O 10.11 9.05272 5.80623 -0.987499 -0.984939 1.131952
O 0.67955 0.86427 2.1577 0.040574 1.24994 0.4733
O 10.5156 4.65381 8.56962 0.189236 -0.032607 -0.299499
O 10.077 11.0066 8.8304 -0.61597 -0.296209 1.763844
O 2.26078 1.16176 4.09327 1.167996 0.774296 0.533429
O 4.3121 12.1698 4.90389 -2.447756 -1.464057 -1.382674
O 4.5608 3.89287 10.1879 0.337917 0.709438 0.764403
O 1.17648 11.0614 4.67197 -1.209202 0.355565 -1.049425
O 6.41795 9.64641 1.72481 0.541699 0.249392 0.276722
O 10.0949 7.90933 1.25939 -0.065465 -0.366242 1.196069
O 3.88219 2.70062 2.78023 0.356068 -0.959486 1.198326
O 11.2215 7.4771 7.47599 -0.000776 0.958198 0.183004
O 10.9714 11.7532 1.61552 -0.356616 -0.262153 0.683118
O 10.4783 2.11117 3.34023 0.073827 0.322602 -0.432375
O 8.38453 5.98415 0.08087 1.05792 0.974575 -0.055589
O 7.12541 4.05109 1.36123 -0.226074 -0.777508 0.483413
O 5.00815 4.73491 5.12221 -0.663091 -1.245556 -1.354459
O 3.42893 10.0634 2.46639 0.099127 1.193759 -0.417401
O 11.4102 4.93859 6.12233 2.011779 0.236252 -0.057672
O 3.72342 8.54922 6.84116 0.317722 1.305415 1.328154
O 12.3376 4.40703 3.57482 0.313177 -2.760643 0.48859
O 7.34307 3.45636 6.03016 0.171666 -0.246571 0.670523
O 8.57864 6.13092 9.56985 0.763889 -0.474274 0.265522
O 6.49857 10.5738 11.7221 -0.107053 0.061012 -0.066377
O 2.55702 6.18858 9.16839 0.881385 -1.951076 1.659277
Cl 0.99092 0.1331 7.385 -0.108994 -0.176099 -0.238159
Cl 2.9859 7.39894 4.15935 -0.079886 -0.139295 -0.33718
190
energy=-1022.90526323 config_type=nep2xyz pbc="T T T" virial="-5.006240304139352 -3.7580985637413065 1.4758998805288395 -3.7580985637413065 -13.874979723948924 -2.6426917778873267 1.4758998805288395 -2.6426917778873267 -12.4652807177368" Lattice="12.4 0.0 0.0 0.0 12.4 0.0 0.0 0.0 12.4" volume=1906.6240000000003 Properties=species:S:1:pos:R:3:force:R:3
H 10.6486 2.95834 8.00755 0.36744 0.722303 0.566309
H 9.22158 8.36349 6.47787 -0.255306 0.22846 -0.488639
H 1.30408 2.39017 5.98453 1.51117 -0.986201 1.348804
H 8.22714 3.50907 2.71153 -0.309302 -0.224093 -0.455409
H 1.11101 9.95521 3.40643 -0.153856 -1.258378 0.382455
H 4.45784 9.9316 5.96512 -0.150312 -0.21858 0.452728
H 8.86243 3.66199 0.86834 -0.179998 -0.259881 0.253287
H 2.63563 9.95414 9.07197 -0.40618 0.132725 -0.686033
H 1.72869 10.4964 1.88271 -0.730503 -0.103339 1.632691
H 5.97792 1.37945 8.58348 -0.255141 0.119604 0.321329
H 3.87608 4.14718 7.39045 -0.1095 0.199634 0.409062
H 3.59419 7.51806 3.8538 0.198345 -0.985512 -0.19833
H 0.21922 2.90485 9.22167 0.040042 0.261219 -0.186368
H 2.50735 11.7303 3.77859 -0.348501 -0.458875 0.337151
H 5.43935 5.20937 5.34365 -0.639312 -0.040753 1.139136
H 0.80549 6.38782 9.34247 -0.281024 0.22186 -0.597225
H 10.1213 11.0265 4.33977 -0.856204 -0.00527 -0.868328
H 5.97528 6.07541 8.17412 -0.649945 0.930648 -0.591825
H 10.5752 3.37552 3.21873 -0.115919 0.547644 0.06073
H 5.44367 1.47396 2.29467 1.119747 -0.827597 -1.404981
H 4.40249 4.94066 11.86 0.895952 -0.640139 -0.688005
H 2.69398 6.54664 11.1252 -0.612289 0.647258 0.544518
H 1.99414 2.03002 0.74605 -0.579744 0.21204 0.400182
H 7.07461 3.70217 8.0048 -0.019175 -0.992868 0.387169
H 6.85156 10.566 3.06329 0.516646 -0.536927 0.165716
H 9.81598 3.66452 4.53711 0.29988 0.107039 -0.709729
H 10.6431 9.32684 2.75326 0.130191 -1.27432 0.340961
H 7.29362 10.2528 11.72 -0.078887 -0.261763 -0.468275
H 10.3876 2.67666 9.48826 0.38428 1.535177 -0.134356
H 2.91916 6.11107 4.33951 0.355701 -0.09964 -0.285109
H 6.41385 9.27984 9.91169 -0.088144 0.45754 -0.002173
H 11.41 8.27339 1.87708 0.594474 -0.375185 -0.656474
H 5.96618 10.1357 4.4867 -0.078414 0.235419 -0.274601
H 8.52655 6.14408 10.1743 -0.338367 0.018319 0.513482
H 5.65878 7.63047 2.50257 -0.199869 -0.119635 0.430044
H 1.72885 1.23992 10.9434 -0.227648 -0.522537 0.320955
H 0.55256 10.0854 5.85072 -0.281634 -0.390123 0.969618
H 6.238 0.321 7.57924 -0.04147 -0.678943 -0.710271
H 12.2845 8.3905 3.87635 0.190244 -0.306956 -0.191291
H 3.20631 3.10745 6.38683 1.844588 1.793364 0.042232
H 10.904 10.5649 8.35897 -1.233685 -0.526055 0.514547
H 4.64502 8.54775 1.21322 -0.407292 0.282297 -0.784911
H 3.23639 7.99482 5.96389 -0.126216 0.115519 0.255028
H 5.33127 10.4268 10.3954 1.305931 -2.564126 0.313358
H 11.7321 5.33131 10.8494 -0.075972 -0.206508 0.579026
H 0.03346 2.51697 3.81839 0.049516 -0.225619 1.560278
H 3.0949 0.7283 3.9675 0.425542 -1.091746 0.753569
H 0.61896 9.94812 7.44462 0.602277 -0.50324 -0.049929
H 2.70829 0.68781 5.96161 0.014636 -0.134449 -0.224858
H 7.22506 2.4875 1.8967 0.521199 0.870258 -0.122226
H 7.76884 6.63285 2.12804 -0.82368 -0.484865 -0.483456
H 6.45986 5.83021 1.60706 0.819486 1.050459 0.016116
H 0.95514 11.5356 8.6473 0.073674 0.026712 -0.513617
H 6.74077 0.97074 5.72191 -0.983062 0.203942 -0.293548
H 1.81322 3.05625 9.04515 -0.261444 0.255007 0.144347
H 2.54189 3.36485 1.32358 -0.889092 -0.352459 0.621733
H 9.66987 7.99777 10.7464 -1.074942 -0.833995 -2.019022
H 8.02636 7.27433 4.85497 0.024228 1.323536 -0.27309
H 4.40683 6.95777 2.03614 -0.201831 -0.01948 0.799271
H 10.8856 11.9202 2.45295 0.815899 0.719465 0.219684
H 5.75202 4.78202 11.0467 1.258417 0.592434 -0.069919
H 4.0401 1.23779 11.8754 -0.990559 0.229373 -0.047626
H 0.78026 6.79446 7.81466 -0.383952 -0.112038 -0.289002
H 3.22677 1.23396 7.37189 -0.761196 0.232683 -1.351463
H 3.21184 7.65366 12.0503 0.273151 0.484954 0.311072
H 10.0268 11.2046 9.47537 0.146172 -0.443997 0.062949
H 8.65167 9.55386 12.0608 0.658552 -0.802361 -0.254736
H 5.0574 9.14411 12.1267 -0.750489 -0.842664 0.315327
H 7.77027 11.0125 1.31729 -0.132573 0.597883 1.18887
H 9.06468 11.1925 3.0771 -1.92957 0.566106 -0.254322
H 1.45415 8.01539 4.41117 -1.731868 0.450985 -0.098237
H 4.20388 11.3175 5.39796 0.506706 0.103593 -0.137333
H 7.10698 12.3266 2.01407 -0.17274 -0.213454 0.071738
H 9.91528 6.27132 9.52713 -0.442737 -0.021942 -0.317984
H 8.06481 0.55555 6.00969 1.921127 0.034229 0.193655
H 12.0787 6.44436 0.55295 0.209108 -0.565149 -0.035235
H 9.24847 5.66628 3.57151 1.072052 -1.82919 0.319637
H 7.34852 10.7377 7.6677 0.327642 -0.654294 0.484772
H 12.2791 3.03154 6.01765 1.725305 -0.979852 -1.531585
H 0.55466 0.56524 9.10666 0.032191 0.917077 -0.485672
H 11.0205 4.20724 0.35938 -1.115494 -0.697291 0.061283
H 5.11752 4.84281 3.87332 1.080618 0.896516 0.69313
H 10.2529 12.2051 5.95043 -0.485861 1.126912 0.055088
H 9.12377 7.66411 7.81961 -0.810482 -0.791196 1.240774
H 2.95746 9.82189 0.35176 1.577601 -1.034829 -0.143624
H 11.8627 1.00038 2.57072 0.32083 1.049349 0.68817
H 2.92545 8.976 7.25231 0.498837 -0.322819 -0.659066
H 4.85063 2.06071 3.95471 -0.199395 0.304728 0.063262
H 9.24452 1.29518 10.6114 -0.318217 0.120343 -0.151141
H 4.03781 2.85469 2.82121 0.441811 -1.289887 0.479701
H 2.67392 5.36726 8.85878 0.660689 -0.812784 0.065199
H 10.6405 7.94808 11.8109 1.857541 -1.471066 1.524705
H 9.68018 6.95728 2.79146 0.85744 0.392806 0.257477
H 0.21811 3.93314 0.38573 -1.037791 0.765712 0.119794
H 12.3465 7.10703 5.753 0.313241 0.574293 -0.938342
H 0.09297 10.4196 10.4743 0.022516 0.359154 0.204179
H 5.36716 8.05391 6.98506 -1.266449 0.814637 0.012227
H 6.36904 3.37827 5.05641 0.896427 1.722692 -0.759537
H 0.71632 2.41731 2.49549 0.181068 0.249406 -0.888402
H 4.4199 12.0493 9.15193 -0.322417 -0.752325 0.133891
H 6.73025 8.60097 7.65649 0.229638 1.294982 0.600002
H 3.89023 4.61384 9.79824 -1.121314 0.026743 -1.716995
H 10.8308 12.2082 11.3439 0.6755 -0.486559 0.408997
H 11.3202 7.31007 6.86391 -1.730991 0.838948 0.426565
H 0.07494 11.8567 2.28258 -0.008553 0.233692 0.243615
H 7.19512 7.90555 5.99397 -0.03895 0.810874 -0.683864
H 5.0645 2.43038 11.5235 -0.672815 -1.12469 0.047312
H 9.34302 11.6741 11.4461 -0.336346 -0.780982 0.514494
H 3.11089 11.9485 10.0005 -0.386083 0.179594 0.278533
H 8.68319 10.1752 8.34399 -0.589046 -0.360547 0.002984
H 1.89982 8.62457 8.76325 -0.605164 -2.222491 0.662943
H 5.82156 1.17826 0.70881 0.332311 0.02415 0.750826
H 7.40868 5.82454 8.65781 -1.374472 -0.857094 -0.189685
H 8.50069 4.93564 11.9602 0.267452 -0.133524 -0.283919
H 1.49436 10.0792 12.3755 -1.297921 -0.298034 -0.926796
H 9.33052 3.20474 11.8483 0.103353 -0.019686 -0.179599
H 7.61448 6.0531 0.0091 -0.634794 1.14813 1.004357
H 11.2964 4.8627 9.3887 0.584197 1.766829 1.491364
H 1.86382 12.38499 12.0394 0.026654 0.62882 -0.734309
H 11.6883 9.57017 11.4741 0.384434 1.076153 -0.119913
H 8.41538 2.47926 9.74104 -0.167274 -0.456021 0.249242
H 0.73257 7.40544 12.3661 1.347383 -0.13365 -0.548003
H 10.9499 10.9593 6.15279 2.663032 -1.684786 1.139764
H 5.05384 3.06027 5.89506 1.182737 0.013604 -0.302464
H 7.62968 2.2042 7.62604 -0.039316 0.807608 -0.013597
H 7.02203 9.03627 4.02486 1.077896 -0.495095 0.756511
O 2.04665 0.92902 11.8174 0.424508 -0.085377 0.453275
O 5.86418 9.54764 10.6698 -1.268697 2.733986 -0.393008
O 9.99125 4.04663 3.63703 -0.212098 -1.067022 0.936466
O 1.26144 10.687 2.8151 0.906614 1.777957 -2.391639
O 11.5496 5.71241 9.97789 -0.548775 -1.712908 -1.765466
O 8.95384 6.44514 3.14962 -1.676595 1.877396 -0.566727
O 5.88428 2.66317 5.40398 -1.807744 -2.199495 0.794441
O 12.312 7.37816 0.44262 -1.839858 0.629013 0.672305
O 4.32443 8.7476 0.28288 0.903306 0.636569 0.23395
O 7.22208 2.7598 8.31864 0.272457 0.289489 -0.064524
O 6.22906 1.14329 1.63713 -1.497789 0.758002 0.404637
O 7.68535 10.0218 8.25733 -0.325555 0.617995 -0.564718
O 1.95945 9.52112 8.48078 1.016641 1.769435 0.444908
O 6.50026 5.3781 8.5321 2.368606 -0.352413 0.607308
O 3.24923 4.54539 8.95878 0.234838 0.747489 1.205228
O 5.63836 0.50519 8.3149 -0.177511 0.479092 0.400344
O 6.98952 6.67208 1.46547 -0.327032 -0.724461 0.910762
O 2.27048 10.4785 0.35065 -0.519779 1.595435 1.098415
O 9.734 8.07813 7.23802 1.386965 0.422135 -0.877902
O 10.1123 11.2537 5.89769 -1.983236 0.351836 -1.358494
O 4.93422 1.4449 11.612 1.564902 1.057758 0.028066
O 8.19197 10.3951 12.0655 -0.573121 1.26978 0.822279
O 2.88761 7.06869 4.37688 -0.69543 1.159461 0.796006
O 1.08342 2.45601 9.28875 0.329218 -0.413511 0.272786
O 10.8972 3.34477 8.90417 -0.790175 -2.095247 -0.564407
O 7.58428 11.4515 2.2309 -0.064524 -0.617712 -1.548803
O 12.2809 10.3724 11.4206 -0.527544 -1.283615 0.070105
O 4.68153 7.69509 2.63995 0.592977 -0.059209 -1.149535
O 0.88816 12.1236 9.4003 0.110785 -0.955078 0.753063
O 10.1385 10.3682 8.96734 1.290843 1.118242 -0.541939
O 4.82968 4.5548 11.0424 -1.841024 -0.081059 1.068686
O 2.71034 1.47005 6.5464 0.837474 -0.215623 1.731364
O 3.9138 3.88825 6.44386 -1.854675 -1.882433 -0.439986
O 0.57521 8.53527 4.56556 1.765146 -0.183362 -0.230349
O 5.79277 5.28982 4.47251 -0.254864 -0.539423 -1.793539
O 9.52174 3.86656 0.15446 -0.095374 -0.365564 -0.184765
O 8.99191 2.24716 10.5058 0.346602 0.373771 -0.278513
O 7.76655 8.18083 5.18439 0.089312 -2.045368 -0.077223
O 12.2496 2.23027 2.92096 -0.548519 0.621431 -0.079138
O 1.36506 6.71862 8.60567 1.069594 0.003401 1.225287
O 9.93726 12.3081 11.0341 -0.411403 0.747824 -0.94019
O 2.9805 12.2509 4.45992 -0.169065 1.428869 -1.17455
O 4.25732 1.92061 3.16773 0.091314 1.302949 -0.026506
O 7.2083 0.15662 5.96562 -0.910776 0.026993 0.182145
O 0.63619 2.69564 5.41143 -3.539962 2.055905 0.104913
O 6.46611 9.76975 3.67598 -1.512166 1.358735 0.113202
O 11.8935 4.60203 0.26584 2.690634 0.310607 -0.262285
O 11.7188 0.10109 2.1142 -1.314629 -3.526186 -0.587773
O 0.13771 10.3343 6.70954 -0.458061 0.86762 -0.961218
O 10.9908 8.37229 2.73771 -0.732055 1.550414 0.214046
O 9.93266 10.918 3.31231 3.11512 -0.262906 0.776619
O 10.0152 8.52333 11.4351 -0.638111 2.00704 0.70183
O 7.86276 5.59938 11.6105 0.007718 -0.677264 -1.341396
O 6.28236 7.89714 7.18692 0.722814 -1.801951 -0.05576
O 4.92488 10.7727 5.7854 0.076896 -0.097067 -0.813594
O 12.1605 6.92906 6.66281 1.071668 -1.359043 0.572371
O 3.61165 8.6439 6.59677 -0.153535 -0.241347 0.088783
O 1.79457 2.71081 1.45433 1.748929 0.375653 -1.540421
O 7.72193 3.37045 1.8787 -0.233622 -0.521769 0.816084
O 8.95445 6.46 9.34819 0.652261 0.195968 0.15739
O 3.78505 11.3999 9.59619 1.027226 0.262164 -0.415011
O 2.38578 7.21029 11.7852 0.272032 -1.098193 -1.1021
Cl 4.25167 4.77958 1.81131 -0.287345 -0.280491 -0.171584
Cl 9.95793 1.84802 6.15513 -0.092776 0.511594 0.160521
190
energy=-1022.97653776 config_type=nep2xyz pbc="T T T" virial="-24.770753500690358 0.942187313167641 -6.1771496745364125 0.942187313167641 -17.525714583198877 4.5548057962830555 -6.1771496745364125 4.5548057962830555 -23.584956966214527" Lattice="12.4 0.0 0.0 0.0 12.4 0.0 0.0 0.0 12.4" volume=1906.6240000000003 Properties=species:S:1:pos:R:3:force:R:3
H 0.42001 10.9141 7.21871 -1.082735 0.106555 0.837629
H 4.66845 3.55137 5.93069 0.1215 0.6278 0.286948
H 3.89917 7.60129 5.43166 0.592226 0.384716 -0.991455
H 9.63885 4.5993 6.65233 0.5705 -2.11715 -0.829264
H 1.74149 4.64903 11.2087 0.23704 0.357203 -0.117857
H 4.27457 5.86551 6.99485 0.16673 -0.44055 -0.209201
H 9.37309 6.36052 2.11996 -1.038686 0.175048 -1.328504
H 0.0376 10.3857 8.55765 -0.665935 0.099119 -0.118694
H 1.97699 5.82827 12.2668 0.038425 -0.284354 0.307126
H 9.56877 0.50938 6.837 -0.786375 0.48559 -0.277274
H 1.70818 4.56437 6.77741 -0.378153 -0.222233 0.709664
H 2.70508 2.46254 1.06805 -0.363001 -0.02205 0.140841
H 9.35681 0.87809 0.79854 -0.703766 0.182019 0.770985
H 11.1059 0.17108 3.90271 2.180405 0.482664 0.143223
H 6.45554 8.46615 5.46828 1.832511 0.510282 -0.101487
H 12.233 4.18829 10.3035 0.121671 0.075167 -0.297914
H 11.1702 4.19523 0.36922 -0.295052 -0.129994 -0.504384
H 10.3864 7.8648 10.329 -0.325632 -0.472516 0.791588
H 7.42684 9.48604 0.91838 -0.338645 0.751035 -1.307771
H 4.72596 11.4839 2.00797 -0.202576 -0.379794 -0.269897
H 0.67893 2.88189 9.96151 0.067059 -0.218679 -0.030104
H 1.58586 9.38837 9.36139 -0.453034 -0.875109 -0.023745
H 12.2209 7.12437 0.62264 -0.201388 0.1617 -0.079961
H 11.3718 2.67985 6.18215 -0.540443 -0.100803 0.336638
H 5.41803 0.43362 1.43885 0.244389 -1.16949 -0.520223
H 8.20128 8.33098 1.56026 1.014516 -1.634375 -0.27242
H 6.84659 11.2666 4.13049 0.421956 -0.210564 -0.390773
H 8.47139 11.4323 12.0525 -0.261561 0.194942 0.103035
H 10.2781 10.94 8.66566 -0.556763 -0.682891 0.193654
H 2.93048 3.84143 0.30516 0.219666 -0.255859 0.565838
H 7.61416 9.43639 7.11731 -0.104475 0.782505 0.293693
H 7.32249 10.1575 3.05121 0.336419 -0.299351 -0.502141
H 3.77112 12.0229 0.24511 -1.489042 -0.122242 -1.050342
H 6.10495 4.8939 11.7568 1.832117 0.276455 1.065318
H 12.38861 2.39254 1.50263 0.779492 -0.136025 0.597273
H 2.48615 3.01881 7.03055 -0.477593 0.855083 -0.216418
H 11.3 10.0564 1.63636 -0.040982 -0.000607 0.326732
H 11.039 0.22082 7.30616 -1.380586 -0.017866 0.495957
H 8.80623 11.7422 3.60391 0.865126 0.459004 -0.083021
H 0.40188 5.76889 7.43468 -0.309766 0.047855 -0.006111
H 0.66963 10.0896 4.00016 1.296547 0.679343 0.367023
H 2.12591 12.0522 12.3754 -1.125704 0.136134 0.462126
H 3.67453 8.2456 11.3068 -0.14254 0.211291 0.867396
H 7.13204 10.8889 7.80252 0.269105 -0.213339 0.064208
H 9.94284 0.66191 9.2424 -0.09348 0.037927 -0.718244
H 11.1765 9.66988 4.47921 0.876732 -0.668726 -1.052134
H 12.0726 1.06198 4.87725 0.207033 -0.464945 -0.764821
H 3.48267 8.15894 9.78812 0.795132 -0.025522 -0.079653
H 5.88179 0.43571 6.98277 0.322388 -0.496133 0.529089
H 9.38315 2.98672 6.38172 -0.074826 1.12957 -0.245571
H 1.3192 6.59801 2.07869 0.136904 0.696346 -1.482175
H 5.1616 3.65058 10.3188 -0.105096 0.053729 0.477687
H 3.85748 12.353 10.5855 -0.207793 0.393548 -1.18115
H 3.92898 3.12507 8.73764 0.155397 0.701828 -0.091654
H 9.82851 2.29154 1.16674 -0.335061 0.542575 0.473489
H 10.5873 7.40513 0.61717 -0.619877 -0.617111 0.577729
H 1.70682 9.19768 11.6348 0.286063 0.117893 1.256165
H 11.351 9.06397 0.4404 0.342931 1.018371 -0.118703
H 12.0706 1.11626 10.226 -0.57468 -0.044479 -0.029088
H 10.5236 4.46962 1.73246 0.198674 -1.185872 -0.02765
H 1.04573 4.58899 8.44893 -0.400573 0.675538 0.009433
H 0.26824 1.38179 2.66971 0.656138 0.387856 -0.435141
H 11.0376 6.22261 11.6107 0.100246 -1.605159 -0.790875
H 6.64362 0.83447 8.34511 0.340764 -0.276619 -0.382986
H 0.23891 8.67331 9.93202 0.14483 -0.136219 -0.411228
H 0.94926 11.5971 4.06247 0.970718 -1.062402 0.433862
H 9.98277 11.2487 12.3248 -0.214979 0.300619 0.486483
H 1.6772 7.64531 0.83272 0.807969 1.77848 0.313545
H 5.89625 2.4083 2.02501 -0.0004 0.617945 -0.620619
H 7.27358 1.90049 1.44984 -0.866315 -0.102497 -0.49466
H 9.40827 0.69971 3.00786 -0.121826 0.791908 -1.322386
H 4.65459 5.07006 8.29936 0.119239 -0.117398 -0.008832
H 8.86328 1.09091 4.90825 -0.50663 -0.273721 -0.404286
H 7.50203 5.51533 11.4773 -0.831741 -1.178143 1.200389
H 4.11938 4.8412 10.6107 1.034108 -0.42967 -0.644872
H 6.705 9.6765 11.2344 -0.17115 1.661966 0.892407
H 8.29621 6.05363 6.90195 0.166574 0.348057 -0.319165
H 7.04779 8.87512 9.47098 -1.545142 -0.936151 1.129179
H 2.52613 6.81649 5.61659 1.188812 0.56694 0.431959
H 4.91482 12.1886 9.35451 -0.391101 0.193293 -0.281684
H 10.775 6.7683 6.7421 -1.189318 -0.294902 -0.349352
H 7.60303 9.5342 5.11869 -0.061992 -0.65202 0.073509
H 10.0308 10.7643 5.43934 -0.500609 -0.171177 0.006372
H 4.433 2.15368 5.38412 0.090072 -0.997182 -0.289262
H 3.23349 1.8322 8.93859 -0.132635 -0.793691 0.095646
H 5.9699 2.06952 11.8982 -0.944546 0.020575 -1.085811
H 5.72762 8.11206 10.3829 0.938427 0.673852 -1.032334
H 3.00573 10.6027 3.41851 -0.44302 0.1081 0.319625
H 8.77353 10.1821 8.74513 0.34608 0.408639 -0.501621
H 4.40342 11.2561 3.75346 -0.666144 -0.513096 -0.043491
H 6.53798 4.55457 7.61414 0.935444 -0.002129 0.002822
H 2.34935 10.0915 0.27522 0.397285 0.809467 0.281779
H 8.81169 7.45746 6.23717 -0.435335 -1.037017 0.27214
H 12.0647 7.04372 5.84028 -0.475041 -0.389781 1.131829
H 9.62107 4.80822 3.98497 -0.131974 -0.414473 0.882035
H 2.83043 9.51642 7.87693 -0.217383 -0.435675 0.049442
H 4.96112 3.30991 3.63955 -0.583693 0.240364 0.171494
H 4.92961 8.97605 3.79628 -0.534019 0.727694 -0.259558
H 11.9618 8.45964 3.63726 -0.264546 2.399874 0.200135
H 8.53632 2.15431 9.70979 -1.227568 -0.564889 -0.770287
H 4.38268 3.54893 2.16958 -1.451041 -0.36407 -0.791972
H 7.55368 3.43239 8.10793 0.167727 0.773682 0.250522
H 2.09843 12.1042 7.47249 0.258908 0.257987 0.464706
H 11.0292 5.57104 3.62243 -2.247584 -0.830287 -0.453963
H 5.23225 1.39109 10.5739 -1.283906 -2.152377 -0.617666
H 8.28919 5.83364 9.02191 0.082053 -1.038143 0.041934
H 0.51485 0.51465 0.82749 -0.164263 0.972629 1.066566
H 1.94405 11.1044 6.34666 0.532067 -0.356384 -0.304609
H 6.94805 2.3146 9.92053 0.230999 -0.073905 -0.022817
H 7.74037 6.93512 9.87144 0.779674 -0.683105 1.001469
H 12.29585 11.4713 0.44689 0.258937 -0.129104 -0.012166
H 7.35889 1.30503 5.49368 1.149688 -0.041032 -0.309122
H 10.076 5.60418 10.5459 0.025454 -0.589443 0.360082
H 5.41451 5.59454 2.54834 0.199855 -0.64262 -0.076085
H 1.08546 0.76154 10.6832 0.045623 -0.087774 0.222881
H 8.38214 6.11617 0.88754 -1.273341 -1.574644 -0.661804
H 6.31951 6.65765 1.79354 -0.540581 -0.342404 0.87536
H 9.76665 0.45108 10.7646 -0.355024 -0.074528 0.510517
H 2.76425 3.59154 5.57962 -0.083561 -0.216083 0.273551
H 3.02901 8.07014 7.42835 0.247594 -1.122003 -1.133918
H 10.1904 9.36255 9.25941 0.184578 0.913705 -0.112623
H 6.15532 11.1049 12.164 1.050101 -1.660107 -0.711188
H 10.962 10.2577 6.4895 0.137605 -0.460072 0.567087
H 5.28145 7.4488 3.60638 0.353714 0.710352 0.644243
H 0.42901 2.66053 5.97599 -0.176281 -1.105002 0.439027
H 11.0516 7.35759 8.97959 -0.318456 2.85568 1.793878
O 2.04473 3.58178 6.28289 0.371939 -0.777977 -0.069355
O 7.67711 10.0651 7.9385 -0.568356 -0.474508 0.097219
O 7.66749 9.08195 1.73721 -1.038614 1.117861 1.50598
O 2.42164 5.13036 11.7362 -0.005893 -0.571006 -0.685727
O 9.90895 1.12897 10.086 0.747783 0.334447 0.46785
O 9.07639 6.58018 6.62813 -0.173669 0.638299 0.025469
O 5.11475 8.18644 4.30875 0.103296 -1.103481 0.129484
O 6.90192 10.5746 11.7052 -0.660243 -0.019068 0.278508
O 2.98632 11.9796 11.9522 3.401287 -0.241229 0.578234
O 12.0977 2.01856 6.20395 0.775193 1.24533 -0.554117
O 8.31588 1.56649 5.55897 -0.317589 0.157956 0.820873
O 6.74218 8.29495 10.2534 0.422505 0.561248 -0.696403
O 0.58657 12.1408 0.27164 -0.164305 -0.878598 -1.099162
O 8.39415 6.14858 9.93424 -0.876367 1.695479 -0.640892
O 7.50789 4.37041 7.74762 -0.985262 0.019213 -0.31294
O 10.075 0.14632 7.56629 1.718103 -0.087796 -0.175647
O 1.34087 6.79099 1.06443 -1.147577 -1.979858 1.06254
O 3.11878 2.67542 8.48273 -0.076402 -0.117923 -0.259138
O 4.19593 3.07551 5.23358 0.389616 0.579093 -0.118305
O 10.3111 9.9224 5.83679 0.112946 0.691897 -0.550206
O 0.72391 1.84568 1.89003 -1.615278 -0.03946 0.082002
O 9.27421 11.9361 12.3228 0.528381 -1.010399 -0.857013
O 3.32717 3.1842 0.9444 0.0211 0.350218 -0.505251
O 9.18054 1.6157 1.45816 0.498876 -0.521029 -0.650875
O 11.9851 10.8211 7.77577 1.661488 -0.529214 -0.226782
O 6.28893 1.9209 1.25192 1.287125 -0.54553 0.410015
O 2.6173 8.5859 8.11694 0.09367 1.670951 1.291739
O 0.5995 1.3035 10.049 0.284142 -0.188935 -0.166549
O 4.19055 0.34587 9.69864 -0.054555 -0.757001 1.214772
O 1.4749 10.7326 4.24148 -1.588834 0.908494 -0.278087
O 0.66125 3.86807 9.88387 -0.224636 0.646735 0.350431
O 6.28604 0.08275 7.81663 -0.131972 0.239142 0.155384
O 1.19773 5.2498 7.69738 0.667383 -0.304325 0.05795
O 9.59279 0.00876 3.64629 -0.805095 -1.19551 1.085555
O 7.42264 8.76081 5.72231 -1.547075 -0.051815 -0.182618
O 8.97306 6.74137 1.25391 2.316343 1.199236 2.17813
O 9.74042 10.3029 9.22793 -0.040848 0.054133 -0.326604
O 10.9468 8.20138 9.63338 0.406219 -3.243804 -2.639987
O 11.7864 9.49313 3.65745 -0.941318 -2.435211 0.540012
O 10.8557 5.34387 11.0867 0.125942 1.688849 0.271661
O 2.13742 11.1567 7.30996 -0.174726 0.196517 -1.025417
O 12.1223 0.46751 4.05239 -2.100022 -0.072399 0.315008
O 3.95353 10.6007 3.15758 1.025978 0.343608 0.400873
O 4.94507 4.58753 10.0887 -1.313767 0.492429 0.476623
O 3.37107 7.10592 6.07077 -1.550134 -0.999407 0.267603
O 5.17694 11.8676 1.22306 0.058404 1.515671 -0.217865
O 11.7263 6.82252 6.75848 1.725431 0.52419 -0.567159
O 5.60414 2.15994 10.945 2.178609 2.597423 2.14347
O 11.3057 10.0439 0.66772 -0.322386 -0.415487 -0.07738
O 7.61149 10.7363 3.78403 -0.631016 0.608798 1.07386
O 10.8444 3.72548 1.14931 0.199936 0.927581 0.342431
O 2.13996 9.16884 0.14729 -0.712485 -0.959126 -2.006014
O 5.89799 6.42589 2.65472 0.364513 0.455081 -0.822067
O 5.12761 3.6666 2.75618 1.711543 0.492251 0.698993
O 4.73423 5.05055 7.32131 -0.124097 0.322276 0.212502
O 10.0835 5.26886 3.29344 2.712642 1.59002 -0.377162
O 4.16679 8.09162 10.5018 -0.537967 -0.152866 -0.797704
O 11.4109 7.4824 0.12139 0.534962 0.087517 -0.255844
O 10.0066 3.74636 6.24089 -0.658694 0.873068 0.600074
O 6.99849 5.04553 12.2374 -0.755074 1.059984 -2.422308
O 7.64086 2.1685 9.22513 0.677723 0.270928 0.514146
O 0.77198 9.47741 9.8876 0.557148 1.151875 0.619295
Cl 5.4067 0.33584 4.94414 0.043232 -0.026094 -0.073806
Cl 0.71199 6.59668 3.91074 -0.322175 -0.101515 0.408927
190
energy=-1022.8342595 config_type=nep2xyz pbc="T T T" virial="-5.937062915712087 -5.345622424333203 3.7441753167611598 -5.345622424333203 -1.127878207080641 2.3222666939664447 3.7441753167611598 2.3222666939664447 -7.745942602866129" Lattice="12.4 0.0 0.0 0.0 12.4 0.0 0.0 0.0 12.4" volume=1906.6240000000003 Properties=species:S:1:pos:R:3:force:R:3
H 0.58835 11.7244 9.48533 0.316864 -0.035669 -0.293608
H 3.12771 4.4387 5.97168 0.108105 0.186401 0.02334
H 4.14886 8.44386 5.02336 2.043518 0.542703 -0.975413
H 6.94652 3.20345 6.90976 -0.998673 1.080505 0.342178
H 0.46339 5.19715 2.21561 -0.618226 -0.376632 1.20336
H 3.62791 6.45486 6.32246 0.083083 1.357424 -0.906046
H 5.91639 2.50258 1.48649 0.031545 -0.753331 -0.504441
H 0.43233 11.714 11.3852 -0.170344 -0.082409 -0.103178
H 0.46651 6.33206 3.11127 -0.469918 -0.821657 1.063189
H 10.8157 12.144 7.78432 -0.639336 0.668447 0.671874
H 0.44631 4.37316 7.89858 0.021819 -0.453763 -0.512876
H 1.33069 9.56631 12.302 -0.344677 0.08015 0.312932
H 0.09826 1.32399 1.4474 -0.610234 0.872227 -0.337475
H 2.41571 0.0538 2.40602 -1.096301 -0.092392 -0.175879
H 7.00101 9.45162 4.95064 0.979592 0.977941 0.012562
H 9.53054 3.89707 8.35523 0.803925 -1.074514 -0.839111
H 10.0659 3.04976 2.81241 -0.112492 -2.04588 -0.090474
H 10.5354 7.01899 5.98289 -1.246762 0.141318 -0.498623
H 8.99954 5.49092 3.01375 0.151519 -1.024263 0.070418
H 5.86014 10.6634 1.48389 -0.583784 0.193319 1.537128
H 0.13637 5.3152 11.5346 0.425546 0.029922 0.901796
H 1.69214 5.97297 8.69222 0.94633 0.016294 0.493612
H 10.5061 4.62525 12.0048 0.226765 0.966433 0.329579
H 9.23178 2.67446 6.9558 -0.35678 0.171104 -0.555362
H 6.35134 10.816 0.0401 -0.539031 -0.348002 0.142822
H 7.44446 5.82132 3.14986 0.073968 0.193614 -0.069785
H 8.44224 11.5371 2.32689 0.775765 -0.575078 0.354302
H 9.66191 12.3927 9.92086 -0.634326 -0.52455 0.604582
H 11.8697 0.34012 9.49425 0.030659 -0.097948 0.379913
H 1.56738 8.79939 1.26495 0.113427 0.055737 0.21523
H 7.9988 10.5183 6.74328 -0.490015 0.289688 -0.749543
H 8.96283 10.1678 1.69834 0.281421 -0.156975 0.307579
H 4.81687 9.62762 12.39192 -0.162285 -0.077609 0.688607
H 8.44755 4.67819 12.2303 -0.592038 -0.038112 0.550444
H 1.87122 5.6468 0.24298 0.181915 -0.142522 0.161303
H 0.8329 1.61113 9.01431 0.385413 0.750921 -0.415221
H 11.4232 7.11662 11.2621 -0.809321 0.854018 0.078921
H 10.409 1.23576 8.01966 -0.095161 -0.064102 0.140623
H 10.6999 10.8907 3.20808 -0.443621 0.098011 0.112275
H 0.14889 5.78742 7.16881 -0.197031 -0.475929 0.350025
H 12.19464 11.5358 5.32326 0.451554 0.521225 0.891135
H 3.25419 8.93056 11.9475 -2.160283 -0.332488 1.963691
H 4.1559 9.52829 10.8548 0.328764 -0.301541 0.090755
H 7.93478 11.3049 8.17026 0.050913 0.414825 -0.644102
H 11.0217 2.26151 10.9594 -0.664264 -0.135955 0.701596
H 0.68848 11.7309 1.19124 -0.031984 -2.087828 -3.092915
H 2.92234 0.31646 3.88103 -0.013942 -0.086142 -0.228918
H 3.64388 9.7194 8.83592 -0.673501 -0.759201 -0.330894
H 7.43886 1.4507 7.98824 -0.631184 -0.62693 0.334744
H 6.95195 1.91657 5.92944 0.536603 0.738034 0.986151
H 3.36149 6.56999 10.7742 0.050276 0.405283 -0.111657
H 4.17419 5.07033 11.0959 -0.357492 -0.12656 0.242011
H 4.62401 11.4258 8.91845 -0.265209 1.148769 0.758212
H 4.32465 3.31392 10.4131 -0.915202 0.392874 0.222712
H 11.4397 2.23046 0.54058 0.824742 -0.47191 0.591128
H 10.2104 5.99346 0.5528 0.782324 -0.079684 -0.337818
H 6.63384 5.73449 11.9816 0.671162 -1.23053 -0.090756
H 10.6868 7.97026 10.2362 -0.127931 0.484569 -0.055429
H 1.03636 6.86081 0.07561 0.116242 1.859287 -0.159659
H 10.8319 4.29423 2.51528 1.089809 0.655043 -0.472606
H 0.24738 4.93481 10.0526 -0.579458 -0.05112 0.231517
H 2.55529 2.86648 0.11673 -0.165933 -0.125554 -0.04144
H 10.1183 5.08166 9.19706 -0.821312 -0.737319 -0.167769
H 6.34962 0.50731 8.71925 -1.581042 0.017992 -0.923697
H 2.56717 7.21666 8.73632 0.070223 2.052439 -0.599095
H 1.06523 12.2444 6.13515 -1.253276 -0.383212 -0.35532
H 8.43558 12.31866 10.9579 0.129989 0.112315 -0.024396
H 4.42757 6.47994 12.0819 0.037895 0.600937 -0.792527
H 7.1094 0.93573 2.01977 0.049055 0.767791 -0.57493
H 8.25269 0.95306 3.18415 -1.568242 -0.692721 -1.044127
H 11.9892 10.1044 3.59072 0.004801 0.250755 0.381268
H 3.44326 5.76353 7.71756 0.550396 -0.178854 -1.577123
H 5.10865 1.03285 5.61077 1.004051 0.077217 -0.812819
H 7.80008 4.28242 10.94 -0.874882 -0.07128 1.438638
H 5.31427 4.47314 10.0264 -0.204056 0.192767 0.411134
H 9.80635 8.58626 0.39354 0.530142 -0.710459 0.062995
H 8.62609 6.93106 4.51633 0.341344 0.438829 1.024186
H 7.22345 9.21114 8.9101 -0.478065 -0.536949 -0.347507
H 2.67794 8.11908 5.00769 -0.280291 0.101068 -0.03409
H 4.052 12.36433 7.87008 -0.03079 0.700592 -0.147775
H 9.93307 7.31815 2.25389 1.377005 0.052966 -0.979455
H 7.89815 10.5946 4.40018 0.407181 0.998104 -1.772184
H 9.8034 1.84279 4.42147 0.237731 0.713818 2.173994
H 3.0804 2.96246 5.40528 0.165926 -0.668476 0.164885
H 2.71773 2.24972 9.58977 -0.176092 0.712566 -0.239727
H 4.19031 1.56805 2.53527 0.880876 0.857616 0.823706
H 5.09567 9.42827 9.35502 0.351487 -0.180995 -0.498233
H 4.59607 11.5466 3.08123 -1.747703 0.695787 -0.113562
H 9.88144 9.3061 8.08668 -0.473799 0.517362 0.374304
H 6.05452 11.8331 3.33762 0.288093 -0.192639 0.102393
H 5.14246 4.74527 7.07709 1.333754 -0.047831 0.624041
H 6.71208 7.25757 12.0947 0.30845 0.788493 0.040334
H 8.62504 8.37795 5.26679 0.510073 -0.636627 0.028168
H 11.5219 7.59866 2.1007 -1.444504 -0.563116 -0.64822
H 11.9363 4.26234 4.75658 -0.376925 0.351697 -0.607233
H 1.75621 9.46373 8.06517 0.387432 -0.887543 -0.074866
H 2.87533 4.04774 2.10276 0.978035 0.603641 0.998526
H 5.28939 9.28236 3.50676 0.422767 -0.532972 -0.036181
H 0.25381 11.7773 2.63837 -0.781516 -0.432557 0.910859
H 6.59647 0.46669 10.3942 0.096694 0.717974 -1.41126
H 3.05728 4.40111 3.71525 0.075563 -0.074509 -0.54299
H 6.6239 5.1262 7.66104 -1.130651 -0.577922 -0.282662
H 0.36293 10.9496 7.52683 -0.022167 -0.123774 -0.602085
H 0.63622 3.7904 5.63123 0.198701 -0.292091 0.141808
H 4.50765 3.16157 2.91633 0.291145 -1.931795 -0.298331
H 7.96934 6.84287 7.15259 -0.051165 0.051036 -0.162591
H 1.28428 2.95493 1.07008 -1.663446 -0.714467 -0.331232
H 12.1225 9.83777 8.56031 1.862334 0.933321 -0.980887
H 6.46897 1.09625 11.8813 0.362556 -1.665589 -0.860575
H 6.77683 7.71859 8.82225 0.650988 -1.236001 -0.460823
H 11.8932 10.7834 12.1739 -1.294762 -0.341408 -0.018101
H 5.77233 1.67547 4.3261 -0.577358 0.18184 -0.856429
H 8.39256 5.80822 8.22477 0.189388 -0.294648 0.527624
H 4.96225 5.37291 2.76533 -1.565659 -0.995496 -0.313002
H 4.07776 1.44268 9.52397 -0.554316 1.47946 0.418931
H 6.86259 2.99237 0.29825 0.139114 -0.185476 0.043958
H 5.82335 6.15568 1.62882 -0.436802 -0.356784 1.218951
H 10.0375 1.10839 11.333 -0.476018 -0.872542 0.129705
H 1.67523 1.8961 7.78446 0.496446 -0.293594 -1.030566
H 2.81245 8.72549 7.05536 -0.023386 -0.106168 0.771611
H 10.9333 8.29134 7.72792 0.10527 -0.273339 0.077081
H 8.96264 9.61257 12.0859 -0.25144 -0.687812 0.78787
H 10.3325 0.86892 3.38855 0.12294 -0.052679 -0.080863
H 5.36883 7.60935 3.54451 0.673333 1.091985 -0.055269
H 10.7127 3.36954 6.69175 -0.534001 -0.880963 0.392595
H 11.7315 7.91831 5.65025 -0.077554 -0.342641 0.317814
O 1.2452 2.36671 8.49311 -0.754231 -0.462475 1.380927
O 8.29083 10.561 7.65774 0.710132 -0.712297 1.769929
O 8.35489 6.12084 3.35754 -0.45209 0.376113 -0.5878
O 0.15686 5.37928 3.15514 1.184285 1.054494 -2.02796
O 10.4044 1.95035 11.6619 1.303007 1.767298 -0.562963
O 8.94495 7.44597 5.36228 -0.902289 0.181955 -0.368093
O 5.64148 8.48193 3.96144 -0.715144 -0.398171 0.047875
O 8.94178 9.00044 0.46689 -0.641325 1.560064 -1.200368
O 4.1774 9.03721 11.7821 1.905191 0.630763 -2.324076
O 10.1217 2.85713 7.32838 0.828688 -0.030905 -0.519573
O 5.96791 1.14232 5.10472 -0.713299 -0.545047 1.488133
O 6.4697 8.58929 9.04329 -0.201331 2.096498 0.758003
O 0.40832 10.9629 12.0284 1.111421 0.340891 -0.092293
O 7.67501 6.44083 7.99412 -0.081535 0.207425 -0.631268
O 5.95665 4.3684 7.54567 0.025534 0.918497 0.143127
O 10.4194 0.34962 8.46827 1.128189 -0.190893 -1.090392
O 3.60916 6.16293 11.6218 -0.535397 -0.577722 0.649151
O 3.66444 2.36569 9.80295 0.867637 -2.840048 -0.479266
O 2.70236 3.83479 5.31628 -0.768963 0.179705 -0.32256
O 9.71591 1.5996 3.52946 -0.258889 -1.541622 -1.64017
O 2.21637 3.16252 0.96417 1.729143 0.861093 0.192453
O 9.40366 12.1706 10.8613 0.065529 -0.219464 -0.688062
O 1.8004 8.81463 0.32347 -0.129902 -0.308418 -0.511636
O 12.2158 2.25282 1.18587 -0.310771 -0.237322 0.016022
O 0.35161 0.16972 9.92902 -0.434575 0.099 -0.386991
O 7.45381 0.43495 2.7626 1.585346 0.110364 1.180187
O 2.5152 8.7621 8.0142 0.167499 0.846406 -0.718816
O 0.98521 5.99181 0.43586 0.005747 -1.373103 0.188776
O 4.50775 0.02308 8.7354 0.34599 -0.788457 -0.29716
O 0.09607 11.9405 6.19052 0.35827 -0.189299 -0.322026
O 12.0512 4.87801 10.8242 -0.028566 -0.240445 -1.268335
O 7.262 0.75709 8.70157 1.786154 0.382567 -0.105638
O 0.39885 5.32661 8.0001 0.037978 0.846927 0.249329
O 11.5408 10.9784 3.7187 0.328026 -0.501927 -0.337493
O 7.79001 10.0528 5.15089 -1.593424 -2.323096 1.381533
O 6.47053 2.18723 0.71187 -0.072305 0.626451 0.215432
O 10.6186 8.83015 8.50182 0.483936 0.055637 -0.408206
O 11.3255 7.39512 6.37291 1.890491 0.272836 0.278919
O 0.67622 12.2672 1.93051 0.945475 2.513931 2.238209
O 9.28491 4.61612 8.93445 0.118677 2.292436 1.752494
O 0.61979 10.3449 8.2677 -2.674615 -0.614231 1.526247
O 3.19421 0.18702 2.94775 0.957974 0.187683 0.454432
O 5.42731 11.1013 3.1545 1.472761 -0.604216 -0.209095
O 4.74747 4.23768 10.7976 1.605723 -0.80992 -1.28976
O 3.4547 8.17419 5.59571 -1.903109 -0.868622 1.072273
O 5.84499 10.2087 0.63691 1.198842 0.562092 -1.71293
O 10.6963 7.32476 1.58861 -0.058466 0.645092 1.988261
O 4.93238 2.19914 2.82988 -1.326583 1.623959 -0.25843
O 10.8604 7.9306 11.1941 1.024859 -1.184964 -0.275832
O 9.12441 10.7994 2.44588 -0.717828 0.68908 -0.304077
O 10.0029 3.97697 2.82907 -0.921974 2.368275 0.601569
O 6.1265 6.51898 12.2324 -1.129611 0.749538 0.610477
O 5.67194 5.97588 2.60859 2.116241 1.722185 -0.978629
O 3.47013 4.51465 2.81278 -0.773642 -0.842421 -0.292976
O 3.81687 5.62401 6.74601 -0.801613 -0.720212 2.7043
O 12.0642 3.80773 5.59413 0.196852 -0.009786 0.26037
O 4.31266 10.0315 9.48393 0.705947 -0.257213 0.555628
O 9.95459 5.10791 0.24689 -1.209361 -1.05963 -0.381996
O 7.51206 2.49098 6.61094 1.006478 -2.004583 -0.924274
O 7.50449 4.4093 11.9037 2.165808 -0.008665 -2.104966
O 6.65964 0.24494 11.3026 -0.25277 0.591397 2.987695
O 2.58873 6.32453 9.06075 -0.826355 -1.964093 0.141063
Cl 2.9654 0.387 6.10765 0.102578 0.319832 -0.022895
Cl 0.96173 8.4561 3.68966 -0.243229 -0.027643 -0.383703
190
energy=-1024.07151371 config_type=nep2xyz pbc="T T T" virial="0.36174261683974474 5.3131229478351 3.395380129591842 5.3131229478351 -4.235166126294386 6.01182004180549 3.395380129591842 6.01182004180549 -13.690621653678466" Lattice="12.4 0.0 0.0 0.0 12.4 0.0 0.0 0.0 12.4" volume=1906.6240000000003 Properties=species:S:1:pos:R:3:force:R:3
H 0.0271 2.05335 5.66502 1.08548 0.743611 0.825492
H 10.0717 5.05707 4.37019 -2.875359 0.486652 1.578367
H 5.80896 7.81861 10.373 0.120693 -0.399319 0.875801
H 9.79453 11.6743 8.24346 -0.201858 1.067163 -0.503147
H 1.44757 2.72097 1.06588 1.24579 0.830518 0.203692
H 0.37049 1.37614 9.88251 0.545889 -1.201254 -0.78898
H 0.53259 7.94658 1.95016 0.336168 -0.138287 0.766134
H 6.91541 10.3551 8.68571 -0.221214 1.798297 -0.700938
H 0.73018 1.5049 1.71676 -0.204605 0.526118 -0.164489
H 11.8602 11.1501 7.19055 -0.678382 -0.860326 1.954814
H 11.2547 10.3917 5.1536 0.141031 0.126332 0.38437
H 2.70018 8.62467 10.4234 -2.020788 0.38698 -0.166905
H 9.08662 2.71653 10.2123 -1.41274 1.39875 -0.290881
H 0.18761 0.59457 4.03307 -0.476326 0.707936 0.315516
H 9.52249 9.21581 5.62543 -0.142379 -0.224067 0.303971
H 1.94601 4.84308 8.54006 0.027728 -0.227257 -0.113986
H 9.93816 4.84923 0.4551 0.213233 -0.217828 -0.676008
H 8.02808 6.73823 8.11286 1.524594 -1.259555 0.671532
H 8.51604 0.86508 3.77196 0.134826 0.927205 2.474996
H 3.54337 0.95685 10.5205 0.616813 1.779942 0.68027
H 12.2605 2.41565 11.7195 0.347932 -0.0636 0.854135
H 9.48174 10.4887 10.9198 1.061281 2.309336 1.092023
H 1.78492 5.29157 11.3012 -0.005021 0.256705 -0.084431
H 11.6645 0.75924 5.61689 0.04284 -0.026119 0.302556
H 2.40783 0.18229 9.89508 0.66675 -0.395943 0.844802
H 7.48551 0.2763 2.78375 0.400273 -0.337251 0.397029
H 2.98893 10.8443 5.25229 0.261407 -0.920046 -1.529264
H 10.3737 12.1135 0.1778 -0.176806 0.202669 -0.801255
H 7.79014 11.6269 8.24937 1.157807 0.762002 0.151021
H 3.46578 9.42112 12.3265 0.052052 0.620232 -0.933342
H 6.37966 11.1059 6.30346 0.085277 1.800079 2.231407
H 2.79552 11.8612 6.30043 0.251512 0.411037 0.648423
H 4.84723 2.44079 6.0544 -1.231364 -0.968251 -0.639978
H 6.74205 3.73895 4.33918 0.116247 -0.333461 0.203437
H 11.4795 2.93792 1.17698 0.134851 0.227788 0.090319
H 1.48254 2.98344 7.20539 0.263039 -1.479306 -0.029633
H 4.0609 10.6817 3.27078 -0.520443 -0.990388 0.699427
H 10.4611 10.0261 9.2774 1.287842 0.568015 -0.912968
H 7.30347 3.33948 2.85054 0.534562 -0.929934 -0.897044
H 11.5272 8.91136 4.93758 0.893205 -0.906708 0.139609
H 2.23574 0.98185 3.44282 -0.358134 -0.08617 -0.074079
H 4.30585 1.07802 6.55118 -0.436227 0.864751 -0.775547
H 6.73424 6.77267 3.75724 0.083879 0.270659 -0.153775
H 6.04192 11.0445 4.71198 0.317049 0.022094 1.085324
H 5.68485 0.83061 0.70832 -0.547305 -0.547702 1.433577
H 3.68851 11.5525 11.721 0.068918 0.150506 0.043122
H 0.06612 12.32278 2.65909 -1.28184 -0.081012 -1.050455
H 7.31614 6.81362 2.26485 0.172058 -0.612829 0.66407
H 6.4349 3.94516 6.51112 0.185753 0.042707 -0.175144
H 9.96715 1.85921 5.328 1.190219 0.382363 -0.206989
H 4.82794 7.44447 5.27 0.89685 1.296934 -0.833813
H 11.6942 10.9659 9.48319 0.121894 0.288482 0.066331
H 6.4058 8.2513 8.66059 1.147311 -0.88561 -0.940366
H 12.1578 6.64926 8.76018 -0.105071 0.692692 0.441747
H 9.10791 4.96126 11.4834 0.650025 0.47777 0.792473
H 0.84723 5.80945 10.1432 -0.104218 0.652698 0.291996
H 3.58351 8.24819 7.01285 -0.2759 0.394942 -0.095302
H 3.9738 9.19832 3.98848 -0.152937 1.207743 -0.327816
H 8.53481 4.60736 9.16216 -0.535972 -0.373597 -0.066379
H 1.98512 4.3767 4.26445 -0.227635 0.785097 0.468277
H 0.2111 3.49764 10.6639 0.602769 1.023636 -0.008623
H 8.77268 2.91297 0.94537 1.625267 0.597504 -0.46242
H 2.18369 5.03985 6.94108 -0.289283 -0.101045 0.825538
H 7.54275 2.80707 6.16875 -1.485744 0.387956 -0.59037
H 2.68092 8.80203 8.7391 -0.81855 0.327695 0.35666
H 3.14386 1.89504 4.31166 1.068723 -0.200957 1.323165
H 9.78823 0.35348 11.2139 -0.123763 0.800824 -0.021255
H 5.75691 8.85647 5.16293 -0.511294 -1.206552 -0.283585
H 10.0087 9.63444 1.87748 -0.780082 -0.039991 -0.460705
H 10.8374 9.94047 3.07715 0.279929 -0.417394 0.291836
H 10.5391 2.29771 10.5324 -0.197793 0.175524 -0.183669
H 4.87895 7.62897 11.5962 1.747974 -1.027101 -0.501013
H 8.27 1.71946 1.80178 -0.129531 0.76774 -1.016146
H 7.11216 4.89906 3.18191 0.108056 1.454433 0.029397
H 0.94656 0.65806 8.56041 -0.239876 0.738691 -0.325037
H 10.4106 7.04557 11.9406 0.894332 0.443487 -0.4375
H 9.65155 0.74769 8.75979 -1.101714 -0.752536 -0.909666
H 8.02691 8.78138 1.23057 -0.037976 -0.135117 0.045114
H 5.48485 5.54974 10.6017 -0.498543 -0.508697 -0.844565
H 5.11401 9.00882 8.67585 -1.862284 0.609471 -1.087206
H 10.6387 3.92368 2.05574 0.457886 -0.490039 -0.517508
H 12.259 6.77682 4.73101 0.062685 0.592338 1.142528
H 0.11733 5.16116 7.57328 -1.058965 1.142633 -0.100961
H 8.67402 5.88375 4.45999 0.392478 -0.364243 0.108251
H 11.8837 7.40609 10.2363 -0.160273 0.013196 0.087316
H 5.09198 5.19193 9.11465 0.149363 0.140252 -0.487151
H 7.72506 10.157 1.84859 -0.702643 0.93545 -0.058775
H 0.54518 9.79942 3.03386 -0.947088 1.129635 -0.370234
H 5.50282 12.1851 8.01197 0.225838 -0.451797 -0.635914
H 1.94656 9.34788 3.37877 -1.047033 -0.446075 -0.023351
H 7.10559 11.4238 11.9191 -0.035252 -0.110409 -0.202458
H 3.24649 9.84294 7.12722 0.232551 -0.528201 -0.169094
H 8.07126 9.65517 6.03406 0.666094 -0.548194 0.166425
H 11.7037 5.8166 2.49285 -0.154632 -0.414254 0.977275
H 9.26248 1.27385 6.56831 -0.005703 -0.17245 -0.072236
H 1.15998 8.32768 9.40787 0.242975 -0.854255 0.648655
H 2.85716 5.37411 1.00316 -0.365174 1.001587 -0.310434
H 6.37791 6.20937 7.25601 1.07551 1.311266 0.25133
H 4.39321 11.3393 0.82836 -0.760305 -0.285131 -1.175168
H 4.82899 1.9931 11.6975 -0.019101 0.716089 -0.569105
H 3.34518 2.89816 2.04994 -0.93733 1.061342 -1.59195
H 9.14581 5.05022 6.75732 -0.182246 0.134866 0.247953
H 5.88912 10.5496 11.8875 -1.957895 -0.08875 0.190265
H 12.3936 4.82102 3.54479 -0.466902 -0.30852 -0.126688
H 4.39763 3.17588 10.6346 -0.039497 -0.506995 1.131809
H 10.3199 5.35151 7.65023 0.918563 0.286203 0.352123
H 11.0443 11.3727 1.74987 -0.183464 -1.13417 0.186288
H 8.26212 9.68702 10.8878 -0.754074 -0.306032 0.292547
H 3.2866 3.12203 0.41982 0.481841 0.274236 0.407232
H 8.14784 6.64197 0.30975 0.235505 -0.074015 0.110318
H 10.2446 0.24132 2.08861 -0.386088 0.164795 0.314168
H 0.64456 11.4535 6.2255 -1.336317 -0.212247 -0.05677
H 6.79158 7.32595 12.2603 0.131353 -0.048816 0.503842
H 2.80078 8.00951 0.0799 0.534159 0.019333 -1.372188
H 7.17193 4.29415 10.0009 -1.002208 0.336222 -0.378448
H 11.9388 7.79064 0.87721 -0.420018 -0.307158 -1.011906
H 1.66526 6.4937 1.00026 0.887504 -0.408956 -0.634943
H 6.88668 1.50969 0.13818 1.141042 0.97708 0.253012
H 2.22526 1.75241 6.52043 0.232333 0.56176 0.104366
H 11.8782 6.39993 6.80624 0.338987 0.560556 -0.842567
H 4.17769 0.06346 8.55377 -1.009173 0.140264 0.78963
H 10.2419 8.50507 11.4689 0.543999 -0.040005 -0.061919
H 1.08302 7.11616 5.58639 0.320542 0.232838 0.171508
H 5.08476 5.63123 6.64379 -1.050841 0.224044 -0.498156
H 1.5323 3.16259 3.6621 -0.723671 -0.626606 0.026129
H 7.85618 7.76918 7.01404 -0.074536 0.071143 0.389513
O 1.42434 1.98116 7.02025 -0.401763 0.771168 0.071093
O 6.29634 10.5791 5.55296 -0.298004 -2.173054 -3.337342
O 8.4477 0.45923 2.94048 -0.627075 -0.647686 -2.484631
O 0.58777 2.37413 1.29021 -1.233397 -1.474185 -0.001894
O 6.10748 1.02174 12.2879 -0.772482 -0.468432 -1.567434
O 9.26476 0.10859 8.05677 1.546217 0.089187 1.542848
O 5.92956 5.40381 7.0083 -0.818159 -2.069082 0.046357
O 10.9647 7.84197 11.6724 -1.373779 -0.644664 0.231867
O 4.04271 1.83476 5.89443 1.759064 -0.090632 1.368173
O 11.7703 1.61063 5.14309 -1.107095 -1.043739 -0.803493
O 12.0439 11.5163 6.34986 1.958951 0.881534 -2.256775
O 8.34819 9.44981 1.87282 0.648635 -0.875424 0.037354
O 11.0387 12.3516 1.62987 0.372135 1.043277 -0.427492
O 7.46003 7.25556 0.62786 0.259886 -0.074442 0.156179
O 9.36196 5.24782 7.69944 -2.024741 -0.427275 -0.221179
O 11.1905 10.535 8.77853 -1.519259 -0.934811 1.02365
O 5.42421 8.02407 4.689 -0.156676 0.140041 0.870014
O 0.15871 7.18017 9.54792 -0.236325 -0.02002 -0.245356
O 9.12989 5.14116 4.91057 2.786349 -0.150425 -1.724141
O 0.11538 7.22417 5.59478 -0.881018 -0.605232 -1.813117
O 10.6344 3.4436 1.18738 -0.945725 0.602641 1.025468
O 9.97247 11.9337 11.6794 0.106975 -0.613084 0.160221
O 3.2017 8.62412 11.7896 -0.135666 -1.351834 1.494278
O 9.64479 1.9655 10.3025 1.260651 -2.143512 0.003638
O 6.91605 11.2491 8.20467 -1.129728 -2.21724 0.580342
O 10.921 9.88822 2.10179 0.536024 0.092145 0.088116
O 11.7366 5.84254 7.59116 1.685753 -1.869826 0.816409
O 8.09395 4.08394 9.88214 1.658931 0.267477 0.262698
O 5.82573 8.75308 9.22953 0.936166 0.489293 1.474006
O 2.62181 1.87137 3.52001 -0.298029 0.240624 -1.301698
O 11.9926 2.79832 10.8857 -0.012237 -0.831955 -0.598423
O 6.59421 3.13124 5.96451 1.560343 -0.205909 -0.154021
O 10.8886 9.58753 4.73591 -0.747566 0.873585 -0.160296
O 7.98483 2.42561 1.12114 -1.124373 -1.349887 1.865257
O 8.81017 9.04488 6.29745 -1.063017 0.662495 -0.360372
O 0.19894 7.25353 1.34052 0.102976 0.193885 0.695284
O 4.58107 12.3356 7.69219 0.49416 0.187751 -0.086113
O 7.35314 7.26393 7.72381 -0.383563 1.868973 -1.095753
O 3.97241 10.9164 0.01981 0.904118 0.361174 1.428037
O 1.67193 4.54576 7.64621 0.156144 0.350318 -0.361515
O 9.21801 9.59575 10.8051 -0.352065 -1.911617 -1.232131
O 0.64655 0.03864 3.39431 2.040331 -0.623602 0.512594
O 0.99493 9.01009 3.27562 2.141179 -0.596685 0.228655
O 0.75277 0.51868 9.49586 -0.369932 0.59669 0.88122
O 5.77164 7.23345 11.23 -2.760852 1.261761 -0.316859
O 3.34238 0.06572 10.2831 -1.462071 -1.227407 -1.263356
O 11.5073 5.22095 3.27744 0.344293 0.914976 -0.8482
O 5.29287 4.79265 9.96204 0.432319 0.292381 1.371505
O 3.46168 10.0435 3.79162 0.844931 -0.647669 -0.215603
O 2.46117 11.0033 6.03726 -0.58316 0.433279 1.208589
O 9.57136 5.48636 12.2023 -1.021255 -0.217681 -0.664952
O 3.63063 9.04265 7.59306 -0.141012 0.153646 0.131701
O 2.57288 6.25265 0.61424 -0.817262 -0.797609 0.694337
O 2.99247 3.49967 1.29438 0.745986 -1.229328 0.742343
O 6.79826 10.5386 11.6634 1.956647 0.205383 -0.147364
O 1.13449 3.92951 4.14322 1.070434 0.129929 -0.117514
O 7.38936 6.33355 3.17029 -0.579451 0.734419 -0.77847
O 1.34259 5.03361 10.4721 0.347652 -1.065674 -0.104136
O 9.14007 1.86167 5.79817 -1.580161 -0.234791 0.377039
O 6.76775 3.95882 3.34365 -0.91574 -0.514141 1.04531
O 4.07127 2.55249 11.3463 0.257877 -0.032246 -0.537088
O 2.03526 8.82597 9.56759 2.440886 0.307955 -0.259502
Cl 5.42068 11.979 2.79189 0.283225 0.27532 -0.403597
Cl 3.04174 6.5495 5.81249 0.301454 -0.278874 0.087585
190
energy=-1022.11130747 config_type=nep2xyz pbc="T T T" virial="-1.7692638844216413 -1.3432125268291504 10.270191579733455 -1.3432125268291504 0.6402432570759625 -2.087820635200743 10.270191579733455 -2.087820635200743 1.4023327755448503" Lattice="12.4 0.0 0.0 0.0 12.4 0.0 0.0 0.0 12.4" volume=1906.6240000000003 Properties=species:S:1:pos:R:3:force:R:3
H 10.8282 7.70521 5.84474 0.192428 -0.247806 1.183105
H 8.80568 4.0343 2.17163 0.298145 0.049551 -0.487518
H 2.05678 8.08259 3.30012 -0.250905 0.037993 -0.333116
H 10.8371 2.66357 7.47406 -0.429268 -0.176983 0.649741
H 3.90269 5.25059 10.4503 -0.83044 -0.199832 0.336577
H 3.65529 0.00992 10.4179 0.672769 -0.444065 0.523873
H 2.45085 6.31063 5.23721 0.109074 1.160247 -0.925967
H 4.66344 10.4678 12.0838 -0.007353 -1.0098 2.19357
H 1.57164 5.50722 1.65659 0.43015 0.493687 0.031615
H 7.31688 11.3788 3.81666 -1.294689 0.958896 1.423916
H 10.0651 9.60975 10.1667 -0.22103 0.159932 0.128847
H 7.29666 8.55016 1.14187 0.936951 -0.798916 1.68094
H 10.0694 3.30297 11.5143 0.578622 -0.603443 -0.370242
H 2.18149 0.93709 0.98284 -1.873121 -1.225524 2.786802
H 4.07218 8.25388 8.29908 0.610996 -0.230761 -0.643794
H 0.02985 2.87073 7.14523 2.624479 1.061836 1.159406
H 6.71131 3.0145 9.18962 2.15905 0.575824 -1.299804
H 5.99522 5.93592 11.5931 -0.629853 0.004022 -0.746082
H 4.43929 9.03503 2.42243 -1.280987 1.419257 -1.829448
H 5.88739 0.44396 0.47109 -0.2491 -0.028953 0.206763
H 2.75828 4.58051 1.57847 0.177414 0.952174 -0.579741
H 8.89704 11.367 11.5514 1.023201 -0.50689 -0.934182
H 1.48258 0.0068 6.82978 -0.99548 -1.189991 1.29434
H 9.81782 7.07726 4.72105 0.189685 0.130301 0.796171
H 10.3312 0.7479 8.39752 1.329651 -1.783045 0.304122
H 5.73523 8.41732 2.85714 -0.523641 -0.037878 0.596791
H 5.49694 1.3499 5.64806 -0.880303 -0.304145 -0.357854
H 10.3614 2.52554 9.42247 0.154382 -0.343673 0.398243
H 4.09001 9.21907 0.46515 -0.355156 -0.416819 0.001903
H 0.85974 6.69207 8.0596 -1.181433 0.341768 -0.748064
H 6.77708 10.1378 8.31851 0.865573 -0.108131 0.173255
H 4.64706 10.2609 4.80319 -0.589126 -0.179256 0.45851
H 2.43551 1.87702 7.5762 0.105229 0.88313 -0.653509
H 11.4483 0.19592 0.30492 0.871429 -0.19327 1.794055
H 12.2506 6.3193 2.84059 0.242542 -0.503457 -0.296254
H 9.65028 11.0008 5.84982 -0.010623 0.180701 1.016486
H 1.42434 2.99684 8.8759 -0.067857 0.837121 -0.945295
H 8.31801 10.4207 7.70033 -0.517193 -0.318924 0.509848
H 11.5496 12.0779 11.2421 -0.377228 0.943117 0.588612
H 10.4515 10.9982 9.63812 -0.253065 0.023706 1.191351
H 4.09426 1.6945 5.10943 -0.951565 0.932894 -0.616705
H 3.48371 0.94839 6.75267 0.992344 0.418274 -1.117601
H 8.25271 5.01862 12.2962 -1.59029 0.904209 -0.596839
H 8.20929 8.86599 8.74381 -1.499662 0.668066 -0.149285
H 1.36116 2.29077 11.2493 0.604055 0.701892 -0.41777
H 1.6294 12.1576 10.4515 -0.26986 -0.248678 0.254927
H 2.82708 0.6444 12.1176 0.083621 1.181621 0.164053
H 6.51837 3.11742 5.24147 -0.695558 1.692265 -0.85929
H 5.53865 7.31026 6.32439 -0.344474 0.279888 -0.056533
H 8.38772 2.97661 3.19015 -0.720442 -0.724102 0.309876
H 8.60924 5.28631 4.00871 0.008426 -1.539888 -0.358007
H 9.97012 11.4783 7.36427 0.79685 0.424817 0.147173
H 6.04229 5.67237 8.95141 -0.383161 0.472147 -0.116513
H 11.8708 10.4711 0.86104 -0.524684 -0.2355 -0.084032
H 7.3305 4.26193 8.48715 0.015205 1.300394 -0.345066
H 4.32891 11.5769 5.38959 0.168676 2.03966 -0.095281
H 8.96925 10.9414 1.45262 -0.168048 -0.150869 0.656321
H 1.7616 4.23235 7.93829 -0.20342 0.464437 0.055538
H 7.86482 7.04505 8.89208 -0.00838 0.326864 -0.580696
H 2.51427 3.83974 5.07603 0.324017 -0.921572 -0.43519
H 3.02806 0.60883 9.23087 -0.437242 0.474327 -1.222172
H 10.6565 1.79863 11.3594 0.157748 -0.880742 0.579025
H 11.4025 2.97139 5.8696 0.27083 0.278369 -0.356972
H 5.48818 5.98744 5.42808 0.071317 -0.221658 0.273249
H 6.2193 9.10478 0.29975 -1.389499 0.696323 -0.219231
H 4.38768 4.05955 4.73819 0.82023 0.509237 -0.529754
H 9.11197 2.8362 8.64733 -0.737034 -0.554745 -0.630813
H 7.65995 6.18381 4.91046 -0.978657 -0.023457 0.834762
H 11.2214 8.64916 1.95458 0.2517 -0.663822 -0.217895
H 11.0776 7.87426 3.34185 0.066032 -0.268718 -0.34912
H 0.76 11.0231 6.57267 0.044286 0.334226 0.720736
H 6.52087 4.12217 2.16252 -1.658849 1.226212 -0.666809
H 12.0527 4.24583 4.18822 -1.418404 -0.666597 -0.226478
H 9.63554 5.07319 0.41112 -0.431668 -0.404701 -0.496399
H 11.7503 12.3122 8.19027 1.794719 0.02104 -0.920082
H 11.0487 9.84925 12.03 0.100367 0.422445 0.304953
H 1.72841 9.16623 5.04469 -0.517128 0.289142 0.017516
H 6.90055 1.58548 2.24092 -0.186532 0.123296 -1.251797
H 1.75462 6.13461 11.2037 0.470163 -0.978443 -0.276184
H 6.58656 6.17896 7.48705 -0.757281 -0.111626 -0.779923
H 0.87437 5.97977 3.79663 2.603316 1.595645 3.355616
H 11.2373 10.1289 4.69105 0.223203 -0.901212 0.423543
H 4.78749 10.2313 7.73149 -0.268022 -0.523546 -0.76399
H 10.4854 3.59289 3.95746 1.719803 0.441198 0.48679
H 1.26014 9.72731 1.90196 0.676104 -0.064503 0.257448
H 1.42973 4.5855 10.9048 1.584117 0.950206 -0.490957
H 10.7158 7.00312 1.18903 -0.406907 0.458002 -1.652948
H 6.94451 1.07833 3.60352 -0.242174 -0.652919 1.341966
H 5.14139 11.1032 9.78551 0.552009 0.008546 -0.28816
H 3.40106 7.69396 3.83634 -0.149164 0.019688 0.151684
H 4.04269 7.9221 10.6304 0.003588 -0.74847 1.050549
H 9.51215 10.9154 2.93075 2.033392 0.293447 1.343401
H 3.5445 8.655 6.86051 1.06477 -0.438309 0.284567
H 0.80072 8.58414 8.90069 0.101715 0.905467 0.648929
H 6.88853 2.73545 6.71625 0.156021 0.679313 0.715856
H 10.2168 7.5962 12.1369 -0.44699 0.50597 0.208281
H 12.1675 7.19852 11.9578 0.935244 0.177821 0.570813
H 4.73367 7.12019 0.38669 2.437916 -0.823575 0.52361
H 0.8862 11.3437 11.6134 0.479407 -0.243736 1.086756
H 6.3763 2.0957 11.3158 0.185379 0.372125 0.092622
H 2.9063 3.11154 3.67291 -0.144359 -0.581605 1.587666
H 8.14076 9.09477 2.79115 -0.768007 -1.428726 -0.766074
H 7.38201 0.33037 0.2575 1.475473 -1.534646 -0.283485
H 0.99124 10.0244 9.72261 0.418936 -1.508401 -0.07804
H 5.60558 1.86034 10.0668 -1.027507 -0.678898 -0.587857
H 7.9488 7.52878 3.13991 0.070661 -0.490481 0.110088
H 4.37647 3.59984 2.15371 0.929124 0.498915 -0.322915
H 2.88205 8.64659 9.82923 1.262011 0.008895 0.299548
H 5.17218 4.2773 10.5908 -0.631889 0.368959 -0.024224
H 5.61684 4.69259 3.81448 -0.733974 -0.052076 -0.535183
H 3.55873 2.5152 1.36151 -0.150326 -0.385309 -0.388554
H 7.45009 11.9229 5.26842 -0.899503 0.076678 -0.78089
H 6.1061 5.36852 1.2572 -0.229817 -0.25483 0.138241
H 1.76208 6.10806 9.0799 0.639907 -0.724157 1.952374
H 9.3349 7.77316 8.36065 -0.032867 -0.834712 0.408178
H 1.50045 8.44684 1.11487 0.399982 0.109654 0.349986
H 0.74072 8.03824 11.1224 0.409182 0.853516 -0.780508
H 0.07307 2.86505 10.7296 0.490853 0.587162 -0.20171
H 11.5797 11.199 3.69393 -0.871159 0.140895 0.299894
H 5.74171 11.4442 7.46032 -0.329813 0.384191 -0.639694
H 5.95406 11.9181 10.9077 0.613164 -0.047373 -0.214687
H 7.87601 10.4275 12.2899 -0.262383 -1.114451 -0.336462
H 1.29427 10.6197 4.67896 -0.117796 -0.999146 0.427998
H 3.30796 6.82858 0.6511 -0.785319 -0.714316 0.270119
H 2.376 5.68698 6.68047 -0.458944 -0.197029 -2.124299
H 6.84507 7.19073 12.2266 -0.112552 -0.022847 -0.023132
O 10.8156 10.865 4.25274 0.524899 0.70114 -0.674198
O 7.76975 10.0149 8.47656 0.274552 0.717362 -0.642956
O 4.79746 8.57255 3.13831 1.995512 -1.246714 1.549148
O 2.46529 5.48172 1.24828 -0.480941 -1.236663 0.599276
O 1.06283 2.99914 10.6237 -1.448796 -1.603265 0.726771
O 4.06738 10.6771 5.47969 0.297865 -2.006102 -0.477181
O 3.89268 7.43079 0.16734 -1.576076 1.360982 -0.935848
O 2.44665 7.61653 4.0709 0.506605 0.242603 0.269178
O 2.90288 1.0419 7.50304 -0.663762 -1.052833 1.818134
O 10.5997 7.64097 4.92412 -0.440523 0.137145 -2.205884
O 6.76726 11.8768 4.5405 2.831574 -1.228733 -0.938185
O 10.4906 6.80009 0.18258 0.576352 -1.197569 1.264416
O 3.55639 3.11161 2.11679 -0.83559 0.095858 0.568109
O 5.21195 4.63117 4.68934 -0.402076 -0.786737 0.646624
O 7.63849 8.22495 2.53859 0.92002 1.929065 1.570058
O 9.28653 11.1284 6.76404 -0.846685 -0.521885 -1.644947
O 8.37682 6.16019 4.28672 0.715455 1.868753 -0.434162
O 11.2113 9.78301 0.58963 0.209781 0.099348 0.066962
O 8.91127 3.78 3.10113 0.425977 0.501779 0.069817
O 1.00741 9.82688 5.20154 0.529734 0.745922 -0.717846
O 0.46274 5.58503 3.09739 -2.85498 -1.168083 -2.886824
O 9.92424 2.27649 8.56114 -0.245608 1.110343 0.555989
O 1.69245 6.23229 8.14697 0.862793 -0.216683 -1.217039
O 10.7167 2.71118 11.0326 -0.583836 1.677366 -0.269831
O 4.63211 10.0105 0.62489 0.519219 1.380349 -2.5124
O 11.3034 7.74881 2.36925 -0.316641 0.886245 1.022537
O 5.41736 10.8459 8.12948 -0.021068 0.034433 0.898517
O 8.50502 7.83728 8.91181 1.50163 -0.957082 0.260362
O 6.80467 5.9594 8.41376 0.9348 -0.163775 1.211426
O 2.84584 2.96288 4.68722 0.002688 1.686614 -1.021739
O 2.90977 0.58154 10.1931 0.183888 0.00606 -0.042793
O 6.07776 6.59944 5.93826 0.542486 0.304823 0.290878
O 10.1576 10.5231 10.492 0.593 -0.347842 -1.747917
O 11.3574 3.57883 4.4819 -0.507861 0.081154 -0.056245
O 4.35309 8.31291 7.3235 -1.39905 0.736644 0.263653
O 1.91564 8.9947 1.83018 -1.137511 -0.113288 -0.683368
O 5.13577 11.4729 10.6906 -0.955966 0.076745 0.635783
O 6.66635 6.20585 12.2269 0.689827 -0.653057 0.848814
O 0.8498 11.5676 10.6951 -0.349663 -0.109862 -1.310721
O 11.5923 2.60027 6.82278 -1.881934 -0.764728 -2.38604
O 8.23904 11.309 12.2331 -0.702963 1.204088 1.169415
O 2.63614 1.39358 0.32857 1.443962 0.062393 -2.657391
O 6.83492 1.90933 3.13516 0.447864 0.733633 -0.308455
O 10.8473 12.237 8.45686 -2.967039 1.263999 0.838056
O 5.73113 4.72728 1.92991 2.350857 -1.1819 0.487524
O 6.67292 0.95584 0.25377 -1.516812 1.656597 0.080911
O 1.27234 9.04372 9.64987 -0.595767 0.694076 -0.418966
O 2.08346 5.34168 10.6752 -1.493379 0.570198 0.709746
O 1.46418 3.31272 7.90794 -0.141929 -1.198037 1.322218
O 4.59093 0.94943 5.4332 1.435376 -0.423677 0.948289
O 7.39899 3.3102 8.44561 -1.22997 -1.711007 1.312618
O 8.78783 10.6844 2.39197 -2.079099 -0.265102 -1.333424
O 0.70455 7.557 11.9502 -0.926387 -1.087786 0.310675
O 4.86838 5.20514 10.4744 1.483657 -0.412234 -0.403429
O 3.89799 8.51003 9.90079 -1.58189 0.979718 -1.225119
O 2.31538 5.47793 5.66928 0.089102 -1.15715 2.844039
O 8.9207 4.41478 0.18544 2.047566 -0.277165 1.064701
O 0.82267 11.7532 7.24515 0.797173 0.571915 -1.465027
O 6.76811 2.42773 5.81802 0.72676 -2.32815 0.53827
O 11.0624 0.29331 11.8575 -0.732953 -0.248769 -2.18806
O 6.02437 2.57757 10.5233 0.158234 -0.038197 0.827024
O 7.05253 8.63938 0.22751 0.282265 0.870969 -2.472864
Cl 0.43148 11.8402 2.10784 0.147814 0.064964 -0.245598
Cl 11.4513 7.66407 7.86939 -0.451008 0.23115 0.208096
190
energy=-1024.12036967 config_type=nep2xyz pbc="T T T" virial="-13.631668007918085 0.7367182684161759 -2.0747661036304685 0.7367182684161759 -6.528598608779723 3.3567877450135377 -2.0747661036304685 3.3567877450135377 6.745539457025942" Lattice="12.4 0.0 0.0 0.0 12.4 0.0 0.0 0.0 12.4" volume=1906.6240000000003 Properties=species:S:1:pos:R:3:force:R:3
H 0.3302 11.1333 9.66745 0.266867 -0.556903 -0.88398
H 2.94994 4.19006 5.43768 0.006657 0.91471 0.148489
H 4.06141 8.32287 4.93955 0.101093 -0.035418 -0.532649
H 6.29817 3.17841 7.10134 1.151193 -0.495497 0.256598
H 11.8021 6.45941 1.64097 -0.234048 -0.285347 -1.014622
H 3.19094 6.30463 6.05191 -0.222947 -0.546471 0.869428
H 6.1349 2.02089 0.55097 -0.163643 -0.506452 0.170142
H 0.13007 11.0175 11.8445 -0.280085 0.58184 -1.315335
H 11.3019 7.03252 2.86436 -0.049353 0.594171 1.353868
H 11.7645 1.0856 7.4588 -0.045744 -0.318687 -0.250654
H 0.5573 4.92459 8.29293 0.255649 0.912866 -0.445634
H 1.9232 8.9785 11.558 0.06202 -0.576597 0.979478
H 0.18316 1.69252 1.5672 -1.118387 0.522656 -0.744275
H 2.30806 0.17065 2.54578 1.136796 -0.34576 0.135714
H 7.11889 9.24013 4.22648 -1.420717 -0.40677 -0.777241
H 9.26387 4.31005 9.38875 0.087949 0.689202 1.210948
H 9.67878 2.40874 4.37904 -0.46708 -0.399118 0.396842
H 10.2239 6.9675 6.79077 -1.448794 -0.104107 -0.545242
H 7.97824 4.87608 4.03707 0.52583 -0.30864 0.208937
H 6.28578 10.0668 1.03205 -0.640741 0.476986 0.528577
H 12.2793 6.13656 11.5043 -0.74646 -0.048257 0.00846
H 2.45394 6.25131 9.17575 -0.541815 -0.281574 -0.591378
H 10.8485 3.53061 1.77529 0.575488 -0.61943 -0.26717
H 8.56569 2.85204 7.48894 -0.108765 -0.139061 0.429412
H 7.03816 10.335 12.087 -0.555852 -0.515075 0.288708
H 6.71716 5.66385 3.75156 0.760709 0.606326 0.685131
H 9.09009 11.8221 2.8867 -0.227301 0.401103 0.358216
H 10.3918 11.1658 10.3322 -0.090847 -0.212561 -0.099411
H 12.2832 0.24979 9.42538 -0.054154 -1.803569 1.208268
H 2.10787 9.01678 0.71281 -0.087009 0.280526 -0.056957
H 8.25775 10.2916 6.06992 -0.022633 -0.817443 -3.107456
H 9.52072 10.6282 2.08348 0.584168 -0.25968 0.806965
H 5.63649 9.24011 11.8183 -0.448812 -1.189846 0.357264
H 9.05692 3.82742 0.54844 0.311978 0.418995 0.278662
H 1.08244 5.26273 0.37165 -0.499546 0.034048 0.020416
H 0.35272 2.57622 8.28078 0.233436 0.379037 0.06156
H 0.26106 8.87985 9.40493 0.356429 0.365756 0.682152
H 10.5671 1.76977 8.18772 0.557752 0.336444 0.192693
H 11.0622 10.6025 3.50943 -0.337986 0.64687 -0.2316
H 12.3338 6.32294 7.76335 0.150561 -0.219492 0.008523
H 12.2478 11.6924 5.05769 0.234261 0.654689 0.624762
H 4.06841 8.4491 11.7117 -0.563987 0.059665 0.595248
H 4.64988 9.20566 10.4273 0.173549 -0.133868 -0.176159
H 7.77986 11.4663 6.99277 -0.27051 -0.064707 0.070385
H 11.2625 1.50807 10.6763 0.006698 -0.167916 -0.501037
H 0.79409 11.9925 1.25344 -0.102287 0.327363 0.675324
H 3.26338 0.08965 3.8114 -0.208657 0.179389 0.424364
H 3.91176 9.7846 8.68841 -0.489587 -0.582117 -0.745854
H 6.92991 1.05128 7.95705 -0.083908 0.123299 -0.166923
H 6.78423 1.99587 6.19294 0.011561 0.150646 -0.287953
H 4.11195 6.28877 10.69 -0.071683 0.859231 0.432483
H 4.73827 4.75614 10.9006 0.488313 -0.40262 0.564361
H 4.09018 11.7272 9.0843 0.461924 -0.084495 0.424668
H 4.08144 3.25941 10.3001 0.992166 -0.165401 0.382592
H 11.7763 2.05703 0.19333 -0.716379 -0.446549 0.154164
H 10.3951 5.01055 2.03066 -0.412026 -0.821582 -0.117637
H 7.04798 5.57315 0.27115 0.530964 -0.220523 -0.062057
H 1.48624 8.05778 9.82916 0.260208 0.236994 0.198885
H 1.41994 6.6409 0.88948 0.109953 0.692212 -0.150172
H 9.41488 3.31251 3.29763 -0.813283 -0.139715 -0.827817
H 12.2229 6.33499 10.0102 -0.014868 -0.078035 -0.675049
H 2.02191 3.11782 11.6067 -0.617066 0.979395 1.015167
H 10.2332 5.24211 10.2625 -0.920768 0.019235 0.29264
H 5.67617 0.19939 8.04492 -1.021235 -0.076782 0.154966
H 3.324 7.55854 8.83206 -1.262783 -1.060719 1.173231
H 1.10622 0.0109 5.77101 -1.15393 0.186642 -0.081433
H 8.96064 11.4253 10.9749 0.606817 -0.150043 -0.084084
H 5.20357 6.14836 12.0046 -0.512111 0.187516 -0.973417
H 7.40637 0.96106 1.72444 0.153151 0.002624 -0.621073
H 7.95878 1.16489 3.13441 0.034817 -0.241843 -0.161342
H 12.2766 9.76531 3.83656 1.329845 -3.21547 0.642227
H 2.27645 5.73903 7.22145 -1.04982 0.166547 0.184744
H 4.89856 0.92173 5.21517 1.260816 1.025635 -0.267374
H 8.676 4.39841 11.5051 0.763318 0.202516 -1.005452
H 5.40523 3.81197 9.56911 -0.398179 0.163313 0.58441
H 9.00142 8.95001 0.94944 -0.179559 -0.315704 0.700708
H 8.28187 6.41846 5.61068 -0.326099 -0.377195 -0.292677
H 7.23476 9.62085 7.84013 0.346161 0.031811 0.619727
H 2.47957 7.92188 4.81892 0.769427 0.223909 0.521453
H 3.33449 12.3066 7.93613 -0.122209 0.684611 -0.22756
H 8.15083 7.01374 2.88175 -0.771311 -1.049941 2.155006
H 8.56242 9.76384 3.92917 0.60047 0.670185 -0.950827
H 11.6491 3.21446 5.03772 -0.394025 -0.596969 0.064628
H 2.84422 2.80244 4.95293 -0.365839 -0.115516 -0.664309
H 2.31009 2.54962 9.42544 -0.272691 0.12748 -0.320922
H 4.28132 1.32539 2.29805 -0.984801 -0.646871 0.167348
H 5.54797 9.70351 8.89496 -0.608536 0.310958 0.459369
H 5.02994 11.491 2.63782 -0.121036 -0.253544 -0.531645
H 9.40638 10.1567 8.18513 -1.102493 0.728892 -1.350879
H 6.58075 11.6449 2.46246 -0.502634 -0.319426 0.144983
H 4.70723 4.94867 7.49378 1.905607 -0.871817 0.898184
H 7.53763 6.91546 0.93609 -0.848658 -0.298646 -0.14429
H 8.29823 7.93034 5.78167 0.717012 -0.938479 0.629661
H 9.33863 7.12792 1.89545 -1.972592 0.53802 0.206959
H 0.02573 5.41503 4.68608 -0.265905 0.188693 0.005728
H 1.86022 9.24613 7.90719 1.198127 -0.209528 -0.432088
H 3.06162 4.01606 0.94776 0.293406 0.565609 0.89676
H 5.3561 9.209 3.05151 -0.101865 0.074326 -0.611796
H 0.48202 12.0689 2.80817 0.379329 0.74989 -1.334717
H 7.1195 12.0617 9.66016 -0.446924 0.626169 0.201682
H 2.96452 4.34037 2.48678 -0.02294 -0.279376 0.325109
H 6.2886 5.20455 8.06202 -0.945121 -0.460825 -0.437545
H 12.3488 10.8453 6.90051 -0.345953 0.299587 -0.406407
H 1.00655 4.28296 4.94643 0.050524 -0.400148 -0.038846
H 4.58035 2.86337 2.08617 -0.3692 0.005149 0.173546
H 7.97047 6.72338 7.6911 0.492918 -0.139489 -0.677175
H 1.02301 3.15261 0.48971 -0.10173 0.4043 -0.515876
H 11.5445 9.55984 7.53038 0.910281 1.050286 -0.131597
H 7.02798 0.41528 11.1208 -0.162729 0.871348 0.106498
H 7.04473 8.28716 8.65616 0.052137 -1.728759 0.000741
H 11.8207 10.59 0.74513 0.739977 -0.014852 -0.386969
H 5.71524 1.48249 4.02966 -0.054255 0.472414 -2.111507
H 7.97947 6.01213 9.12826 1.051033 -0.274609 0.789572
H 4.75422 5.54155 2.38754 0.583941 0.026024 0.575393
H 3.26104 1.45319 9.98312 -0.043079 -0.137019 -0.255316
H 7.42895 2.63563 12.3589 -0.198495 -1.55562 0.272097
H 6.01868 6.31105 1.95674 -0.167294 -0.295214 0.275942
H 10.4052 0.56926 11.5483 0.034871 -0.397294 -0.118725
H 1.5112 2.61539 7.31311 0.418606 0.188075 -0.344047
H 2.90724 8.6384 6.8543 0.141362 -0.233885 -1.373668
H 9.18364 9.32125 9.45629 0.906055 0.617118 -0.964378
H 9.91763 9.57935 12.3638 0.347808 0.687955 0.417512
H 11.7649 1.60584 5.22178 -0.471243 0.37381 -0.032446
H 5.26871 7.56942 3.25506 -0.153014 -1.18658 -1.061114
H 9.9102 3.47605 7.22964 0.569391 0.093221 -0.225645
H 11.6099 7.29283 6.13814 -0.310996 0.058911 0.092182
O 1.19856 3.08461 8.10026 -0.436339 -0.525916 0.497423
O 8.17525 10.5799 6.94234 -0.02585 1.095884 2.761194
O 7.63436 5.76593 4.19906 -0.975346 -0.712348 -0.721016
O 10.9365 6.63333 2.07828 -0.124786 -0.349487 -0.309365
O 10.7023 1.48827 11.4499 -0.034249 0.516212 0.259607
O 8.58196 7.08262 6.2609 -0.497438 1.637565 -0.726722
O 5.43572 8.43411 3.61225 0.290806 1.917714 2.112386
O 9.83484 9.43863 0.93554 -0.283405 -0.097417 -1.236995
O 4.90515 8.58153 11.2281 0.20885 0.712834 -0.329897
O 9.44292 3.031 7.94327 -0.619885 0.10129 -0.254836
O 5.73906 1.41763 4.96314 -1.165933 -1.338161 2.34016
O 6.9413 9.22337 8.71369 -0.400212 1.416982 -0.394986
O 0.30302 10.7699 0.34343 -0.525606 -0.514566 1.559578
O 7.44274 6.3447 8.41638 -1.700336 0.191081 0.226392
O 5.55729 4.49823 7.90057 -1.160602 1.479393 -0.462847
O 11.5183 1.47552 8.31329 -0.285138 -0.218702 -0.045644
O 4.44331 5.76415 11.458 0.323278 0.254673 0.539991
O 2.87438 2.32471 10.197 -0.03637 0.260233 0.181469
O 2.64055 3.71663 4.6502 0.255709 -0.210302 0.127783
O 11.1276 2.35742 5.1682 0.687241 -0.139303 0.220874
O 1.64314 3.7261 12.329 0.81594 -1.389071 -0.554428
O 9.89817 11.1313 11.1668 -0.863153 0.57189 0.521174
O 2.40024 8.54746 12.3246 0.040232 0.264307 -0.73669
O 12.0562 2.40836 1.06567 1.758949 -0.211146 1.165315
O 12.3776 11.8933 10.1175 -0.172941 2.004416 -0.596027
O 7.69243 0.43989 2.50672 0.214659 0.653519 0.591926
O 2.82191 9.01302 7.73512 -1.487255 0.714328 1.679098
O 0.65088 6.12345 0.63238 0.814965 -0.832103 -0.053711
O 3.87188 0.19705 8.69195 -0.206407 -0.456996 -0.087176
O 0.09492 12.3394 5.79779 -0.006978 -1.118949 -0.565721
O 11.6688 6.02934 10.7335 0.499521 0.112755 0.355956
O 6.62629 0.13277 8.13243 1.154054 -0.061395 -0.246347
O 0.72814 5.90125 8.2041 -0.275288 -0.742909 0.311291
O 12.0266 10.6333 3.68543 -0.500962 3.011055 -0.26132
O 7.97652 9.39625 4.58397 0.835516 -0.521105 1.85206
O 6.97521 1.7122 0.16357 0.480384 1.919146 -0.350528
O 9.87907 9.72073 8.8695 0.358458 -1.513683 2.113716
O 11.1181 7.21003 6.98278 2.372823 0.319822 0.449132
O 0.88709 0.22429 2.05189 -0.727216 -1.166007 0.822344
O 9.26764 4.95966 10.1684 0.921799 -0.555517 -2.120118
O 12.327 10.1765 7.59567 -0.261563 -1.501881 0.707282
O 3.28379 12.3967 2.85367 -0.295512 -0.066053 -0.634616
O 5.81736 10.9949 2.32636 0.388048 0.414923 0.482703
O 5.01399 3.70082 10.4941 -0.674389 -0.600406 -1.644421
O 3.28414 7.98755 5.42049 -0.831799 -0.473751 -0.398337
O 6.54202 9.63183 0.19348 1.581662 1.100209 -1.079751
O 8.31221 7.36131 2.03022 3.850972 0.847868 -2.022067
O 4.97207 1.98004 2.19627 1.474803 0.575445 -0.303229
O 1.01667 8.89565 10.0363 -0.676311 -0.4404 -0.899228
O 9.59675 10.9991 3.01723 -0.642017 -0.474391 -1.260565
O 8.88587 2.67895 3.84064 0.665508 0.253305 0.365459
O 6.75447 6.49117 0.40706 -0.561501 -0.380849 -0.159519
O 5.51702 6.048 2.79503 -0.774672 -0.378239 -1.562197
O 3.60025 4.29957 1.75861 -0.423163 -0.039805 -0.813453
O 3.02843 5.52446 6.66571 1.583225 0.377314 -0.976283
O 0.05681 4.51625 5.04928 0.468786 0.412241 -0.027183
O 4.63244 10.0391 9.28139 0.953046 0.392575 0.209978
O 10.0587 4.07011 1.90505 0.255728 1.312246 0.50304
O 7.04792 2.49919 6.99564 -0.907317 0.567705 0.059296
O 8.33841 4.07781 12.3442 -1.92515 -0.739824 1.052188
O 7.24111 12.0175 10.6331 0.837885 -1.72429 0.518654
O 2.93443 6.97065 9.58123 1.706617 1.313279 -0.497721
Cl 2.66624 0.97449 5.72592 0.875428 -0.175935 0.551125
Cl 0.46205 7.60384 4.30626 -0.012164 0.042942 -0.035101
190
energy=-1024.14507534 config_type=nep2xyz pbc="T T T" virial="-13.004883889589598 -2.349982285604703 -0.5520269922350839 -2.349982285604703 -13.435754832675217 4.261084786057429 -0.5520269922350839 4.261084786057429 -10.804939465459844" Lattice="12.4 0.0 0.0 0.0 12.4 0.0 0.0 0.0 12.4" volume=1906.6240000000003 Properties=species:S:1:pos:R:3:force:R:3
H 11.6754 7.98309 5.33307 -0.411144 -0.009077 -0.235519
H 8.8833 5.21546 4.14654 0.18729 -0.412668 0.095331
H 4.8624 7.1458 2.48189 1.131574 -0.222574 -0.791729
H 12.2972 2.44812 6.95582 -0.247179 1.001957 -0.16377
H 3.2014 4.40751 0.6211 1.261764 -0.449551 1.572783
H 2.36813 10.3805 9.49961 0.336787 -0.497848 -0.519562
H 2.84344 6.03065 3.97416 1.893896 2.050769 -1.108056
H 3.30639 10.7701 1.48345 -0.303873 0.123874 0.240711
H 0.73626 4.18433 12.2435 0.695495 0.201983 -0.219607
H 8.11255 11.634 3.62314 -0.936229 0.360546 0.696826
H 10.3131 9.10519 8.08035 0.648251 0.005837 -0.57161
H 3.39172 7.50719 10.5807 0.371567 0.400798 -0.635735
H 11.4667 3.34532 10.8488 -0.207058 0.097353 0.192623
H 2.00576 0.87347 0.0117 0.075941 -0.01653 -0.480206
H 4.89152 8.12816 4.9389 0.022605 -0.528298 -0.423717
H 0.12872 4.00778 6.66136 0.323642 0.16518 -0.224384
H 7.07886 3.33538 11.6879 1.037736 1.112839 0.116513
H 6.64628 7.49516 12.0645 -0.021839 -0.602821 0.419969
H 5.89846 11.1669 4.05482 0.004261 0.498841 0.038107
H 4.86045 11.8867 12.37346 0.094111 -0.603168 1.102101
H 0.98285 4.73521 1.14506 -0.675673 0.460132 2.541223
H 7.98279 0.013 10.8654 0.830569 0.568226 0.083614
H 1.21054 1.74245 8.78489 1.98083 1.007827 0.737953
H 10.3742 7.26174 4.78939 0.040825 0.493539 0.168972
H 10.1683 0.51156 10.1753 -0.376443 0.782887 0.739953
H 4.77958 10.2189 4.5396 -0.179322 0.441325 -0.085781
H 4.25315 0.19911 4.71927 -0.340219 0.375466 -0.288736
H 9.59885 1.35206 12.1199 -1.054989 0.662687 -1.504314
H 4.499 10.7805 2.55998 -0.65758 -0.086366 -0.963274
H 4.87313 7.11329 7.14553 -0.007938 0.710695 -0.38419
H 6.48702 9.03414 6.43226 1.916288 0.903983 -0.415957
H 2.20414 0.37833 5.74641 1.156081 0.865174 -1.034893
H 4.63472 1.49553 6.41159 0.258069 1.289076 1.633593
H 9.31115 5.77885 0.70403 1.804377 1.348518 -0.967396
H 12.189 5.58333 2.65398 -0.077287 -0.256557 -0.357046
H 9.12129 0.50262 6.89955 -1.388955 0.721263 0.32643
H 0.856 6.16194 6.90594 -0.191359 0.143537 -0.244919
H 6.67631 10.7836 7.63242 -0.312363 0.240686 -0.152417
H 8.3601 4.67551 0.56159 -0.414094 -0.753763 -0.535642
H 9.67912 10.5363 7.67942 0.488484 0.122043 0.131937
H 3.93104 1.75416 4.45866 0.10625 0.149758 -0.317894
H 4.5666 2.96842 6.91145 -0.214009 0.220799 0.295644
H 9.51378 6.04667 10.8356 1.704917 -0.197795 0.68734
H 7.93915 9.40998 7.12726 0.453683 -0.472497 -0.432158
H 10.6735 1.56174 1.97211 -0.265816 -0.23625 0.108591
H 12.2446 10.5876 11.8192 0.174831 0.224234 1.120244
H 3.47222 1.242 12.2549 0.095068 -0.069047 0.0248
H 7.18588 1.87625 6.59934 0.586485 -1.375287 -0.581403
H 6.51014 5.98705 7.6541 0.874521 -0.659658 -1.505962
H 8.9659 4.6133 2.6928 0.076964 0.063231 -1.097449
H 8.05736 7.04018 4.3614 0.641883 -0.256545 0.768265
H 6.59387 11.5713 8.95989 0.548745 0.33971 0.385929
H 7.56281 6.52306 9.98466 0.590651 -0.259248 -0.190384
H 9.13955 9.29352 9.83959 -1.102883 0.077839 1.371437
H 7.80063 4.59934 10.8644 0.134124 -0.8702 0.435197
H 1.65544 0.34837 7.16106 -0.288272 0.773872 1.662156
H 12.3235 0.06559 2.59752 2.650085 -0.387654 -1.429747
H 2.05072 5.19804 7.2409 -0.443841 -0.462593 -1.206578
H 10.4921 3.57049 8.0411 -0.064797 0.344367 0.273056
H 3.55241 4.11328 4.16365 -0.642128 0.58563 0.683898
H 1.19332 9.56634 8.60924 1.108641 1.466232 1.072095
H 11.0768 4.59267 11.7185 0.148053 -0.827866 -0.231056
H 11.4366 3.0302 5.01132 -0.351021 0.358589 -0.803453
H 7.18682 4.86365 6.58316 -0.330352 -0.199175 0.436229
H 4.2064 8.82018 9.95218 -0.431116 0.08858 0.483962
H 6.02853 3.37875 5.0433 0.039179 0.134895 -0.449634
H 8.91199 2.45437 11.1286 0.138864 -0.616451 0.241858
H 8.14992 6.3037 5.80456 -0.056237 0.065155 0.001238
H 0.39207 7.7002 2.05716 -1.970471 -1.650653 0.344959
H 11.5047 7.53478 3.09417 1.004834 -0.527686 -1.217175
H 12.2978 0.99749 8.93616 -0.068381 -0.048734 -0.532049
H 7.10816 6.20052 1.3066 -1.084928 -0.4544 -0.110177
H 11.6786 3.56149 3.41818 -0.20983 -0.139317 0.773593
H 10.9556 6.69588 11.1944 -0.470766 0.007012 -0.067692
H 11.259 11.7534 10.0706 -0.415835 0.825769 -0.280256
H 8.04212 8.83834 11.0939 0.905919 0.196346 -1.340959
H 0.09419 12.0252 5.98408 2.650762 0.272456 0.254825
H 8.21739 1.75926 2.05201 0.422693 -0.121315 0.19326
H 2.83796 1.67506 10.1384 0.493209 1.340783 -2.001704
H 8.08472 5.82694 8.64874 -0.193811 -0.326057 -0.922441
H 0.99275 4.83443 3.20454 0.422653 -0.096233 0.340636
H 10.9369 12.3378 6.24357 -0.596255 -0.226397 0.594467
H 1.60242 9.35284 6.47392 -0.299027 -0.291284 0.13013
H 10.1586 3.6708 3.96356 -0.370057 -0.026562 -0.218945
H 1.95186 9.03549 1.25801 -0.196265 0.680178 -0.596769
H 3.92585 2.03036 8.96039 -0.470191 -0.138024 -0.458574
H 10.8179 8.39916 0.7965 1.602983 -1.082576 0.310095
H 6.95471 1.33043 3.01613 1.176205 0.857238 -1.639419
H 5.12855 10.5612 9.25306 -0.716436 -0.064273 -0.384768
H 3.4749 7.77933 2.63118 0.372387 -0.355515 -0.181898
H 2.88472 3.89533 8.4293 0.447688 -0.526306 0.741398
H 11.0508 11.7974 2.84659 -1.297857 -1.917372 -0.588926
H 3.85239 8.71654 5.98776 1.701066 -0.173468 0.049876
H 11.9815 7.66375 9.57016 -0.367848 0.307194 0.600144
H 6.87746 0.48309 7.22568 0.733659 0.103414 -0.559545
H 9.88074 9.06067 12.1015 -0.02149 -0.14132 0.662324
H 1.74861 6.0212 11.8104 -0.334172 0.105615 -0.197878
H 7.49148 9.2009 3.12827 0.10932 -1.079518 0.563582
H 0.4346 10.4532 10.3963 -0.573085 -0.09652 -0.130194
H 6.36642 2.21556 0.89421 0.385417 -0.673666 0.850226
H 4.50686 3.6808 3.16677 0.369122 -0.061543 0.435272
H 9.77941 9.8318 2.00909 0.317325 0.605509 -0.90872
H 6.16523 12.0982 11.4303 -0.776861 -0.059484 0.227482
H 11.8455 8.85886 10.6302 -0.131106 -0.184582 0.359512
H 5.44225 1.88898 12.0157 0.538258 -0.173226 0.680824
H 10.0944 9.49851 3.37653 0.271673 1.490207 0.217566
H 2.66306 0.6772 2.00388 -1.812013 -1.569231 -0.171271
H 3.93183 5.09608 8.02048 -0.715501 -1.103697 -0.146459
H 4.69855 3.77838 0.79009 -0.611689 0.035002 0.190274
H 7.57625 3.3751 4.75072 1.975962 0.392001 -2.742964
H 3.27142 2.01342 1.93164 0.381617 0.193287 0.072518
H 7.53626 12.2763 4.96993 -0.08048 0.212104 0.209773
H 5.46293 5.88159 0.95819 1.761346 0.72915 0.619813
H 4.95447 7.13107 8.74768 -0.881044 0.658658 0.85374
H 9.74086 4.55792 9.05318 0.485874 -0.830337 -0.255526
H 2.05975 7.68784 0.29093 0.100055 1.03667 0.754531
H 0.96232 7.12125 10.9011 0.544563 -0.129463 0.590376
H 10.6702 2.54503 0.78886 -0.502013 0.049678 0.043038
H 10.1328 0.38048 8.18596 0.117005 -0.028924 0.311413
H 2.54085 10.5635 6.26977 -0.23585 0.604776 0.197071
H 4.58037 11.0035 10.5974 -0.305154 -0.330919 -0.125142
H 7.92155 10.7869 10.7238 0.430428 0.481578 -0.07691
H 11.5037 12.2439 4.63058 0.807711 0.36762 -0.787729
H 7.56121 9.14092 4.68887 0.34615 -0.849409 -0.364975
H 1.97069 5.40564 5.05328 -0.139584 -0.317422 -0.575617
H 5.7405 7.86244 10.8961 0.80698 -0.39068 -0.309186
O 9.8557 0.04141 7.31496 1.424656 -1.045781 -0.79453
O 7.41827 9.48535 6.30191 -2.626093 -0.531143 0.91663
O 4.91599 11.0714 4.07823 0.030643 -0.850872 0.727092
O 1.45601 4.68945 0.33868 0.052532 -0.775716 -2.601344
O 10.0737 1.94546 1.30393 0.893048 0.247923 -0.184804
O 1.73853 12.2402 6.37164 -0.951808 -1.820815 -0.685166
O 7.59689 8.55924 3.87214 -0.443456 1.802695 -0.468467
O 4.14846 7.23291 3.09747 -1.468492 0.758521 1.25924
O 4.91586 2.11834 7.20418 -0.007584 -1.554347 -1.494803
O 11.0481 7.94956 4.57708 -0.283196 -0.370182 0.097961
O 7.28944 11.9797 4.07303 1.500921 -0.372562 -0.839898
O 10.0022 8.832 0.65877 -1.773352 1.029781 -0.71079
O 3.47788 1.09463 2.16904 1.544718 1.556704 0.097669
O 6.93183 3.31102 5.39565 -1.936791 -0.019908 3.105144
O 10.0206 10.333 2.82413 -0.605522 -1.694001 0.912208
O 6.10586 11.4031 8.13344 0.319029 -0.337136 -0.255648
O 8.60329 6.4161 4.93532 -0.310211 0.744734 -0.531804
O 8.794 9.44595 10.7832 -0.192375 -0.455222 -0.439453
O 9.12115 4.37336 3.61588 -0.57163 0.127922 1.246517
O 11.6284 11.9867 5.58999 -2.227357 -0.388053 -0.029758
O 0.14964 4.64598 2.7366 -0.455721 0.197868 -0.199011
O 9.14128 1.48849 11.2098 0.525092 -0.541758 1.274504
O 5.1373 6.6371 7.94285 0.674145 -1.734045 -0.395205
O 11.532 3.67513 11.7636 -0.097677 0.48983 0.033749
O 4.21707 10.5008 1.63888 0.954952 0.081912 -0.046917
O 11.913 7.14829 2.21599 1.364798 2.158459 0.759839
O 2.49144 9.60395 6.20991 0.746129 -0.658138 -0.384818
O 10.2241 3.70535 8.96844 -0.181177 0.377355 0.064943
O 8.2695 5.93545 9.59128 -0.450185 0.644235 1.727671
O 4.39495 3.63459 4.14606 0.407574 -0.635117 -1.207186
O 1.4829 10.414 9.10658 -1.284803 -1.012986 -0.433395
O 7.38209 5.61746 7.17983 -0.828627 0.634702 0.47986
O 9.51368 9.63288 8.00127 -1.013887 -0.032128 0.634621
O 11.0241 3.03102 4.04805 1.593845 0.041006 0.393214
O 4.85246 8.39077 5.87103 -1.985733 0.728217 0.216035
O 2.26655 8.13626 1.17762 -0.223335 -1.438153 0.135478
O 4.41689 10.3229 9.8988 0.450721 0.985432 0.25605
O 6.70284 7.63606 11.1007 -0.866238 0.756931 -0.12275
O 11.9767 10.3383 10.9328 0.604622 0.495082 -1.304568
O 11.9344 3.25214 6.46801 -0.073638 -1.361769 0.433772
O 7.47998 11.6648 10.5283 -0.920314 -0.461255 -0.162132
O 2.60624 1.42576 11.8705 -0.362439 -0.127872 0.046881
O 7.29108 1.91946 2.25792 -1.434318 -0.705567 1.297705
O 10.9465 0.22725 9.67941 0.913678 -1.307821 -0.110591
O 6.1786 6.56019 1.20259 -0.67136 -0.438656 -0.398152
O 5.24492 0.0238 11.6816 0.335507 0.30427 -0.994319
O 11.7807 7.86015 10.5247 0.649586 -0.444092 -1.148407
O 2.98424 2.14556 9.20379 -0.318313 -1.142901 2.723647
O 1.29347 5.353 6.57178 0.347567 0.226474 1.086084
O 3.77555 1.00075 5.04727 0.207669 -0.69713 0.520025
O 7.93454 3.90637 11.5691 -1.226033 -0.35519 -0.748176
O 11.5561 0.14937 3.10631 -1.682082 1.795191 2.03164
O 1.84545 6.86195 11.2821 -0.089875 0.07456 -0.205016
O 3.98582 4.27265 1.27673 -0.484882 0.097428 -1.583457
O 3.34746 4.33413 7.70813 0.769313 2.050708 -0.259991
O 2.27291 5.31035 4.09497 -1.587249 -1.751127 1.68792
O 10.3328 5.96177 11.4415 -1.449049 0.10791 -0.491625
O 0.55901 1.31693 8.26896 -2.031516 -0.765591 -0.541462
O 7.54761 0.92283 6.62827 -1.51265 1.074243 0.524411
O 8.69484 5.30455 1.22242 -1.412539 -0.328055 1.484578
O 5.86311 2.59178 0.1585 -0.762907 0.733537 -1.594674
O 4.14477 7.83272 10.0125 0.0687 -0.772075 0.612803
Cl 1.1518 11.219 1.14856 -0.070425 0.323445 -0.099961
Cl 12.3688 8.02235 7.47339 0.021155 0.193508 0.065138
190
energy=-1023.28931314 config_type=nep2xyz pbc="T T T" virial="-13.99424363953442 3.190339492439766 6.04442662020344 3.190339492439766 -16.659426816389676 3.002970668762492 6.04442662020344 3.002970668762492 -22.500621631527352" Lattice="12.4 0.0 0.0 0.0 12.4 0.0 0.0 0.0 12.4" volume=1906.6240000000003 Properties=species:S:1:pos:R:3:force:R:3
H 10.0739 2.97171 8.49759 -0.827994 -0.471426 -0.84876
H 9.65443 7.90941 7.08193 -0.425991 0.519571 0.904607
H 1.18822 4.80398 6.77589 -0.171012 -0.225508 0.059388
H 7.50168 4.00487 3.79132 -0.013083 -0.491256 -0.768893
H 1.51338 9.94607 1.19056 -0.201371 0.096259 -0.038527
H 4.48498 9.30275 3.39181 -0.76156 -0.153797 0.516027
H 8.90368 3.48874 1.70991 0.678408 0.551309 -1.078625
H 2.77266 9.46343 9.33166 -1.100248 -0.016822 1.030993
H 1.47486 11.4984 1.30157 -0.104222 -0.976193 0.404381
H 5.32693 2.21481 8.68621 0.171055 -1.111256 -0.234869
H 4.817 4.30443 7.03163 0.320603 0.499823 1.052151
H 3.09513 6.60087 4.08599 -0.111798 1.166619 2.299232
H 12.3021 3.21421 9.33927 0.159607 -0.197441 0.163446
H 2.92385 11.1662 3.08127 0.003993 -0.396811 0.951145
H 6.42483 4.2826 5.63432 0.037408 -0.133775 0.522633
H 0.3082 6.49019 9.77132 -0.277037 -0.125483 0.954574
H 8.95013 11.1188 3.89624 0.224529 0.034845 -0.045665
H 7.77177 5.85094 8.27903 0.669459 0.910649 -0.789056
H 11.8588 1.96913 5.17011 0.010575 -0.288437 -0.369804
H 5.6277 0.96176 3.13607 0.886148 0.195438 -1.495502
H 5.12238 5.40057 1.08629 -0.105703 -0.087387 -0.216883
H 2.32986 8.27924 0.37707 -0.544149 -0.137937 -0.108628
H 1.86726 3.43471 0.3415 -0.613166 -0.018695 0.812905
H 6.15042 1.40687 11.3523 0.492574 -0.16536 -0.247955
H 8.00541 7.29137 2.47839 -0.222165 0.036484 0.595011
H 10.6674 2.43408 6.10756 0.684614 0.314167 -0.69468
H 9.62968 8.41387 3.65363 -0.220985 -0.159949 0.067007
H 7.46084 10.1243 11.1821 0.081055 -0.385041 -0.554293
H 9.86612 2.86237 10.052 -0.309493 -0.697242 0.173748
H 3.76812 6.32809 5.44107 0.311082 -0.275304 0.343752
H 7.09618 10.8268 9.10068 -0.595869 -0.711784 0.254978
H 10.6983 7.76185 2.81222 -0.106889 -0.524036 0.088522
H 6.72689 7.90328 3.03362 -1.493185 0.953647 -0.057384
H 10.1148 6.49154 8.47745 0.222368 0.537432 0.947629
H 2.70928 5.77967 10.4268 -0.130274 -0.122148 0.486666
H 1.8491 2.55884 10.7637 1.097652 -0.061424 0.658123
H 2.50619 12.1846 7.621 1.249505 0.502072 -0.096437
H 5.0315 0.9156 7.75583 0.21501 0.245228 0.691437
H 10.0979 9.54818 6.55417 0.586187 -0.338362 8.2e-05
H 4.37237 3.50535 5.92865 -0.880666 -0.798898 -0.835519
H 8.53103 12.35147 8.04291 0.694577 3.358274 -0.530607
H 4.05541 7.22033 9.5783 0.764477 1.133772 -0.568678
H 3.06974 9.11776 6.35587 0.249774 0.793785 0.319432
H 5.74137 10.7588 9.81 -1.677257 1.038623 0.52396
H 11.0081 5.46484 11.0886 0.459206 0.031145 1.869631
H 0.80875 11.7145 5.20551 -0.014088 -0.307665 0.392577
H 2.48345 10.9106 4.59806 0.811752 -0.212788 -0.562633
H 3.79318 11.4692 7.09208 -0.318721 0.522401 0.006613
H 2.11738 2.78285 6.18925 1.138396 -0.471773 -0.586814
H 7.09768 2.83765 2.81163 -0.660006 -1.911525 0.086571
H 4.91651 7.81883 0.10463 0.01146 0.328656 0.231865
H 5.55047 9.26724 0.18294 -0.125165 -0.39938 0.037475
H 0.36094 11.7142 8.75579 -0.164698 0.335026 0.081423
H 6.72091 0.18798 4.69481 -0.802719 0.182762 0.085741
H 1.01323 3.28959 8.23997 -0.142182 0.060697 1.5427
H 2.19264 4.63753 1.30325 -1.33986 -0.872307 -0.100459
H 8.43202 6.91833 0.11551 0.379583 1.241974 0.429449
H 7.64697 5.83288 5.58485 0.155268 0.207731 0.260682
H 3.70068 5.4165 11.6711 -0.626502 0.538014 -1.110533
H 10.2993 11.5119 2.4015 0.767772 -0.107948 -0.18905
H 6.24108 4.5416 1.74335 0.191401 0.297233 -1.609351
H 4.17221 2.59648 11.7387 -0.327593 -0.159075 0.025559
H 1.1424 6.85586 8.61483 0.630651 0.068189 0.476636
H 2.99466 1.39171 6.33264 -0.139963 0.201342 -0.158808
H 1.69167 9.05327 11.591 0.348733 0.191579 -0.023798
H 9.00398 10.9448 8.22189 -0.195142 -0.160258 0.070056
H 8.4003 9.21478 12.1612 -0.563606 0.458861 -0.077819
H 4.83806 8.57302 9.84535 -0.240072 -0.653997 -0.680007
H 7.36425 11.0167 0.58996 -0.177788 -0.091827 1.924361
H 8.37521 10.5646 2.64735 -0.12903 -0.132368 -0.717206
H 11.2123 8.43179 4.82109 -0.651316 -0.648059 -0.769898
H 5.71556 10.0192 2.96575 0.285138 -0.700791 0.038457
H 6.86273 11.9858 1.86935 -0.068827 -0.348908 -0.749947
H 10.0844 6.08203 6.90496 0.212185 1.025745 0.194828
H 7.96429 0.67025 5.48563 0.003379 0.115404 -0.036032
H 11.6259 6.86846 0.9218 -0.381007 -0.264249 -0.017853
H 10.5296 4.82356 4.98664 0.206374 -0.053516 0.27765
H 6.59414 9.38099 4.86069 -0.279891 0.423025 -0.563866
H 0.32263 3.63233 6.18395 -1.59857 -0.566094 -0.617422
H 0.7644 0.80468 8.31015 -0.593704 2.350123 0.798202
H 10.8412 5.00353 0.761 -0.662638 -0.748111 0.573056
H 7.88119 3.88792 6.25298 -0.232497 -0.658396 -0.131962
H 1.17474 10.907 6.55089 -0.019378 0.449077 0.256102
H 8.6311 9.29866 6.16904 -1.455843 -0.220399 -0.721475
H 2.46642 11.7696 10.9691 0.559549 0.318506 0.521784
H 11.9946 0.32998 3.60091 -0.571193 -0.138514 -0.182953
H 3.79552 8.93023 7.66798 0.150525 0.47866 0.22095
H 2.04241 2.61025 2.51564 -0.554286 -0.616241 -0.488169
H 9.76018 1.00121 11.3514 0.695121 -0.667228 0.07798
H 2.53173 2.00728 3.82047 -0.153601 -0.537568 -0.10147
H 4.53442 4.28795 9.62881 0.395639 0.23554 -0.063246
H 9.67313 7.84449 0.67479 -0.497213 -0.359471 0.130964
H 10.6807 6.36756 4.9913 -0.288928 0.523875 -0.715803
H 12.3953 4.65507 0.94821 -0.412424 0.589544 -0.859085
H 1.72419 6.7024 6.2588 0.2995 -0.184113 0.355492
H 11.345 10.8681 10.4069 1.360651 -0.686828 -0.963367
H 5.94759 8.05836 7.88466 -0.33482 -0.260264 0.594619
H 4.31626 1.28132 4.93717 1.105546 -0.996127 -0.738855
H 0.98433 1.00013 3.63152 -1.005423 0.068319 1.059443
H 4.60082 0.13514 9.57466 -0.106266 -0.080849 0.106867
H 6.66828 9.20204 7.09431 0.040645 -0.243525 -0.060867
H 6.12124 4.28714 9.01257 -2.836617 -0.480203 -0.021787
H 10.4046 11.6393 0.21898 0.298493 -0.136004 0.987311
H 0.22709 6.87219 6.48504 1.588889 -0.984652 1.369986
H 11.8424 11.2612 2.1778 0.341955 -0.402709 -0.237973
H 7.36615 7.43764 6.32383 -0.131007 -0.516082 -0.371581
H 5.40073 3.37203 0.02666 -0.438565 -0.652085 -0.162133
H 9.52673 10.9926 11.4456 -0.421764 0.087906 0.791817
H 5.22482 12.2213 10.9086 -0.315749 -0.151031 -0.046612
H 7.56703 10.6911 5.19517 -1.073376 -0.767707 -0.112978
H 1.73154 8.39229 9.85391 -0.064887 0.236995 -0.119543
H 5.48599 1.68079 1.76504 0.160114 -0.250423 -0.646061
H 7.69023 5.56809 9.81952 0.425437 0.63878 0.902917
H 8.30556 5.05147 11.8389 0.467854 -0.607372 0.521844
H 0.98833 11.6355 11.181 0.864306 1.010938 0.955712
H 9.6853 3.15884 0.31137 -0.347368 -0.665676 0.180985
H 6.94264 5.74778 12.0005 1.513574 0.05619 -0.142648
H 10.8438 4.80982 9.76268 -0.021722 -0.504273 -0.30612
H 2.22996 1.36987 11.6859 0.1927 0.320403 0.005104
H 0.35148 10.0094 9.90971 -0.997478 0.582687 -0.145422
H 8.37467 1.49331 11.4918 -0.713182 0.130386 -0.412214
H 11.8676 8.39995 0.78641 -0.874466 -0.837567 0.538004
H 12.3985 9.24522 5.29153 -0.180662 -0.035343 0.69228
H 4.11261 12.2018 4.53398 0.551772 -0.32005 -0.777994
H 6.59399 0.92123 9.93555 0.197769 -0.037556 0.142307
H 7.84367 7.20474 4.6883 -0.323559 0.00512 -0.678501
O 2.48527 2.31378 11.5184 -1.65211 0.164796 -1.124629
O 6.44256 10.1956 9.53337 1.988134 -0.616464 -0.526871
O 11.4369 2.76094 5.56131 -1.058342 -0.096364 0.689251
O 1.35361 10.6747 1.84348 0.182256 1.383559 -0.231594
O 11.0163 5.67571 10.1714 -0.181083 0.690144 -1.975835
O 10.7368 5.58825 5.54875 0.021504 -0.696866 0.382689
O 4.82007 0.51756 4.5079 -0.91297 1.565194 1.172477
O 11.1856 7.74465 1.1245 2.055755 1.18045 -0.373532
O 4.42425 8.03682 9.10993 0.001529 -0.66754 1.322146
O 6.79534 0.78607 10.8884 -0.54938 0.609779 0.600061
O 6.16058 1.18345 2.25871 -1.229157 0.157592 2.041011
O 7.30929 9.74064 5.4069 1.195129 1.409552 0.285333
O 2.00992 9.34939 9.96879 0.560419 -0.152203 -0.922116
O 7.36863 5.33744 8.95092 -1.011566 -1.460806 0.052349
O 5.12305 3.88742 8.95554 2.349717 0.438247 -0.444342
O 5.54728 1.22833 8.53419 -0.519188 1.201197 -0.327102
O 5.27478 8.55529 11.9836 -0.029109 0.023735 -0.261778
O 1.78786 12.0698 11.6112 -1.177475 -1.244214 -1.387477
O 9.29383 9.08598 6.8448 1.763251 -0.652793 0.929724
O 1.20848 10.8773 5.59178 -0.450692 0.011999 -0.991348
O 5.04386 2.47753 12.1573 0.962301 0.52302 0.364847
O 8.20237 10.1498 11.8195 -0.189436 -0.674552 0.018045
O 3.12527 6.94437 5.07229 -0.258202 -0.978792 -2.581199
O 0.87301 3.14957 9.24835 0.041595 -0.203415 -1.166536
O 10.4621 3.15864 9.34224 0.965102 0.914049 0.60774
O 7.04584 11.0549 1.57535 0.167377 0.273768 -0.623075
O 11.9381 10.5317 9.6325 -0.254148 0.434414 1.236009
O 3.62467 5.56558 10.6899 0.453071 -0.215268 0.369718
O 0.89395 12.3028 8.15967 0.692281 -2.705519 -0.812221
O 8.21468 11.5017 8.17616 -0.265381 -3.002214 0.270709
O 5.88976 4.83555 0.82361 0.279989 -0.109098 1.6271
O 2.85645 2.19013 5.76182 -0.36157 0.282326 0.530048
O 4.79111 4.35645 6.066 0.362768 0.314398 0.017381
O 11.681 8.65727 5.628 1.231593 0.790386 0.365176
O 7.41082 4.39662 5.55835 -0.16739 0.879386 -0.529052
O 9.51951 3.82809 0.9929 -0.658476 0.264752 0.641893
O 9.27838 1.8352 11.3966 0.145451 0.710091 0.150975
O 7.91062 6.8463 5.62822 -0.034972 0.001261 1.000148
O 0.21037 0.66877 4.26693 1.167773 -0.024389 -0.74466
O 1.18035 6.90004 9.61399 -0.191947 -0.367715 -1.271387
O 10.2392 11.6305 11.6775 0.797839 0.38167 -1.892865
O 3.2933 10.9555 3.98155 -1.121941 0.118556 -0.268733
O 2.12419 1.73128 2.96456 0.847549 1.157667 0.482799
O 7.67632 0.1134 4.72719 0.791148 -0.875476 -0.015791
O 1.08628 3.81778 6.72618 1.534353 0.562321 0.55922
O 7.42891 7.32784 3.29263 1.594545 -0.821101 -1.197987
O 11.7246 5.26548 0.49131 1.038069 0.166209 0.223827
O 11.1293 11.8812 1.97915 -0.792588 0.292392 0.272661
O 3.45551 12.3773 7.29009 -1.105147 -0.925812 0.088325
O 10.1941 7.6149 3.66043 0.398725 0.908136 -0.478387
O 9.20252 10.504 3.18073 -0.301978 0.206606 0.569474
O 8.68092 7.76524 0.64167 -0.061677 0.026148 0.01949
O 7.89256 5.89552 11.6478 -2.185205 -0.645741 -0.524994
O 6.62987 8.23937 7.22936 -0.005993 -0.049051 0.135566
O 5.43593 9.17723 3.40199 0.802079 0.985133 -0.614609
O 1.05715 6.44556 6.94921 -1.660496 1.623024 -2.104114
O 3.41605 9.64808 7.11181 -0.244438 -1.379627 -0.591146
O 1.49007 3.90212 1.15804 2.004264 0.563362 -0.349851
O 7.42049 3.72211 2.83861 0.550473 1.979086 0.633315
O 9.95294 6.8398 7.59537 -0.24961 -1.057683 -1.630196
O 4.49104 11.9133 10.3325 -0.246241 -0.021416 0.107164
O 1.51291 8.74802 0.10109 0.327851 -0.370991 0.425664
Cl 3.36258 6.32898 1.47291 0.072285 0.229643 0.132896
Cl 8.48945 1.98801 6.91037 0.62922 0.270891 0.361456
190
energy=-1022.65915452 config_type=nep2xyz pbc="T T T" virial="-11.111429402189485 -3.0587826587940206 1.1829999848687094 -3.0587826587940206 -9.111087218741783 -3.0921389504909023 1.1829999848687094 -3.0921389504909023 -14.360008527723984" Lattice="12.4 0.0 0.0 0.0 12.4 0.0 0.0 0.0 12.4" volume=1906.6240000000003 Properties=species:S:1:pos:R:3:force:R:3
H 12.2333 1.74083 8.34316 -0.077495 0.024564 -0.676651
H 0.05251 8.74071 6.96357 -0.880887 0.523451 0.632884
H 2.36908 1.86717 6.59575 0.082749 -0.774018 0.373264
H 6.39491 4.09866 5.35263 -0.048045 0.406961 0.387533
H 1.44334 10.4831 5.62754 0.130897 0.206935 -0.213557
H 4.51664 9.03092 3.76191 0.4232 0.346607 -0.249071
H 8.02451 2.42263 11.3244 -0.222613 -0.226083 -0.106578
H 0.7086 10.541 10.2954 -1.071846 0.156844 -0.228791
H 0.70729 11.6943 4.9431 1.060464 -0.258164 0.329491
H 6.76699 0.52527 6.17968 -1.40955 1.15318 -0.701341
H 3.5535 4.54729 8.29026 0.092786 -0.193125 -0.250198
H 3.43892 7.12433 4.23511 0.904545 1.110674 0.212502
H 12.1468 2.86164 12.2467 -0.275273 0.277806 0.036952
H 2.53908 11.8444 3.83383 0.347221 -0.38575 -1.099355
H 7.8706 7.70775 2.17346 -0.512441 0.309423 0.039404
H 11.8669 3.82915 8.05154 -0.1018 1.463384 0.462414
H 10.7159 0.75695 3.95008 -0.927603 -1.400759 1.24265
H 9.77436 7.22898 5.53674 -0.084842 1.479837 0.500013
H 9.76683 2.82667 3.64701 0.363482 0.178471 0.738475
H 7.16371 11.9186 2.25006 -1.226611 0.367165 2.74731
H 2.88544 3.083 10.9693 0.993342 -0.846756 -0.773903
H 1.14466 7.22282 0.35244 -0.521909 -0.848628 0.943298
H 0.36628 4.83062 1.19717 0.000839 0.080003 0.368327
H 7.99086 3.50838 7.03559 -0.991001 0.460687 0.417415
H 7.26354 9.79783 1.41192 0.667512 0.873256 0.053614
H 8.8702 3.85368 3.03466 -0.781571 0.649086 -0.241081
H 12.0264 11.5489 2.01754 0.105376 0.583742 -0.266541
H 7.85801 9.72401 11.2332 0.310054 0.098319 -0.158875
H 12.0358 1.4241 9.81288 0.611997 -0.029891 -0.334812
H 3.45148 7.8945 5.59773 1.382422 0.338536 -2.342764
H 5.78453 7.63188 8.14598 -0.74758 0.155562 0.603207
H 10.7545 10.1888 1.13009 0.225346 -0.929302 -0.129742
H 6.03943 9.20373 2.02912 -1.919514 0.453509 2.04058
H 9.05253 4.73702 8.83498 -0.309194 0.087097 -0.455736
H 5.0483 5.49168 0.88653 0.385437 -0.130188 -0.279681
H 2.93255 11.2309 12.2999 -0.069229 1.00421 -0.228048
H 10.43 9.99719 8.11674 0.513625 -0.238423 0.120802
H 6.12508 2.04719 5.82938 0.387422 -1.677788 0.153258
H 11.2323 10.7747 3.12708 -0.223585 -0.48689 0.269599
H 3.22646 3.6719 7.07682 0.081061 -0.100626 0.340792
H 8.93602 12.1464 6.00744 0.31982 0.008718 -0.607096
H 4.48005 6.89557 11.3955 0.881565 -0.453708 0.008199
H 3.65732 8.08686 7.91415 0.111806 0.332457 -0.116129
H 5.64031 8.78906 9.22201 -0.465881 0.034892 -0.059695
H 10.9348 3.90425 10.3327 0.196012 0.324456 -0.163987
H 1.2437 2.4139 4.59405 0.017857 -0.182595 -1.476205
H 2.54053 11.8228 2.219 -0.146457 0.218087 0.599195
H 11.713 9.90778 9.01389 -0.54761 -0.537997 -0.322506
H 3.05653 12.1402 6.2051 -0.081423 -0.002207 -0.132941
H 7.90985 3.5641 5.10653 -0.424525 -0.093765 -0.260724
H 7.30958 6.32342 12.2201 1.247374 -0.366737 -0.294313
H 6.31847 7.31045 0.46775 0.291052 1.507997 0.760725
H 2.2673 11.5215 8.392 0.300533 0.080801 -0.228632
H 3.41578 1.25263 9.30121 -0.08782 0.508288 0.260117
H 1.2307 3.09206 0.04994 -0.546356 -0.125794 0.80596
H 0.99391 5.72406 2.39499 -0.802926 -0.52363 -1.712683
H 9.18311 5.64982 10.8407 -0.027628 0.918094 2.27472
H 9.92259 7.73571 7.00401 -0.251598 0.700678 -0.445008
H 4.15683 4.58504 1.75994 0.305156 -0.093655 -0.091827
H 11.823 1.64939 3.59784 0.714366 0.599553 -0.923832
H 3.4256 4.16826 12.0474 0.266322 -0.614682 -0.159615
H 5.70853 0.69259 10.9325 0.117717 -0.519149 0.917073
H 12.0929 5.25734 7.51182 -0.091262 -0.659444 1.090578
H 4.33075 0.60345 6.59653 -0.603358 -0.614776 0.269034
H 1.89913 7.39054 11.4642 0.201912 0.06817 -0.446716
H 8.35511 11.8685 7.36504 -0.162238 -0.281941 0.549863
H 8.87912 8.83897 10.4717 0.220384 -0.267663 -0.079946
H 4.31259 7.62586 9.93495 -0.436962 -0.667194 2.157779
H 9.28015 1.44704 0.68648 -0.383964 0.443884 -0.529489
H 10.1529 1.00652 1.946 1.536932 0.290107 1.858786
H 11.9963 9.55388 5.37737 -1.175727 -0.042636 -0.613324
H 4.30502 10.3381 2.99999 -0.739394 0.859809 -0.324363
H 8.9348 0.05483 1.34981 -0.560574 -0.231353 0.032607
H 10.2976 5.69423 8.88434 -0.883231 -0.433267 0.233975
H 4.18882 2.54852 8.96669 -1.158759 -0.199176 1.126802
H 10.4905 8.44501 0.87448 0.617936 0.046152 0.144891
H 11.2363 5.86466 4.77744 0.130692 1.030856 0.111026
H 7.78065 10.5482 5.31852 0.01213 0.354193 0.016988
H 0.9393 2.57845 6.73168 0.396383 -0.086699 -0.076996
H 1.27798 0.10853 9.10439 -0.27217 0.097019 -0.182769
H 9.97113 7.13975 2.32068 0.014022 -0.286032 -0.113094
H 7.62201 6.89078 3.51063 0.507259 0.596437 -0.555505
H 10.9615 0.41351 6.03017 -0.178628 -0.075931 -0.280751
H 1.52628 8.48214 7.12019 1.510768 -0.243561 0.155298
H 2.37845 8.95374 0.11511 2.071489 1.6389 0.979333
H 0.4927 1.3007 1.27547 -0.161193 1.018426 -0.089481
H 2.47833 7.2168 8.33536 0.256995 -0.213218 -0.921595
H 4.87687 12.3083 3.112 -0.545247 -0.200195 -0.157577
H 7.74447 0.84847 9.5491 -0.235578 0.853747 0.511977
H 5.78824 0.41555 4.20149 0.30246 0.953057 1.586465
H 1.23537 5.33395 9.07955 -0.191078 -0.102977 -0.373244
H 9.61674 6.26698 0.0236 -0.164106 -0.629917 -0.920983
H 9.91976 5.31436 4.61013 -0.457986 0.972784 -0.632986
H 11.4742 6.7735 1.89208 0.179092 -0.436626 -0.520652
H 1.15353 5.58554 5.10886 0.976676 -0.459436 -0.643156
H 11.5824 11.9228 10.8739 -0.413575 -0.282432 0.203418
H 4.40891 4.97784 4.65121 0.59107 0.099488 0.88877
H 7.18353 8.43779 4.79189 -0.484366 1.167795 -0.050129
H 1.84688 1.88475 3.22557 0.305848 -0.193096 -0.208236
H 6.00316 10.9031 11.3304 0.030617 -1.17906 -0.042487
H 4.75101 5.12569 6.22295 0.198954 -0.586787 -0.647519
H 2.26988 5.43393 10.1871 0.332316 0.066341 -0.634981
H 9.54535 11.941 9.74106 -0.682759 -0.196994 -1.15117
H 0.41469 6.77682 5.70784 0.335473 1.387053 0.104684
H 1.38856 0.20857 0.7088 -0.063752 0.079815 0.056427
H 7.01825 6.76821 6.48951 0.757884 0.222786 0.005928
H 4.66847 0.1555 12.0273 1.170991 -0.272044 -0.832148
H 8.52132 10.8043 9.62021 0.424227 0.871299 -0.687735
H 6.10605 9.53187 12.1281 -0.050141 -0.491658 1.166298
H 6.7778 10.6769 4.17237 -2.084937 0.859265 -0.579729
H 0.15544 9.81497 11.4434 0.163738 -1.757156 2.07636
H 6.82015 12.0838 0.79468 1.588278 -0.09828 0.523734
H 7.69916 6.58263 7.98313 -0.483185 -0.127372 -1.00024
H 6.79827 4.52038 1.43649 -0.322353 -0.35769 0.143253
H 3.92943 9.32015 0.0388 1.042633 -0.697884 -0.867593
H 8.30796 3.40137 0.23287 -0.315943 -0.128573 -0.088007
H 7.89695 5.49223 1.80511 0.392726 0.70788 0.365047
H 10.035 3.22526 11.4465 1.55819 -0.145613 -0.833603
H 2.64056 12.092 11.0435 -0.144885 0.166635 -0.339239
H 10.5867 0.49814 11.629 0.215267 -0.09312 0.091073
H 7.4363 2.31218 9.16402 0.247503 0.505278 -0.498334
H 10.1014 9.60761 12.0246 -0.736746 -0.12712 -0.169578
H 10.8388 11.2732 5.47787 -0.093428 0.045931 -0.364909
H 6.03001 7.24691 4.92992 -0.998349 0.621045 -0.186143
H 9.26155 3.09584 7.65911 1.488094 -0.743647 0.005629
H 10.4449 9.31712 5.32297 -1.445558 -1.730562 1.063904
O 2.83206 12.2102 11.987 0.259542 -1.640432 0.657105
O 5.08683 8.17431 8.70199 1.839814 -0.201118 -0.628301
O 9.26695 3.63906 3.89152 0.285778 -0.608094 -0.206855
O 1.6074 11.3277 5.13971 -1.367427 0.056693 0.256066
O 10.963 3.22352 11.008 -1.756229 -0.283225 0.926952
O 10.3352 6.22749 4.56419 0.295071 -2.515404 0.247953
O 6.93843 7.50864 4.79276 0.878841 -1.79382 0.319193
O 10.6285 9.38788 0.42289 0.474552 0.809637 1.092744
O 3.89459 7.4434 10.8842 -0.557861 0.906846 -1.616612
O 8.41312 3.40965 7.93855 -0.516672 0.147281 0.0838
O 7.58758 11.834 1.42295 -0.429219 -0.217557 -3.259812
O 7.59225 10.2872 4.40365 1.942905 -1.746932 0.295274
O 12.2258 10.2759 10.7081 1.495843 1.800092 -2.084042
O 6.87597 6.63985 7.44289 -0.20899 0.132067 1.275987
O 2.11507 5.7136 9.2514 -0.134907 -0.198169 0.816084
O 5.92547 1.04663 5.85384 1.085541 0.404595 0.652905
O 6.38495 6.50639 12.3911 -1.618583 -0.851541 -0.63188
O 3.15384 9.60907 0.48712 -3.470344 -0.780768 -0.409751
O 0.88105 8.8399 6.49233 -1.055854 0.379814 -1.310373
O 10.5323 12.2172 5.37421 0.242025 0.508001 0.614463
O 5.62321 0.03845 11.6819 -1.222536 0.929896 -0.023936
O 8.84483 9.6566 10.9812 -0.868133 -0.103183 -0.055571
O 3.91098 7.92969 4.65081 -2.563647 -2.132287 2.554662
O 0.40458 2.85234 0.57539 0.941815 0.542067 -1.070843
O 0.34625 1.50069 9.12368 -0.463653 -0.184278 1.192946
O 9.7281 0.67035 1.14479 -0.915973 0.148173 -1.795127
O 10.8784 0.19712 10.7609 -0.159117 0.107914 -0.299136
O 4.83567 4.55788 1.04968 -0.802308 0.074922 0.327744
O 1.72441 11.6264 9.17784 0.006593 -0.039376 0.746352
O 8.1096 11.8409 6.42703 -0.299671 0.468117 0.510085
O 2.71594 3.88964 11.4416 -1.279574 1.642868 1.11275
O 3.45773 0.22551 6.93893 0.765799 0.735809 -0.214996
O 3.99141 3.9711 7.6251 -0.238263 0.577223 0.185118
O 11.1407 9.82844 4.94397 2.967652 1.395728 -0.730202
O 8.16876 6.93112 2.65877 0.249098 -0.39695 0.105317
O 8.51319 2.55455 12.1667 0.781796 0.3598 0.756879
O 7.36939 1.70291 9.90939 0.102982 -1.443055 -0.034063
O 9.62188 8.08877 6.13884 0.287773 -1.874544 0.175232
O 1.02833 2.15161 3.64113 -0.304609 0.470216 2.281282
O 11.9002 4.79354 8.38748 0.427789 -0.359037 -1.682857
O 8.83345 11.5962 9.08795 0.591299 -0.174154 1.83394
O 3.10187 11.8744 3.00813 0.086772 0.088073 0.313372
O 5.79433 12.3058 3.40392 0.573183 -0.432799 -1.452524
O 3.65397 2.10981 9.71092 1.166203 -0.55347 -1.502244
O 1.89457 2.70025 6.52907 0.041565 0.631376 -0.668773
O 6.66799 9.05901 1.33996 1.161255 -1.225482 -1.795703
O 10.6414 7.2009 1.59973 -1.04958 0.620901 0.12422
O 0.80489 0.40845 1.47195 0.332606 -1.621484 -0.246686
O 11.2428 9.47165 8.26405 -0.36655 0.481136 0.10837
O 11.1856 11.0842 2.21202 -0.041931 -0.318982 -0.271464
O 10.9344 1.38466 3.27701 -0.269709 1.129755 -0.80339
O 8.95732 5.7832 11.8669 0.328568 0.013409 -1.612951
O 7.73074 4.54656 1.69788 -0.051429 -1.279652 -0.295866
O 5.15287 5.04012 5.32075 -0.847946 0.559358 -0.386025
O 4.99646 9.72839 3.22983 0.392616 -1.277541 0.29103
O 0.41995 5.83195 5.66655 -1.213338 -0.799171 0.687211
O 2.8093 7.7555 7.55271 -0.117189 -0.628897 1.223418
O 0.38225 5.73741 1.56771 1.101479 0.424617 1.442654
O 7.14312 3.55863 5.72699 0.706049 -0.539723 -0.478699
O 9.33767 5.62832 9.14509 0.851528 0.394371 0.246241
O 6.21196 9.89923 11.2543 0.239638 1.584552 -1.391337
O 1.1355 7.74194 11.9536 0.675166 0.936087 -0.514336
Cl 2.67696 5.16855 3.48071 0.090325 0.25611 0.128835
Cl 11.4017 2.48136 6.53744 -0.590272 -0.162425 0.104797
190
energy=-1024.56697202 config_type=nep2xyz pbc="T T T" virial="-13.96982440636924 -8.35601882481844 -1.9063543162261634 -8.35601882481844 -5.793439268016881 -3.478943411894911 -1.9063543162261634 -3.478943411894911 -9.724662102755772" Lattice="12.4 0.0 0.0 0.0 12.4 0.0 0.0 0.0 12.4" volume=1906.6240000000003 Properties=species:S:1:pos:R:3:force:R:3
H 11.1789 0.40653 4.10099 0.436617 0.148168 1.476482
H 9.54405 0.93412 4.93368 -0.151262 -0.067552 0.100726
H 6.44601 7.51868 12.3281 -0.559 -0.545758 0.202775
H 7.8772 11.5556 7.66928 0.055044 -1.16499 -1.390549
H 2.87896 3.8295 0.083 1.221331 0.430601 0.540069
H 11.8506 1.14697 8.75323 0.416342 0.218008 0.724939
H 2.82019 8.19509 2.76796 0.807605 0.38704 -0.72991
H 5.42971 11.833 11.1039 0.065001 0.887407 -1.292786
H 1.13093 2.5375 11.9182 0.150275 0.607383 0.567352
H 8.40308 11.8372 4.32876 -1.149135 -0.839685 0.063544
H 11.8055 9.18903 11.1344 -0.34518 -0.681435 -0.623743
H 2.19903 9.77328 5.21636 -0.590024 0.01246 -0.691566
H 9.45463 2.57895 11.2175 -0.638735 0.382995 0.420364
H 12.0385 1.13666 11.2772 0.700062 0.098378 -0.268873
H 3.61629 10.4937 7.3907 0.279227 0.597155 0.501383
H 1.34598 5.3416 6.48443 -0.202453 0.041121 0.088967
H 7.14975 3.54783 11.0961 0.979357 0.260553 0.639456
H 7.06452 8.75801 9.65364 -0.338255 -0.929539 -1.064389
H 6.03132 1.12976 6.28262 -1.109561 -0.140042 -0.494042
H 2.09501 0.30757 10.2335 -0.506227 0.162119 -0.033423
H 0.96071 4.10358 11.5976 0.145757 -0.166465 1.271525
H 7.6616 10.6863 10.8618 0.249648 -0.069582 -0.39328
H 0.87962 6.56829 11.3605 -0.116939 -1.160578 -0.354579
H 11.8501 1.02566 5.46202 -0.535064 -0.814596 -0.659815
H 12.1288 11.1743 9.36913 -0.586496 0.473047 -0.35584
H 5.32967 12.1486 6.51784 0.061089 -0.806217 0.128115
H 4.67602 0.06946 4.32047 0.185795 0.435071 0.072344
H 9.94594 11.4135 9.93041 0.520382 0.041814 -0.229947
H 5.79682 12.1028 9.53341 -0.169814 0.538765 1.221417
H 3.97869 7.36336 7.68045 0.351328 0.922346 1.175981
H 6.03743 9.66308 6.3545 -0.06981 -0.244839 -0.767455
H 4.38779 11.9837 2.85748 0.211513 -0.327425 -0.857775
H 2.89482 1.10848 8.07975 0.709668 0.794705 -0.480911
H 9.40347 4.92295 1.60103 -0.444925 -0.430354 0.224548
H 0.36803 3.25653 1.42998 0.256756 0.350707 0.453583
H 1.65557 2.05647 4.98886 1.061894 1.962208 -1.388535
H 3.27997 6.34486 6.1448 -0.416766 0.097245 -0.07681
H 8.07168 9.49753 7.73701 0.118313 0.167314 -0.817147
H 8.34155 4.4222 0.55036 -0.021199 -0.472501 0.506124
H 11.0265 7.89432 10.5399 -0.785394 -1.485938 -0.978936
H 4.81505 2.33294 2.65477 0.131712 -0.853532 -0.090897
H 3.82832 1.2681 6.80614 0.872944 -0.807094 -0.746149
H 11.5685 6.24132 1.80772 -1.372167 -0.928363 1.294824
H 5.87296 10.0912 7.74784 -0.202667 0.194563 0.421514
H 9.90072 1.47702 1.89729 -0.301409 -0.373253 0.156267
H 3.92835 10.0332 10.8534 -0.146809 -0.185647 0.020448
H 0.64689 0.09287 11.7587 0.633901 -1.273983 1.036695
H 7.40147 5.87705 4.645 -0.583325 -1.587283 -1.620679
H 7.25745 5.62374 6.72339 -0.079469 0.136961 -0.020422
H 7.66022 1.9867 5.83338 0.610895 -0.470291 -0.375542
H 6.74446 7.43208 5.14653 -0.246231 0.358975 -0.04281
H 9.19601 10.1218 6.82649 1.13203 -0.028727 -0.038719
H 7.96781 6.55029 9.53077 0.022901 -0.757694 -0.106884
H 10.6518 8.6836 12.2994 -1.312787 -1.039584 -0.277956
H 8.28485 4.55802 10.6126 -0.320061 0.027563 0.470038
H 12.1484 5.81099 10.4963 0.692074 0.043757 0.275265
H 1.2348 10.1817 10.6814 0.463187 0.326061 0.323038
H 2.94319 7.92917 5.94407 0.322736 -0.927294 -0.332706
H 11.2277 6.7569 8.61181 0.561391 -0.059633 -1.646525
H 3.1745 3.15722 3.74009 0.068123 0.387748 -0.332428
H 0.00608 2.4694 9.54194 0.423534 -0.501778 0.389159
H 11.9291 1.65299 2.42442 -0.917875 -1.069316 0.109984
H 2.48264 4.35452 7.07749 -0.576949 0.851363 -0.9429
H 7.37128 4.11654 6.95203 -0.458655 -0.204107 0.227575
H 1.31252 8.62274 4.53217 0.049096 0.319067 0.377342
H 5.90791 4.27595 3.07957 0.183074 0.419522 0.445481
H 9.29372 0.17504 10.7023 -0.107013 -1.023359 -0.189406
H 8.60891 6.87171 5.01416 0.428924 -0.74326 -0.022406
H 1.09938 10.8396 3.21046 -0.792156 -0.459927 -0.411064
H 11.9615 10.4816 2.82148 0.457302 -0.406796 0.039315
H 10.2055 2.08755 9.97096 0.295156 -0.355041 1.119208
H 4.35011 5.7845 0.05051 0.068381 -0.83695 0.26063
H 11.9582 0.09329 1.92814 -1.085156 1.24148 0.939294
H 11.3202 4.85152 2.47832 1.462102 -2.452185 0.504712
H 11.125 11.3753 8.06022 1.095508 0.436075 1.540025
H 8.83351 8.66654 0.39493 0.822191 0.144267 1.136727
H 8.21953 12.1817 8.9266 0.611288 0.209916 1.43773
H 9.55877 10.2855 3.57816 0.344034 -0.949895 -0.002427
H 4.25026 2.76387 8.09872 -0.251901 0.675776 0.604
H 7.71416 5.25972 8.75702 0.447314 -0.055854 -0.376916
H 0.7918 3.40775 2.97601 0.20099 -0.148343 -0.229679
H 2.76725 11.8188 4.24501 1.854196 0.751428 -0.824704
H 11.2287 11.1844 6.03264 0.310466 0.531135 -0.670962
H 8.74564 1.38229 3.64726 -0.264291 -0.322913 0.026037
H 6.95221 8.39351 1.14017 -0.400477 -0.145611 -0.141184
H 5.32281 3.92423 8.13949 0.272247 0.334886 -0.034681
H 10.3943 8.89772 3.70335 -0.338001 -0.139338 0.251727
H 7.09192 9.94757 3.17504 -0.214703 0.651222 -0.027757
H 0.98229 8.68534 7.45891 -0.149054 -1.347534 -0.397958
H 5.65974 9.78748 2.38793 0.136857 -0.023073 0.216406
H 3.47467 4.73743 9.30804 0.084443 -0.459992 0.196615
H 0.63464 9.53887 9.36688 -0.24493 0.631968 0.362931
H 2.8781 11.6687 8.41007 0.28752 -1.414681 -0.497648
H 0.82746 7.65926 0.9554 0.944003 0.415132 -1.135444
H 7.39667 1.54413 7.31894 0.775751 -0.618994 0.421733
H 9.82541 9.22766 1.66486 -0.213527 1.007161 1.865711
H 2.92878 7.40378 12.0782 -1.07008 0.343051 0.334019
H 5.09065 7.87115 5.23534 -0.384118 -0.056551 -0.175348
H 3.5885 9.07564 9.68038 1.044405 -1.648259 -1.584152
H 5.51773 1.73486 10.9949 0.429138 0.628756 -0.252774
H 4.24597 3.56461 1.74349 0.729667 -0.472628 1.65219
H 10.8976 6.91701 5.13222 -0.369036 -0.322807 -0.083369
H 3.60877 12.3859 10.0866 1.959934 -0.036818 0.835656
H 0.30031 8.39434 2.19175 -0.00129 0.831374 0.098512
H 5.15588 2.93069 10.0515 0.551023 0.146091 0.639176
H 10.3359 6.34905 3.75128 0.261122 -0.179878 -0.493432
H 2.25106 11.2884 0.17307 -1.853004 -0.103241 0.219902
H 2.2691 5.47956 10.0934 -0.930432 -0.406571 0.815883
H 4.38298 3.36926 12.1932 -0.048949 1.134889 0.042516
H 7.28813 4.88333 2.60789 -0.943193 -0.065618 1.201941
H 0.87481 10.9355 1.02097 0.824616 0.191595 -1.393278
H 7.98116 10.4203 5.09544 0.038478 0.312751 0.148685
H 4.46218 7.04765 1.00672 0.151858 -0.358259 -0.56678
H 3.83889 6.89072 9.13109 -0.689656 -1.317853 1.024441
H 9.93273 6.37543 9.41665 0.070137 -0.403702 -0.289209
H 3.33133 9.32354 1.82713 -0.273933 1.115995 -0.563664
H 2.21288 8.53571 11.3843 -0.045252 0.092184 0.103915
H 8.85508 2.55415 1.79096 -0.731687 3.614011 -0.935428
H 1.65272 1.55804 6.44561 0.16975 0.118405 -0.302982
H 11.7569 9.81401 6.75124 -0.59145 1.20053 -0.101933
H 1.59358 10.0563 7.65966 0.299238 1.042966 -0.041724
H 6.98539 9.39831 11.5026 -0.305447 0.794037 -0.631796
H 1.51471 0.05628 4.84579 0.050856 0.012644 0.392462
H 6.14502 8.68278 4.00484 -1.126717 -0.284622 0.009151
H 2.44807 4.05086 4.86586 -0.52494 -0.731414 -0.851106
H 6.13885 7.78488 8.68874 0.243809 0.224554 0.611056
O 1.22202 1.46637 5.57488 -1.641998 -1.625034 1.52121
O 5.48159 10.2462 6.87986 -0.133181 0.063971 0.564858
O 5.20973 0.57511 6.04597 0.547114 0.639184 0.014185
O 1.2506 3.45573 12.3205 -0.286498 -0.589106 -1.617563
O 8.95977 1.68637 2.06332 0.604185 -3.141414 0.968278
O 7.69044 12.3504 8.15188 -1.175267 1.596956 0.185337
O 5.97087 8.21597 4.9581 1.119934 -0.685818 0.846751
O 7.0648 8.21481 0.18871 0.81261 0.524648 0.295653
O 3.23747 1.74877 7.39302 -1.34931 0.138868 1.368034
O 11.1363 0.39525 5.12917 0.542192 0.55197 -0.882254
O 8.04039 10.8322 4.21623 0.983166 0.932654 -0.176711
O 10.2786 9.70576 3.17609 -0.15448 0.933437 -0.071127
O 1.21625 11.2284 0.08542 1.377641 -0.719876 1.701516
O 6.58724 4.95359 3.35164 1.182316 -0.099099 -1.333591
O 10.1181 6.91527 4.51226 -0.155939 1.129528 0.207606
O 8.24532 10.1258 6.98664 -0.656863 -1.02167 0.62211
O 7.72453 6.48485 5.29997 -0.226089 1.982999 1.163896
O 9.71772 8.73675 0.8626 -0.221725 -1.317074 -3.211154
O 8.62625 0.94556 4.55646 0.312147 0.140638 -0.207929
O 1.8866 11.6103 4.4989 -2.208203 -1.414003 0.129626
O 0.04495 3.20337 2.36625 -0.163936 -0.317782 -0.106307
O 9.11744 11.628 10.3889 -0.18032 1.486819 0.643046
O 4.21676 7.6231 8.66346 0.858226 1.228275 -1.802297
O 10.0492 1.86942 10.9366 0.336886 -0.186896 -1.503725
O 5.34607 0.09194 10.3348 0.333305 -1.657308 0.334638
O 0.4978 10.3263 2.54045 0.221598 0.979252 0.716098
O 10.983 10.4316 6.58093 -0.419721 -1.164343 0.562044
O 10.8589 6.70103 9.48091 -0.479876 0.211106 1.633387
O 8.34084 5.61919 9.44198 -0.314755 1.443403 -0.023356
O 4.62277 3.26529 2.69501 -0.916982 1.067364 -1.564899
O 11.9003 2.12994 8.8125 -0.916768 0.137524 -1.247038
O 6.93494 4.91476 7.31397 0.192468 -0.399571 0.102398
O 11.1208 8.4478 11.3258 1.91138 2.853471 1.7739
O 11.3694 0.75115 2.42254 2.503426 0.080509 -0.883452
O 2.85746 11.0678 7.58501 -0.640934 -0.106195 -0.445655
O 3.52714 8.44733 2.12399 -0.109027 -1.568419 1.213517
O 0.73162 9.56463 7.72361 0.235512 -0.36541 0.263787
O 7.07515 8.00042 8.94905 -0.025613 1.144492 0.565314
O 3.21839 9.68561 10.2875 -0.880235 1.412782 1.802743
O 2.20084 4.89523 6.2897 1.31013 -0.914206 0.86825
O 6.93799 10.045 10.7201 -0.054075 -0.810243 0.772477
O 0.6117 0.95411 11.3333 -1.436386 1.831744 -0.854511
O 6.37377 9.32939 2.87632 0.474171 -0.064591 -0.789755
O 11.4753 11.7986 8.93691 -0.874283 -0.507073 -1.395308
O 4.79455 6.63284 0.17173 -0.2344 1.457639 0.399956
O 2.80907 0.12224 9.60841 -1.807337 0.775501 -0.641667
O 0.47735 7.53087 1.82453 -0.942369 -1.278784 1.12299
O 4.60869 3.53391 8.66551 -0.135174 -0.694885 -0.720751
O 3.63909 7.25683 6.22587 0.358223 0.312262 -0.344996
O 4.12191 0.20989 3.52802 0.053725 0.305215 0.778969
O 8.04276 3.94838 11.3641 -0.670576 -0.666599 -0.685802
O 0.40567 10.0355 10.2188 -0.112573 -1.073934 -0.393781
O 2.01527 7.82275 12.0295 1.203552 -0.565483 -0.756646
O 3.86387 4.08436 0.28264 -1.158491 -1.655814 -0.739582
O 2.90223 5.51215 9.39281 0.654373 0.550892 -1.036433
O 2.29655 3.41315 4.09081 -0.007799 0.367771 0.851262
O 10.8618 5.62622 2.26323 0.150031 3.423815 -1.632746
O 0.58975 5.66712 11.0035 -0.384026 1.085876 -0.050149
O 7.1761 2.19477 6.64196 -0.662446 0.911466 0.02153
O 8.60363 4.33777 1.51469 0.287412 0.894822 -0.688724
O 5.60665 2.72019 10.9347 -0.824133 -0.522534 -0.159506
O 2.19074 8.85477 4.86911 0.1869 0.150926 0.307252
Cl 4.29256 11.2842 0.69531 0.064839 -0.296067 -0.094605
Cl 12.2368 6.5931 6.4833 0.076057 0.472022 0.513911
190
energy=-1023.78946373 config_type=nep2xyz pbc="T T T" virial="-3.664777108341041 -4.092113688731699 0.5758988156899337 -4.092113688731699 0.9129246940871445 -6.433325518760019 0.5758988156899337 -6.433325518760019 3.1737029973301545" Lattice="12.4 0.0 0.0 0.0 12.4 0.0 0.0 0.0 12.4" volume=1906.6240000000003 Properties=species:S:1:pos:R:3:force:R:3
H 12.2465 2.93477 7.57756 0.781684 -2.132312 -2.640054
H 11.8605 0.62993 4.49949 0.715852 -0.982735 0.346887
H 4.0488 5.35745 7.05259 -0.419163 0.332427 -0.143436
H 9.91515 1.3862 4.9668 -0.664156 0.411123 -0.306121
H 0.40884 4.49945 0.05246 -0.215443 -0.223396 -0.601904
H 2.43971 4.50825 8.3611 0.494527 0.798794 -0.902227
H 11.0267 8.63623 4.91212 -0.388778 0.61715 0.313101
H 9.99615 11.1066 9.36367 0.417379 -0.738413 0.254471
H 0.3983 3.66832 1.43721 0.165739 -0.07809 -0.10607
H 0.64953 11.3253 6.37937 1.46116 -0.121736 0.638762
H 10.3662 5.91073 7.16574 -0.126279 0.254204 -0.223585
H 1.67945 5.25868 1.10061 0.790234 -0.492146 0.385227
H 10.0381 3.2297 11.1258 0.457341 -1.564777 -0.045524
H 0.92021 11.8471 0.35534 0.212794 2.190975 0.970698
H 9.67913 7.65839 5.81547 0.447054 0.735025 -0.26194
H 0.2811 7.98076 9.67494 -0.021648 0.460256 -0.144886
H 8.92967 4.56604 2.09674 1.07253 -0.463815 0.174413
H 6.93284 5.98351 8.52488 0.10018 -1.011928 2.754459
H 9.94301 9.85881 6.66355 -0.133869 0.202412 1.226325
H 6.95616 11.2593 10.7534 -0.055552 -0.457713 -0.257409
H 1.39672 4.47122 10.1849 0.168123 0.112414 0.958942
H 4.04406 9.14832 10.9496 0.152336 -0.680298 -0.781081
H 9.74939 7.63185 11.5557 0.453886 -1.056157 -0.269136
H 1.27262 1.508 6.07518 0.346417 -1.928521 -0.98694
H 6.50831 11.1266 12.2005 -0.062493 -0.562919 0.93847
H 9.3532 10.2342 5.28706 0.689317 -0.48929 0.639606
H 6.66659 11.0513 4.37383 -0.438713 -0.415122 -0.047354
H 7.13925 1.03986 10.6379 1.045625 1.294731 -0.296515
H 9.83704 11.9715 8.15403 -0.2346 0.476866 -0.329077
H 2.6102 6.14951 1.87997 0.475761 0.328391 0.670789
H 6.3465 7.8235 8.05466 -0.022656 -0.476457 -0.45124
H 5.4617 9.89431 3.95611 1.296639 0.899105 -0.223538
H 5.10826 1.48202 5.45691 -1.189838 -1.427563 1.677619
H 6.20253 2.81255 3.04436 0.628156 0.511672 -0.164499
H 10.9418 3.84856 1.80829 0.286804 0.144242 -0.664674
H 1.46729 12.0856 4.87629 -0.652605 -0.849819 -0.233982
H 10.4617 7.74592 2.7322 -0.017365 0.205759 0.494148
H 11.4707 4.18488 8.02076 -0.774274 1.471406 -0.071827
H 8.07783 1.87836 1.23013 1.371934 -0.949757 0.07942
H 11.4332 6.1905 8.31441 0.583783 0.990268 0.46842
H 3.81999 0.03075 2.40368 0.141654 1.96893 -1.859908
H 3.63219 0.71942 5.81691 0.321525 0.055795 -0.35012
H 4.52499 8.11474 2.75394 0.509693 0.042565 -0.277649
H 5.70956 9.28046 7.68326 -0.580994 0.179288 -0.288215
H 10.3682 1.87196 8.54554 1.352907 0.577202 0.538794
H 2.57641 10.7355 1.67629 0.867812 0.737825 0.472205
H 1.80577 0.83815 0.7358 -1.571838 -1.298608 -0.144304
H 5.94839 8.68509 2.12472 -0.066147 0.084954 -0.488106
H 6.03769 3.4196 5.40657 0.286535 -1.376189 -1.192982
H 8.60505 12.2706 5.10897 -0.122444 1.213974 0.359359
H 2.73432 8.51246 1.9702 -0.188456 0.841171 -1.057808
H 0.78475 3.62126 8.62426 0.441843 0.204982 -0.130926
H 5.02709 11.5262 6.69416 -0.103044 -0.014773 -0.496012
H 11.3759 11.8767 10.51 0.413142 1.150728 0.026039
H 8.68193 6.05078 1.73847 -0.576234 -1.203628 0.089191
H 10.6787 7.45158 0.28412 0.233098 -0.980169 -0.11303
H 4.91366 12.1994 10.8087 0.116684 0.496077 0.292317
H 9.25987 8.34851 1.90952 0.078744 0.463135 0.202135
H 9.79873 5.25438 9.46236 0.262952 -0.595288 1.360576
H 2.15865 5.12038 5.21638 0.910892 1.317268 0.295022
H 0.93193 5.85476 10.5104 -1.18228 2.392243 -0.996839
H 9.89243 2.7257 2.25335 0.491778 0.805797 -0.054112
H 11.7192 7.02812 10.4471 -0.112048 0.211536 0.051783
H 7.17705 2.27835 5.1217 -0.83829 0.052121 -0.326095
H 3.37355 11.1293 10.6512 -1.026834 -1.239594 0.649543
H 4.5492 11.5461 3.45397 0.571068 -0.321535 0.09551
H 8.48414 1.92042 10.6348 0.515951 -0.120709 0.426152
H 2.43536 8.01836 3.36358 0.713746 -0.804063 -0.204386
H 6.38634 7.11297 3.88573 -1.540289 1.889536 -1.051089
H 7.37906 6.06797 3.3724 -0.198483 0.316377 0.882347
H 9.94084 1.88176 12.0293 -0.358314 -0.036949 1.209878
H 2.94957 5.65786 11.1353 -0.137637 0.16231 0.461252
H 9.00689 0.53214 1.26515 -0.299207 -0.525995 0.288628
H 7.12029 3.87431 2.15218 -1.14868 -0.65423 0.235496
H 2.53359 2.945 8.67672 0.602465 -0.45699 -0.211488
H 11.4112 9.99807 1.43449 -0.295177 0.184044 -0.666488
H 9.42495 1.55155 6.41764 -0.671592 0.151623 -0.51554
H 7.3373 9.13367 0.08009 0.379574 -0.852793 -0.573978
H 2.77333 6.34227 7.13196 0.616251 -0.410692 -0.031797
H 5.041 10.1787 5.88109 -0.179984 1.156001 0.720012
H 10.7673 4.65144 4.02675 0.902743 0.61151 0.70681
H 2.02905 9.59567 6.61195 -0.413123 0.964526 0.680093
H 12.3372 10.3985 9.89386 -1.230482 0.164922 0.522885
H 11.1221 0.54703 3.09338 0.280025 -0.044512 0.536389
H 11.3536 10.7335 11.6047 -0.493078 -0.106151 -0.180505
H 4.36085 1.84811 7.82013 -0.596813 0.197363 0.485346
H 7.6938 10.0205 1.31056 -0.777511 -0.605903 -0.381959
H 3.64448 0.7265 12.3688 0.180564 -0.17696 -0.465796
H 8.24888 10.5454 9.00122 0.063098 -0.312777 0.657042
H 3.7217 1.88472 0.94576 0.591212 1.941209 0.184149
H 3.54732 6.18245 0.09429 -0.23988 -0.557006 -0.206883
H 3.948 0.76799 9.91334 0.159775 -0.36673 1.005093
H 8.47079 6.79233 5.4567 -0.458751 -0.125836 -0.709489
H 11.406 6.07963 4.49927 -0.521263 -0.940916 0.216895
H 8.67061 11.2305 3.96066 -0.626897 0.526625 -0.083365
H 2.0364 10.2471 10.401 -0.382526 -0.740129 -0.113227
H 3.65613 3.99797 1.13348 -0.164269 0.359028 -0.018514
H 6.26341 5.32663 6.48662 -0.460477 -0.325669 0.636575
H 2.78302 10.1022 0.2054 -0.06044 0.5313 -0.315017
H 6.27533 2.8497 10.8055 1.818524 -1.236828 0.138796
H 5.13364 3.43683 1.3213 -0.01098 -0.207064 0.054308
H 6.2768 4.97223 10.3513 -0.154684 0.006552 0.570868
H 4.34989 7.449 10.9372 0.073887 0.511337 0.434087
H 0.67896 4.75031 5.02598 -1.35245 0.709132 -0.157119
H 4.55445 2.74555 9.21748 -0.764702 -1.009897 -0.674356
H 7.81418 5.29484 10.4472 -1.509331 0.812261 -0.184069
H 0.36955 0.48297 11.0653 -0.108197 0.658343 -0.002012
H 4.84972 8.4165 9.7107 0.754585 0.331527 -0.15781
H 4.96889 3.34692 11.5571 0.382782 0.252213 -0.202442
H 7.95327 8.97752 10.6235 -0.335283 1.779947 -2.012301
H 11.5503 1.41341 10.71 0.653379 -0.601113 -0.464361
H 11.6921 11.0132 5.97939 -1.345168 -0.584589 -0.416687
H 7.44364 7.5123 11.0122 -0.425194 -0.350282 -0.409841
H 0.05341 2.54302 3.1738 -1.773379 -1.364156 0.545814
H 9.83733 5.55207 11.0904 0.081187 -1.050816 -1.291891
H 12.3793 8.00171 4.45233 -1.844319 -0.442958 0.208249
H 0.99255 3.62455 3.32027 1.008787 1.054074 0.713516
H 8.88127 1.76913 8.58263 -0.708275 -0.114982 0.275814
H 2.83487 12.1627 4.03031 -0.078903 -0.371991 -0.583316
H 0.97479 10.195 8.77813 0.56551 0.109448 -1.22074
H 7.05553 9.55903 9.07214 -0.960114 -0.531184 -0.161159
H 0.42776 9.6866 0.96817 0.218442 0.191303 -0.577889
H 2.90496 10.7458 7.02059 0.7313 0.399754 0.111648
H 6.05126 5.45446 5.09541 -0.245769 0.082564 -0.980783
H 1.22096 2.96214 6.03599 0.570766 0.808331 -0.183747
H 7.89939 6.57403 7.45198 0.817243 0.162835 -0.250353
O 2.27735 0.15104 4.73569 0.293656 1.608977 1.386864
O 5.83863 8.59877 8.36757 -0.180734 0.585873 0.652225
O 10.095 9.72221 5.7341 -0.767853 0.658692 -1.130083
O 12.3327 4.34469 0.88085 0.012335 0.183271 0.415564
O 9.65403 1.40314 8.14369 -0.559566 -0.426669 -0.641916
O 9.07588 1.55998 5.48328 1.165247 -0.512178 0.597738
O 5.65262 4.92493 5.81995 0.527363 0.140545 0.699956
O 11.9279 9.83551 0.61779 0.224237 -0.264646 0.888175
O 4.55254 0.86535 6.13905 1.098433 1.454764 -0.755153
O 1.17586 2.22609 6.66493 -0.65494 1.120333 0.793333
O 0.00381 11.5836 5.72022 -0.311318 0.707866 -0.247503
O 6.94875 9.48148 0.89022 0.296359 1.452494 1.16079
O 12.181 0.72275 10.3122 0.010277 0.96954 0.500694
O 8.0623 8.22881 11.1686 1.258482 -2.349549 2.841845
O 6.89345 5.74052 10.3255 1.793673 -0.940417 -0.287694
O 11.961 3.41043 8.32292 0.764389 0.124121 2.637482
O 2.94059 7.7614 2.5322 -0.718489 0.072529 1.037883
O 11.0011 11.0022 10.7191 -0.428497 -1.437874 0.570583
O 11.249 1.06106 3.91338 -0.992961 0.786469 -0.807798
O 1.99406 10.4605 7.14779 -0.466754 -1.549007 -0.565367
O 10.2339 3.64486 2.4348 -0.774491 -0.921319 0.70174
O 7.56861 1.89893 10.3182 -1.150512 -1.652635 -0.046276
O 2.6105 5.276 1.45085 -1.44519 0.511315 -0.407685
O 10.1962 2.2163 11.1703 -0.311383 1.95521 -1.220292
O 9.73245 11.0485 8.42187 -0.187549 -0.013112 -0.23265
O 7.03941 6.52058 4.20168 2.0224 -2.291851 -0.053237
O 0.64853 9.82051 9.59308 0.860509 -0.642186 0.302416
O 9.66083 4.8333 10.3751 -0.310905 1.554188 0.412967
O 4.84134 10.5652 6.77533 0.171543 -0.750558 -0.093632
O 3.72513 11.6779 2.93941 -0.578566 -1.821877 0.806838
O 1.23182 5.08654 10.9429 1.210603 -2.431076 0.585037
O 6.24155 2.5193 4.87637 0.532456 1.28169 1.245648
O 10.7147 5.62581 8.02759 -0.672597 -0.899741 -0.442585
O 9.01254 1.49592 1.18082 -1.17696 1.493198 -0.152313
O 9.13208 6.953 6.13694 -0.30585 -0.793733 0.994939
O 11.3544 7.86696 4.43298 2.71769 -0.268319 -0.942796
O 7.63374 10.0798 9.64569 0.67474 1.743005 -0.889704
O 6.98581 6.40703 7.69641 -0.476371 0.740447 -2.425452
O 2.29231 10.084 1.04091 -0.892186 -1.430049 0.265815
O 12.34841 7.06821 9.69067 -0.08652 -0.389387 0.104539
O 4.75927 8.40943 10.7084 -1.504406 -0.697976 0.396817
O 0.84012 0.43583 0.60302 1.15014 -1.244896 -0.840658
O 3.41158 0.98917 0.86993 -0.908979 -1.930631 0.35723
O 1.9852 3.75948 8.80384 -2.245091 -0.36014 0.763905
O 3.26507 5.61581 7.58336 -0.130886 0.264243 -0.047818
O 6.41024 11.6949 11.4375 0.045035 0.855238 -0.940627
O 11.3512 5.10501 4.70498 -0.38904 0.162386 -0.759928
O 3.9136 2.16677 8.6638 1.584545 0.291866 0.315592
O 9.80716 7.56839 2.0401 -0.137253 -0.584255 -0.509787
O 5.70716 10.8287 4.23252 -0.77778 -1.086653 -0.022608
O 8.21447 5.15821 1.8247 -0.328418 2.110173 -0.058703
O 4.02716 0.2429 10.7712 -0.069825 -0.149369 -1.529147
O 0.86307 2.83667 2.80986 1.017191 0.111555 -1.243604
O 4.2911 3.34283 0.80032 0.286604 0.079282 -0.357389
O 3.71478 6.12368 11.5367 0.78339 1.008784 -0.763548
O 1.57281 4.41853 5.01651 -0.002936 -1.892778 -0.165678
O 5.4966 8.28648 2.88708 -0.317193 -0.058345 1.05304
O 10.4922 6.99433 11.8254 -0.92197 1.876784 -0.081959
O 8.12346 11.5169 4.74494 1.046121 -1.611608 -0.763454
O 6.44277 3.13081 2.13812 0.886433 0.241303 0.038215
O 5.52685 3.40693 10.7338 -2.711784 1.405284 -0.279248
O 2.90307 10.2155 10.8692 2.00328 1.731138 -0.134792
Cl 9.42659 10.915 1.9416 -0.078655 0.049043 0.403913
Cl 1.97731 7.84676 5.38401 -0.10244 -0.023956 0.166445
190
energy=-1023.36107973 config_type=nep2xyz pbc="T T T" virial="-2.518239370264784 1.3630977795674624 -7.146564670687452 1.3630977795674624 -7.278145304755387 -2.483740658302865 -7.146564670687452 -2.483740658302865 -4.31311250896102" Lattice="12.4 0.0 0.0 0.0 12.4 0.0 0.0 0.0 12.4" volume=1906.6240000000003 Properties=species:S:1:pos:R:3:force:R:3
H 0.58351 2.80156 4.56855 0.674862 1.821007 -0.377079
H 11.02 2.48609 5.28157 0.049344 -0.17527 -0.082496
H 6.43523 7.95987 11.1856 0.228962 0.241723 0.096636
H 9.9274 11.7903 8.90801 -0.442713 0.444459 -1.063439
H 1.00176 3.16646 0.76898 0.886268 -0.256777 -0.59076
H 12.3106 1.95477 9.86676 0.016128 0.062187 -0.103556
H 1.11403 9.09597 1.69025 -0.491972 -0.364171 -0.134163
H 6.91426 10.9764 9.20618 -0.829949 -0.781266 1.174542
H 0.1362 1.56493 1.94283 -0.512345 -1.617302 0.229838
H 0.62117 11.0757 6.66736 0.036218 -0.029344 0.95694
H 10.6562 9.22334 8.30265 0.249629 0.880268 0.988398
H 0.52405 9.61832 11.4529 0.776387 0.834549 2.600499
H 8.72229 2.78946 10.5148 0.983995 -1.057112 0.011749
H 0.14075 1.0876 3.53625 -0.338478 -0.456022 -0.531425
H 10.0171 10.0646 6.17182 -0.8396 -2.370929 2.243515
H 0.87517 5.24135 8.62397 2.05567 -0.698608 -1.992537
H 9.62365 4.45955 11.9767 0.654403 0.439022 -0.671141
H 8.708 8.72381 7.05459 -0.534243 -0.885335 0.420685
H 8.03461 0.25948 4.20245 0.052594 -0.042658 0.820541
H 3.35417 1.12061 10.6143 -0.796309 -0.493851 -0.503481
H 0.0068 2.08217 12.3212 0.70624 1.132736 0.477602
H 7.56481 11.2457 11.4873 -0.680783 -0.440605 -0.275035
H 0.71719 5.82009 11.0317 0.310578 -0.073845 0.414765
H 1.12901 1.54679 5.33394 -0.952515 0.510109 -0.594175
H 1.5266 0.51832 9.39413 -0.488371 0.300119 -0.109729
H 7.37699 0.0363 2.83551 0.052732 -0.01966 0.13014
H 4.88365 0.30477 3.11659 0.947245 -0.560191 -1.134305
H 8.70374 0.28408 0.48748 0.119385 0.075425 -0.536194
H 7.61129 11.6217 8.19104 -0.376014 0.035582 -0.786729
H 2.64109 7.41204 11.7303 1.025144 0.607599 -0.858328
H 6.27872 11.3044 6.16458 -0.402546 -1.175554 -1.038484
H 4.23005 0.76942 4.30726 -0.756991 0.207441 1.655418
H 4.57646 1.01756 6.52767 0.968082 0.15309 0.870805
H 6.31758 3.81872 0.97384 0.027965 -0.328137 0.076358
H 11.4777 3.73932 0.61195 -0.878502 0.411165 -0.074865
H 1.84713 3.27052 7.22731 0.018695 2.300022 0.461484
H 4.59456 8.84545 5.82728 0.668043 0.801298 -0.015767
H 11.7933 10.4449 9.75246 0.555849 0.08827 0.177024
H 5.91954 2.395 1.61944 0.701727 0.671897 -0.410435
H 11.126 8.95939 6.91951 0.775051 -0.364527 -0.300515
H 3.73589 2.59363 3.28521 0.678566 -2.680897 -0.171087
H 3.53791 12.2469 6.25893 0.337073 -0.15721 0.49824
H 8.01118 6.46108 3.60099 -0.119587 -0.244004 0.224314
H 6.17784 10.6009 4.69818 0.217445 0.383606 -0.636925
H 5.38515 12.29626 0.75378 1.057269 2.000928 -0.500319
H 2.50598 10.18 1.23239 -0.238231 0.397441 -0.051225
H 11.4592 0.2932 2.32958 -0.834417 -0.180904 0.078692
H 7.49851 6.03664 1.03918 0.047073 0.22689 0.613256
H 5.82478 3.39659 7.22382 0.062701 -0.427773 -0.146215
H 8.63568 1.84442 6.01296 0.300323 0.511179 -0.500985
H 7.92154 7.09464 5.90002 -0.824826 1.777821 0.806449
H 12.1373 11.7968 8.87849 -0.466275 -1.035613 0.201675
H 7.47815 7.35116 8.08121 0.127087 -0.19418 0.148317
H 10.5201 6.78102 9.79381 -0.585808 -0.606826 -1.157476
H 9.31856 4.88121 10.3732 0.684666 0.021287 0.105687
H 11.8008 5.56995 10.2899 -0.677546 0.269059 0.106127
H 2.51092 9.70935 8.29354 -0.179831 -0.156638 -0.021335
H 4.1218 7.46978 6.23133 0.424304 0.442095 -1.071229
H 10.2079 5.5507 8.00604 0.539985 -0.357726 -0.373221
H 2.05011 4.18072 3.90758 1.679818 -0.530251 -0.189695
H 12.1232 3.48547 10.3705 0.050934 -0.781255 0.240368
H 9.93887 3.64235 1.99486 0.436933 0.483792 -0.839675
H 2.41219 5.3128 7.97388 -1.095152 0.090627 0.042608
H 6.55181 2.04501 7.17657 0.971955 -0.593752 -0.100604
H 0.96532 9.39391 10.0339 0.210581 -0.473143 -0.756159
H 4.22617 3.98897 3.55412 0.622383 0.375612 0.191234
H 8.58222 0.89357 11.3714 0.141409 -0.003881 0.841322
H 8.95628 6.05082 5.71286 -1.066956 0.139072 -1.003389
H 9.70898 9.18064 2.44341 -0.516527 0.029382 -0.100675
H 10.2172 9.82683 3.8403 0.388746 -0.025653 -1.359601
H 10.2102 2.25641 10.6447 0.888264 0.21429 -0.184994
H 4.93673 7.35037 11.4713 -1.816973 0.736219 -0.090892
H 8.50131 3.11879 2.37694 0.129964 -0.117564 0.008759
H 8.46496 5.25447 2.71932 -0.219832 1.876591 -0.191751
H 1.19499 1.44583 8.19845 -0.141229 0.205274 -0.546321
H 9.04213 7.88347 10.943 0.580522 -0.052117 -0.302412
H 9.35437 0.81408 9.29344 -0.756814 -1.675573 -2.073597
H 7.68694 9.3365 1.93171 0.413139 -0.445113 -0.029732
H 4.86072 4.70038 9.33356 -0.371162 1.022254 -0.49531
H 6.98911 6.84857 9.46203 0.138914 -0.473725 -0.088368
H 11.3434 5.19614 1.01818 -0.513768 0.199621 0.319241
H 1.66832 8.68149 3.98566 -0.127046 0.152882 -0.59835
H 1.04376 6.23606 6.58184 -0.58684 0.599232 -1.323085
H 9.82734 3.30075 4.61043 0.705627 -0.945019 0.996827
H 8.32705 8.33475 12.2895 0.132187 0.153504 -0.773105
H 5.44099 3.31429 9.07137 0.50184 -1.106542 -1.042711
H 8.39299 7.89139 2.17681 -0.332042 -0.272765 -0.186945
H 2.93629 11.7642 2.78104 0.284177 -1.049648 0.110745
H 4.66653 11.0528 8.03215 0.073609 -0.195108 -0.181774
H 3.92978 10.557 2.81908 0.214422 0.128818 -0.033186
H 3.97943 9.7352 10.6204 0.238871 -1.809386 -1.108737
H 2.08185 8.2423 8.59526 0.20792 -0.031338 -0.22872
H 11.0038 10.9868 5.68252 1.328725 0.793512 -0.243429
H 0.0253 6.89774 2.43483 0.46994 1.230326 0.445371
H 8.67382 0.96999 7.23812 -0.836038 -0.310853 -0.809271
H 11.216 7.99841 10.5319 -0.282117 -0.400395 0.183851
H 2.21502 5.55433 0.15636 -0.884254 0.724515 0.051256
H 6.96364 5.02011 6.43876 -0.816453 0.037273 -0.279498
H 2.72874 9.82743 12.2002 2.789906 -0.201795 -2.502301
H 4.61953 1.91017 12.0949 -0.03145 0.783609 -0.536814
H 2.7268 3.97973 1.72094 -3.9e-05 -0.421319 -0.413941
H 10.5676 4.62368 5.96477 -0.504407 1.47444 0.64999
H 3.32584 11.977 10.6036 0.335065 -1.04076 0.528193
H 0.50536 5.43813 2.91834 0.025975 -0.109506 0.406499
H 4.44676 3.19949 10.9984 0.502015 -0.521751 -0.104897
H 11.4144 5.8619 5.79123 1.262188 1.366173 -0.242453
H 10.0888 11.1855 2.0734 0.325364 0.302324 0.282038
H 5.21055 10.59 11.3125 -0.309905 -0.812286 -0.708824
H 3.12666 3.4436 0.24374 -0.639815 -0.281736 0.245428
H 8.06729 5.55115 11.9616 -0.767593 -0.740957 0.399536
H 9.41382 0.12049 2.59178 0.064317 -0.04336 -0.260519
H 1.03203 10.1666 5.49037 0.22644 0.741679 0.165723
H 6.42089 6.45663 11.9055 0.476871 -0.246122 0.409033
H 3.35297 7.40238 10.2584 0.035711 0.100461 0.348553
H 8.87379 5.88811 8.67096 0.603193 -0.156394 0.966318
H 12.0184 9.03186 2.30138 0.547611 0.157077 0.330862
H 1.01895 6.37363 0.7528 0.493171 0.150901 -0.220835
H 6.61502 0.81674 0.15282 -0.2911 -0.488944 0.219161
H 2.81391 2.00509 7.08518 0.25845 0.170331 -0.386142
H 1.18075 7.39214 5.34531 -0.045113 -0.395664 0.527117
H 3.45148 11.7338 8.64286 -0.04991 -0.119064 -0.364676
H 7.5466 9.6581 11.1184 -0.619171 1.541658 -0.23095
H 2.94384 8.45028 4.96218 -0.30636 -0.29724 -0.014313
H 5.59818 5.46756 7.06046 0.395092 -0.715778 -0.548376
H 1.07235 5.11344 4.7894 -0.000393 -1.094772 -0.909511
H 7.36381 9.12905 6.53759 -1.521902 1.020774 -0.436133
O 1.91092 2.34669 7.11421 -0.319421 -2.237049 -0.399012
O 5.89889 10.5603 5.6133 0.27677 0.541506 1.658935
O 8.03199 0.59518 3.30737 -0.145131 0.080464 -0.602559
O 0.20475 2.57614 0.76783 -1.41837 -1.198179 0.198035
O 5.68215 0.84819 0.51193 -1.11964 -1.464467 0.270143
O 9.24813 0.03645 8.54488 1.144206 1.391123 3.110374
O 6.02388 4.72764 6.54467 0.098328 1.31192 0.49923
O 8.23869 8.33444 11.2911 -0.61007 -0.139394 1.547877
O 3.81588 0.74474 6.02858 -0.871062 0.234586 -1.112264
O 0.43551 1.86888 4.68943 0.192696 -2.413873 1.145166
O 0.79835 11.1007 5.73322 -0.220333 -0.76318 -0.903108
O 8.46792 8.74958 1.71378 -0.913265 0.019186 -0.520547
O 10.0981 12.1702 1.94526 -0.318798 -0.035521 -0.084136
O 7.22823 5.70726 0.16848 -0.201692 0.255743 -0.811827
O 10.5746 5.63758 6.18462 -1.054055 -2.995083 -0.029846
O 11.6106 10.9332 8.93168 -0.307447 1.28894 -0.555543
O 8.01549 6.30802 5.38819 2.234724 -2.19944 -0.313036
O 10.5027 7.31409 10.5868 0.912292 1.349376 1.060909
O 10.1962 2.95257 5.49375 -0.802391 1.107052 -1.349409
O 1.93777 8.50864 4.89543 -0.008255 0.848886 -0.104898
O 10.7804 4.4827 0.64252 1.323085 -0.899036 0.216448
O 8.13009 0.36045 12.0948 0.025041 -0.23725 0.148532
O 3.4049 7.81684 11.149 -0.842954 -0.856804 0.350017
O 9.29743 1.96094 10.4758 -1.731289 0.841493 -0.261696
O 6.77484 11.09 8.25978 1.010154 0.78647 -0.228774
O 10.442 9.67029 2.8692 0.721045 0.612204 1.660277
O 0.63257 6.6154 5.72728 0.395982 -1.436784 0.813358
O 9.79994 5.49012 8.88682 -0.464463 0.307577 -0.724862
O 7.5802 6.60882 8.73186 -0.871589 0.494213 -0.040131
O 3.44997 3.47973 3.33747 -0.741614 2.359503 -0.201204
O 11.8349 2.54474 10.5084 0.240466 0.405919 0.120102
O 5.7958 2.45853 7.59947 -1.084522 0.226298 0.134561
O 10.4226 8.73708 7.52516 -0.751201 -0.723626 -0.694164
O 9.3627 3.42232 2.72586 -1.079526 -0.034298 1.142164
O 10.0823 10.7741 5.60155 -0.472063 1.82743 -2.454661
O 0.51907 8.6227 2.3106 -0.272694 0.002377 0.12768
O 3.69627 11.102 7.9277 0.101523 0.231466 0.631866
O 7.77565 8.37599 6.93679 1.916116 0.54777 0.01931
O 2.05422 9.85274 0.40903 -2.625834 0.198452 2.760296
O 1.46898 5.04664 7.75827 -0.726493 0.632205 2.267182
O 6.98938 10.5326 11.0778 0.986022 -0.403591 0.194133
O 12.357 0.68883 2.55716 1.685633 2.436243 -0.163211
O 2.99183 10.7752 2.71278 -0.508184 0.640846 -0.065669
O 0.75751 0.84108 8.83966 -0.093263 -0.635664 0.93319
O 5.86114 7.17692 11.246 1.36585 -0.697254 -0.299157
O 2.87924 0.32988 10.205 0.862417 1.316849 0.304475
O 12.3884 5.95742 2.28277 -0.389309 -0.991774 -1.321353
O 5.2476 3.94632 9.75708 -0.123845 0.196288 1.76759
O 4.35978 8.01482 5.41071 -0.494146 -0.894051 1.099924
O 4.13033 0.83065 3.35723 -0.322103 0.589407 -0.561265
O 8.96884 4.62747 11.248 -0.928506 -0.286481 0.014442
O 1.74452 9.14714 8.55934 0.36998 0.372449 -0.031712
O 1.68082 6.40112 0.0082 0.062484 -1.176501 0.454533
O 2.37735 3.8607 0.80493 0.915461 0.677432 0.044176
O 4.23782 10.4409 11.1667 0.308027 2.807605 1.571437
O 1.14232 4.30485 4.13568 -2.165884 2.247312 1.550478
O 8.16505 6.23809 2.65124 0.499438 -1.946054 0.334826
O 0.27552 5.20434 10.4133 0.210217 -0.257007 -0.811746
O 8.06466 1.23038 6.47957 0.424805 -0.364594 0.968825
O 6.54075 3.16481 1.65551 -0.264959 -0.172791 0.385287
O 4.0045 2.56528 11.627 -0.183059 -0.493739 0.576933
O 0.24357 9.21685 10.668 -1.178994 -0.746376 -1.525869
Cl 6.1287 10.717 2.31527 0.086292 -0.071391 0.182967
Cl 4.09347 6.75831 8.18902 -0.214353 -0.252376 0.263577
190
energy=-1024.50760682 config_type=nep2xyz pbc="T T T" virial="-16.584741091562837 -2.567768048838605 2.5432774144068597 -2.567768048838605 -10.188187225083718 3.2296220892615306 2.5432774144068597 3.2296220892615306 -14.830911780930299" Lattice="12.4 0.0 0.0 0.0 12.4 0.0 0.0 0.0 12.4" volume=1906.6240000000003 Properties=species:S:1:pos:R:3:force:R:3
H 11.0426 12.1776 7.57987 0.36045 0.104717 -0.08271
H 2.79248 4.59515 5.11649 -0.158522 -0.793803 -0.0836
H 3.92824 7.91469 5.19698 1.359517 1.133485 -0.892171
H 9.24085 5.01989 5.83977 -0.007648 -0.121478 -0.326265
H 0.82699 4.59368 11.628 0.273362 0.661276 0.738704
H 3.81029 6.17588 7.28282 0.431334 -0.374833 0.025037
H 9.90582 6.94758 3.56955 0.208519 -0.077581 -0.576936
H 0.10214 11.7349 7.8571 1.287747 0.548145 0.329798
H 1.30654 5.69478 0.36498 -0.34842 0.082181 -0.431409
H 9.67892 1.4411 6.69819 0.424546 0.057425 0.873745
H 12.2025 5.59581 7.07355 -0.140469 -0.45008 0.711284
H 2.76116 2.64514 1.611 0.010438 0.839857 -0.633418
H 9.79431 12.2612 0.65417 0.87838 0.320298 0.727726
H 11.6922 0.59611 4.2824 0.882208 -0.186995 0.567007
H 6.32155 8.18439 5.38983 0.388189 0.843998 0.122016
H 10.8091 4.88948 10.8698 0.294232 -0.132151 0.304757
H 10.5446 3.63398 0.46229 -0.203813 0.663556 -0.609806
H 10.9783 7.01063 7.76287 -1.024283 -0.227405 0.483169
H 8.48826 9.5664 1.45986 -0.652571 -0.078225 -0.912858
H 5.30559 11.3812 1.5206 -0.191479 0.318869 0.39487
H 0.10004 3.13885 10.1631 -0.142061 1.281699 -0.377794
H 0.9806 8.73509 8.43873 0.37916 0.330719 -0.796215
H 11.776 7.30722 0.80283 1.852665 0.479959 0.362014
H 11.054 3.86201 6.56094 -0.458545 0.431897 -0.144033
H 6.13819 0.20154 0.86947 -0.22954 -0.529984 -0.364161
H 8.63224 8.54794 2.67225 -0.031049 -0.334402 -0.302378
H 7.4386 11.3324 4.88506 0.492214 -0.648355 -0.161542
H 9.21388 10.8862 11.5063 0.878915 0.648486 0.079348
H 10.9855 9.75375 9.07962 -1.034453 0.237899 -0.403952
H 3.18555 3.94796 0.83138 -1.3527 1.794787 -0.453562
H 6.96395 9.67328 8.1717 0.493518 -0.074323 -0.130957
H 8.27121 10.3484 3.91444 -0.385302 -0.309193 -0.350538
H 4.20752 11.5607 12.0743 -0.912162 0.139541 -0.168754
H 7.09889 4.45199 2.27481 0.709381 0.344615 -1.396621
H 0.27732 2.59107 1.58402 -0.735425 0.601891 0.041646
H 1.36678 1.91672 7.47539 0.353238 0.794093 -1.509287
H 11.8149 9.85212 0.54803 0.646248 0.923358 -0.897048
H 10.9571 2.06762 7.45867 -0.392472 -0.579924 -0.164461
H 9.25482 11.8364 4.31234 0.387578 0.18682 -0.160291
H 12.3605 6.83631 6.27185 -0.220024 0.411205 0.417407
H 1.1536 10.0457 3.90101 0.025809 0.449678 -0.162118
H 2.60629 12.0112 12.0215 0.214167 -0.250728 0.264756
H 4.20208 6.4506 11.2286 -0.082138 0.927362 0.497283
H 7.24291 11.074 8.66065 0.018897 0.790155 0.235563
H 9.69901 1.52961 8.83255 0.378594 -0.731729 -1.473101
H 10.3652 9.6391 2.06464 -1.934097 0.514204 0.452504
H 0.15356 1.36243 5.37294 0.64558 -1.29581 -1.295078
H 3.63953 7.9269 11.7926 1.32211 -1.050074 -0.747588
H 6.42709 0.41312 7.39018 -0.186974 -0.330636 -0.037946
H 9.24369 3.4874 5.42157 -0.055865 0.204141 -0.179582
H 1.48041 7.47307 1.70253 -0.426753 -0.010593 -1.168561
H 3.91665 4.10911 10.6934 0.676636 0.670694 -0.239175
H 3.77829 0.07934 10.237 0.310293 0.454068 -0.595393
H 1.12192 0.74689 9.25261 -0.677182 0.60119 1.155956
H 10.3545 1.2568 1.10207 0.097609 0.347146 0.260979
H 10.2308 7.19931 1.55766 0.656209 -0.450957 -0.520586
H 1.92437 8.88778 10.5265 -0.51371 -0.359212 0.496847
H 0.33343 9.76973 11.637 0.523419 -0.240379 -0.121303
H 11.5274 1.34395 10.4178 0.091083 0.008657 0.008364
H 10.8018 3.38437 2.01871 0.793265 -0.119456 -1.604768
H 11.9609 4.05446 8.98871 0.546016 0.117682 0.506827
H 0.96688 1.98014 2.92002 -0.330924 0.324418 -1.480867
H 10.6661 6.27954 0.05687 -0.123363 0.636548 0.569827
H 6.73079 1.17699 8.70065 0.385685 0.273793 0.252702
H 0.0348 7.87389 9.37465 1.015832 0.839684 -0.131858
H 1.17609 11.581 3.84689 -0.16734 -0.336821 -0.150795
H 10.8235 11.0649 11.3701 -0.536659 0.14114 0.495984
H 1.65571 8.11076 0.14858 -1.133627 -0.670463 1.153067
H 6.84735 1.98024 1.28669 0.564098 -0.038052 0.180993
H 8.06246 0.98753 1.05098 0.718482 -0.098001 0.739409
H 9.89632 0.31394 3.07005 -0.444898 -0.140736 0.13534
H 3.70707 5.52161 8.67178 -0.04031 -0.570589 0.541413
H 9.04403 1.18423 4.98819 -0.763423 0.795403 -0.358848
H 7.84131 5.12134 0.92056 -0.405851 -0.737012 -1.231872
H 2.71032 5.03903 10.9951 2.345353 0.436071 -1.089094
H 7.60686 9.16573 11.6601 0.088783 -0.119675 0.273619
H 7.63087 5.79176 7.33667 -1.78919 -1.678372 2.143684
H 7.04758 8.75867 9.96509 -0.258928 -1.258501 1.027549
H 2.84688 6.96846 5.31798 -0.731813 -0.359878 -0.038059
H 4.94869 0.21091 9.20533 -0.153192 0.596191 -0.342985
H 11.4047 8.0895 4.66879 0.548039 0.523524 -0.039421
H 7.53329 9.20036 5.80854 -0.819531 -0.940985 -0.353458
H 0.01015 9.76433 6.14799 1.586757 -0.613518 0.979259
H 3.57545 4.30072 6.37586 0.51699 0.152165 0.876627
H 2.52594 0.34213 8.68786 -0.259268 0.012206 0.037654
H 4.20813 2.70032 12.1983 0.516225 -0.634073 -1.484825
H 6.05732 7.72305 10.8784 1.187494 1.204292 -0.382109
H 3.34995 11.204 3.03656 -0.995959 0.11809 0.175478
H 9.29083 9.83261 9.00884 0.293051 0.613479 -0.187724
H 4.67781 11.7378 3.63567 1.236402 2.253276 2.345179
H 5.89809 5.28172 8.30414 -1.663169 0.423953 -0.461007
H 2.5227 9.99406 11.4706 -0.010247 -0.742788 0.560787
H 7.86513 6.98079 6.44909 -0.278178 0.981448 -0.627296
H 12.1701 6.79955 3.99286 -0.453831 0.795779 0.425481
H 10.9309 4.22378 3.90636 -1.643703 0.683657 2.255918
H 2.26629 10.151 6.86859 1.070657 2.107394 -0.508637
H 5.80215 3.04734 3.51739 -0.35815 -0.264468 0.542986
H 4.54735 9.39293 3.69487 0.144156 0.515555 0.154672
H 11.7548 10.1467 2.48479 0.823793 1.094803 0.886714
H 7.92767 2.37677 9.84884 -0.740004 -0.229488 -0.498606
H 4.956 3.12789 2.14649 0.895701 -0.156312 0.683848
H 6.81045 4.18429 8.79323 0.353242 0.343702 0.059152
H 3.9091 11.7027 5.75417 -0.10484 0.339276 0.132601
H 12.3017 4.79956 3.33418 -1.086705 -1.29763 -0.192467
H 4.24543 1.98178 10.667 -0.155162 -0.484641 0.035568
H 6.92541 5.26593 10.9254 0.899565 -0.179078 0.618135
H 1.04971 0.78222 0.87701 0.156684 -1.652298 -0.633434
H 2.5506 0.02178 6.08774 0.201682 -0.095588 -0.049519
H 6.2981 2.31377 10.141 1.171503 0.764193 -0.581065
H 7.53237 6.54682 11.2607 0.500867 2.11858 -0.443538
H 0.59113 11.6409 0.18887 -0.243668 -0.065075 0.42077
H 7.63333 1.80831 5.65006 0.514491 -0.478397 -0.308942
H 9.30629 5.00793 11.3913 0.862175 0.701372 0.46036
H 6.24857 6.17886 1.743 0.119197 0.302432 -0.322314
H 0.44781 0.94232 11.1869 0.072341 -0.053143 0.439192
H 8.82806 6.23977 2.5642 -0.89964 -0.948457 0.031214
H 5.2201 7.2057 1.00446 0.219849 -0.538731 -0.166533
H 9.39201 0.81674 10.2163 0.07687 -0.759988 0.137555
H 2.13786 3.02932 6.39203 -0.324231 -0.459882 -0.089967
H 2.42684 8.62474 6.70707 -0.208946 0.34244 -0.217044
H 9.90053 8.08085 8.69431 0.608887 -0.854452 -0.630309
H 7.07299 10.3715 0.07355 0.247327 0.292192 0.024756
H 11.2779 10.4818 5.71113 -0.075802 -0.499734 -0.606388
H 5.13722 8.00302 3.30713 -0.198163 0.395486 0.905829
H 0.15435 3.44514 6.83022 0.125949 -0.571707 0.590886
H 9.298 6.6408 7.61164 0.077469 0.544688 0.434185
O 1.31209 2.4814 6.63103 -0.279434 -1.078707 1.256379
O 7.55451 10.156 8.78138 -0.567079 -0.791222 -0.290968
O 8.51896 9.47901 2.41677 0.345573 0.821253 1.107797
O 1.4642 4.82075 12.3497 0.212166 -0.522475 -0.799745
O 9.44098 1.64795 9.74296 -0.350929 1.24115 2.314319
O 8.28859 6.17611 6.79944 2.05736 0.644743 -1.920091
O 4.88434 8.57735 4.10578 0.610216 -1.071154 -1.532832
O 7.90803 9.92243 12.2242 -0.265722 0.255879 0.052126
O 3.33887 11.4946 11.5636 0.785367 -0.027186 -0.042977
O 11.7045 3.76584 7.28402 -0.243808 0.327145 -0.518209
O 8.60497 1.91563 5.57829 0.364319 -0.149343 0.19051
O 7.02368 8.03214 10.6761 -1.548272 0.565673 -0.823471
O 1.22241 0.0019 0.23119 0.209805 2.527638 0.316069
O 7.61631 5.64814 11.5289 -0.806362 -2.554799 -0.362672
O 6.79081 5.15903 8.59801 0.803638 -1.023311 0.661726
O 10.3708 1.26058 7.42785 -0.225471 1.187961 -0.928889
O 1.08806 7.5041 0.78283 0.988518 0.122272 0.463172
O 1.55233 0.29176 8.54148 0.976065 -0.366269 -1.413444
O 3.11436 3.83876 5.67001 0.147758 0.962663 -0.903866
O 11.8021 9.69811 5.42645 -1.331604 0.767673 -0.527798
O 1.08274 2.20656 1.94662 1.001856 -1.256202 1.4208
O 9.96908 11.5561 11.4802 -1.014496 -0.420114 -0.433505
O 3.51068 3.14949 1.18314 1.106336 -2.330639 1.179003
O 10.067 0.39762 1.47091 -0.659231 -0.496292 -1.112888
O 11.6499 11.4105 7.60827 -1.35598 -1.168969 -0.092909
O 7.4036 1.52388 0.62123 -1.227894 0.347276 -0.51854
O 1.8263 9.34502 7.03013 -1.254415 -2.463532 0.718294
O 0.09026 1.49553 10.4612 -0.333756 -0.075496 -0.048525
O 4.1302 0.68287 9.4934 -0.492266 -1.278293 0.935663
O 1.29769 10.7863 3.27938 0.047181 0.036107 0.348176
O 12.39767 4.1137 9.87966 -0.535869 -1.137399 0.251268
O 6.54974 0.27385 8.34951 -0.079952 -0.716425 -0.609478
O 12.2841 6.55779 7.21452 0.29812 0.110632 -1.161806
O 9.77058 0.25386 4.05805 0.394664 -0.122339 0.231014
O 7.02547 8.36692 6.05176 0.490194 0.452417 0.102986
O 9.33483 7.03404 2.74783 1.075643 0.734864 0.221253
O 10.1031 9.33708 9.22945 0.328001 -0.75256 0.424085
O 10.0314 7.0742 8.23992 1.030949 0.663099 0.096172
O 11.281 9.43413 2.08815 1.383948 -1.355184 -1.157847
O 10.2755 5.10269 11.6699 -0.945177 -0.431917 -0.827767
O 2.97392 11.5567 5.98029 -0.066725 -0.006243 0.002355
O 0.22734 0.67753 4.62569 -1.243566 1.477034 0.562057
O 4.30311 11.1536 3.03895 -0.470701 -2.752565 -2.572934
O 3.66441 5.07145 10.5037 -2.938881 -0.953927 1.571685
O 3.37614 7.54536 5.88638 -0.845185 -1.296504 1.206394
O 5.64289 11.7615 0.69166 0.326181 -0.152103 -0.443548
O 11.354 7.14497 4.45003 0.013635 -1.073566 -0.056978
O 4.64477 2.63529 11.2633 -0.258261 1.057938 1.115276
O 12.2196 10.3951 12.1569 -1.437644 -1.050789 1.082388
O 8.21496 10.6909 4.8293 -0.54603 0.569975 0.461928
O 10.9396 3.01792 1.07118 -0.159066 -0.959787 1.556722
O 2.08784 9.06764 11.4908 1.295453 1.23478 -1.193345
O 5.6193 6.91769 1.84175 -0.695279 0.871243 0.695259
O 5.86173 2.95146 2.57045 -0.51005 0.568444 -1.366572
O 4.08162 5.36875 7.78918 -0.167854 1.10908 -0.708746
O 11.5528 4.11487 3.22885 2.611037 0.756757 -1.263819
O 4.4605 7.35235 11.6302 -0.84655 0.133631 -0.009092
O 10.8443 7.13401 0.66952 -2.44019 -0.885012 -0.176071
O 9.72488 4.34806 5.30937 0.088631 -0.307051 0.452237
O 7.58723 5.2093 1.83 -0.317142 -0.277671 2.562767
O 7.00705 2.53223 9.452 -0.681571 -0.038332 1.435755
O 0.659 8.6421 9.34823 -1.257417 -0.970461 0.727263
Cl 5.89984 0.3584 5.11774 0.09887 0.031945 0.250654
Cl 1.75561 5.94219 3.56918 -0.232406 0.088427 0.144721
190
energy=-1023.7918251 config_type=nep2xyz pbc="T T T" virial="-7.105259037979683 3.819979661430848 -6.945784309107078 3.819979661430848 -1.4994979991285242 2.843376937778946 -6.945784309107078 2.843376937778946 -2.7465925209502853" Lattice="12.4 0.0 0.0 0.0 12.4 0.0 0.0 0.0 12.4" volume=1906.6240000000003 Properties=species:S:1:pos:R:3:force:R:3
H 0.98576 2.61595 6.82883 0.063083 -0.780443 -0.585468
H 11.0046 2.7171 5.73651 0.836208 0.014993 0.518346
H 2.7937 6.11179 7.36078 0.502836 -0.385915 -0.057184
H 8.5069 2.13534 5.98095 -0.325572 0.134693 0.223006
H 0.07873 4.23711 11.7417 0.093411 -0.348993 0.85128
H 2.36356 4.00632 7.86865 -0.6581 -0.938869 0.72541
H 12.2601 8.99806 4.18022 0.363242 0.376136 0.717953
H 10.7586 10.5229 9.05442 -0.235997 -0.065477 -0.112657
H 0.70109 3.95523 0.87676 0.139267 -0.350285 0.065429
H 0.42477 9.91258 6.08015 -2.204611 0.6934 -1.419925
H 9.91394 5.85405 7.33508 1.364638 -1.714905 -0.155854
H 1.68157 5.17493 12.23949 1.023266 0.127065 0.392032
H 9.52194 3.22607 11.6254 0.167806 1.113727 -0.738808
H 1.06442 12.0237 0.95912 -0.602849 -1.541254 0.493297
H 8.87509 7.53998 6.12976 -1.05331 -1.713208 -0.958053
H 1.06234 7.74377 9.76678 1.729662 2.104511 0.146791
H 9.60271 7.01766 1.18955 0.987304 -0.939064 -0.088373
H 6.40742 5.68923 8.32414 0.180505 1.345508 -1.056993
H 9.53713 9.76795 7.06401 -0.320723 -0.595384 -1.690787
H 7.61584 10.4413 11.419 0.664633 -0.92199 -1.476062
H 0.67118 3.87043 9.37405 0.668129 0.086234 -0.208407
H 4.33384 8.88582 11.2233 0.30621 -0.453378 -0.440102
H 9.71727 7.60434 10.6948 1.422692 0.290152 -0.3139
H 0.64368 1.51748 5.56337 0.615471 0.201957 0.393369
H 7.5287 10.8691 0.51961 -0.214816 0.000478 -0.056113
H 8.42984 10.0681 5.96822 0.351983 -0.072673 -0.028586
H 6.23359 10.7213 4.32927 -0.378789 0.424377 0.471261
H 7.77741 0.27412 11.4714 -0.003823 -0.896444 0.476607
H 9.67694 11.3539 8.26901 0.340043 -0.062917 0.207977
H 2.65663 5.95231 0.81755 0.076313 0.038824 -0.359976
H 6.17619 8.3134 8.10824 0.518698 -1.80037 -0.676515
H 5.50782 9.58162 3.64306 -0.009379 -1.713999 -1.347011
H 4.19478 1.25466 5.82996 0.053833 -0.006881 -0.693685
H 6.30644 3.32606 3.845 -1.346135 -0.993924 1.443896
H 11.3036 5.17015 0.95909 -1.081935 0.00772 0.966983
H 0.56898 11.7745 5.0606 -0.095904 -0.556141 -0.216023
H 12.0732 10.2699 2.66881 -0.854497 0.568011 0.129124
H 11.1794 3.11724 8.40196 0.324595 1.321694 -0.816085
H 8.39506 2.95383 2.61199 -0.647553 0.151203 0.423714
H 10.2415 4.59074 6.56594 -0.130258 -0.198032 -0.29368
H 3.68072 12.2635 2.54757 0.018671 0.554703 -0.754872
H 2.79445 0.47124 5.67617 0.183996 -0.002606 0.203186
H 4.89053 7.66443 2.18728 0.717984 0.530684 -0.124769
H 5.37503 9.58451 7.85788 0.023166 0.112229 -0.011572
H 9.79531 1.23961 8.29443 -0.222482 -0.960166 0.730417
H 2.38153 10.35 1.94921 0.610498 1.081902 1.438193
H 2.13278 0.64771 0.75796 1.690423 0.162484 -0.132822
H 6.15896 8.61702 1.64729 -1.549565 -1.556308 2.799005
H 5.04425 3.21169 5.14074 -0.290539 0.283273 -7.3e-05
H 7.34265 0.1098 6.11158 -0.366848 2.306138 1.692986
H 3.02458 8.18199 1.58491 -0.272098 0.530662 -0.868096
H 11.3472 2.07512 9.52888 0.312399 -0.297501 0.11097
H 4.37262 11.2821 6.69046 -0.645971 -1.432059 -0.660344
H 11.6742 12.0359 10.616 -0.08971 -1.543827 -0.181823
H 8.26848 7.42627 0.52078 0.874434 0.283024 0.578025
H 10.8996 8.44244 11.2727 0.565811 0.163637 0.746468
H 5.76984 11.655 11.2496 0.061791 0.053735 0.355449
H 10.7768 11.32 2.42113 0.395222 0.151563 0.957753
H 10.2323 4.3825 9.92663 -1.084263 0.206349 0.437494
H 1.30679 4.88926 4.93504 0.286596 0.879928 -0.310573
H 0.36304 5.30157 10.157 0.175087 -1.555065 -0.981374
H 9.96453 4.59259 1.6409 -0.192806 -0.19264 0.241187
H 12.1321 7.28159 9.95846 -0.832146 -0.614539 0.006828
H 6.24141 2.32124 5.37212 -0.668393 -0.632097 -0.018618
H 3.97598 10.9161 11.3194 -0.036692 0.334955 -0.771006
H 4.07278 11.3096 3.72054 -1.612133 0.6869 -0.929083
H 8.59283 1.61248 11.2978 0.908184 0.258724 0.747565
H 2.99834 7.12814 2.58758 0.167148 -0.648345 0.499186
H 7.07774 7.0836 3.61237 0.068258 -0.691949 -0.197824
H 8.18677 6.76254 2.65203 0.012958 -0.443781 0.617911
H 9.48588 2.55853 0.60421 0.486163 -0.458811 -0.699782
H 4.2252 5.56579 9.8446 -1.017293 -0.565926 -1.353174
H 9.92857 2.50409 2.69107 -1.190586 0.380468 -0.473605
H 7.07265 4.63075 3.41329 -0.047126 0.136829 0.056974
H 2.71662 2.55906 8.33699 0.415067 -0.732647 0.402339
H 11.3668 9.67672 0.77308 -0.180399 -0.219381 -0.069814
H 8.04529 1.57328 7.32002 -0.342939 -0.005163 -0.347824
H 8.66731 9.59147 1.76241 -0.310222 -0.189988 0.05259
H 2.13162 6.1868 8.69798 0.087679 -0.798851 0.102196
H 4.57593 10.0701 5.72229 0.742697 -0.116804 -1.60782
H 10.927 5.82589 3.00062 -0.342703 0.163279 -1.063255
H 1.68193 8.47053 6.69974 0.385421 0.089417 -0.124103
H 0.80772 10.0338 9.82715 -0.358711 0.208475 0.264268
H 10.0699 1.9215 4.90772 -0.170284 -1.109635 -0.898867
H 11.6943 10.4781 11.1998 -0.045122 0.093478 0.380965
H 4.17709 1.13388 8.05159 0.456337 -0.379235 -2.686962
H 8.39737 10.9202 2.51713 -0.35101 -0.274481 -0.444034
H 4.35253 0.35208 0.16663 0.712883 -0.048398 -1.144772
H 8.84664 9.90201 9.3197 -0.823727 -0.179816 0.862086
H 4.21234 1.59645 1.12679 0.703337 1.387386 0.110307
H 3.96032 5.59378 11.4616 -0.659825 -0.590133 -0.751414
H 4.94968 0.10367 10.1753 -0.672853 -0.194393 1.057281
H 8.20631 6.34639 5.10539 0.908775 0.86759 0.536756
H 11.5909 7.15064 3.89413 0.091747 -0.795364 -0.756127
H 8.00048 12.0635 4.90247 -0.251295 -0.569324 0.329582
H 2.83343 9.81135 10.7319 0.376209 0.875319 0.50117
H 4.09668 3.9531 0.908 -0.533415 0.018632 0.081126
H 5.53092 5.32851 6.25011 -0.318342 -0.00771 -0.374781
H 2.45041 10.1522 0.43891 0.60024 -0.077603 -0.672471
H 6.40314 2.0742 10.9312 -0.754425 0.451372 -0.083941
H 5.44368 3.77349 1.73714 -1.124437 -1.298303 -0.649992
H 6.42721 4.09441 10.2137 -0.566478 -0.108628 -0.451458
H 4.56499 7.01629 10.7964 0.747248 0.414085 -0.940847
H 11.9164 5.48448 4.24081 0.101569 0.002591 0.242721
H 4.73128 2.09968 9.23796 1.203411 1.01084 0.156286
H 7.78997 4.4416 9.69412 1.121528 0.133783 -0.248335
H 0.28097 1.32095 11.2937 -0.007586 0.03066 0.268658
H 5.17526 8.54876 9.86903 0.123993 -0.395483 0.060878
H 5.38922 2.88921 11.808 -0.370966 0.06316 0.77069
H 7.89924 8.01653 10.4933 -0.134894 2.248981 -0.943136
H 11.1621 1.68495 11.3785 -0.905839 0.519621 1.033532
H 11.1759 10.3287 5.61316 0.352147 -0.470086 0.433748
H 7.29024 6.65242 10.6707 0.108995 -0.356325 0.079142
H 1.48797 2.31746 1.87907 -0.18793 0.535982 0.644741
H 9.44342 5.63802 10.4633 -0.158725 -1.492521 0.153969
H 0.89077 7.93592 3.58099 1.610902 -0.363722 0.678723
H 1.13379 3.61997 2.8476 0.967528 -1.060916 -0.830406
H 8.77028 0.56325 9.28835 -0.752494 0.292048 1.660771
H 1.78445 12.2185 4.12846 0.528015 -0.364197 -0.751565
H 1.58968 9.4426 8.61866 0.107614 -0.129281 0.374006
H 7.29671 9.69513 9.149 0.015994 -0.043762 0.603357
H 0.32097 9.22972 0.53782 0.236611 -0.415826 -0.460708
H 2.68279 9.69272 6.85831 0.009393 0.069738 -0.250158
H 4.44519 5.56323 5.19336 -1.615668 1.534823 -0.603252
H 0.4921 3.62811 5.08109 -0.504636 0.179343 -0.400856
H 7.21731 6.28589 7.09545 0.37342 0.49258 -0.285369
O 1.23682 0.05269 4.88354 -0.440663 0.907061 0.865091
O 5.97833 9.14955 8.51153 -1.44426 1.090783 -0.073969
O 9.20832 9.48851 6.11072 0.224389 0.337169 1.501595
O 0.06684 4.46581 0.32786 -0.032623 0.340037 -1.202057
O 9.21058 0.4201 8.46362 0.595798 0.733693 -2.201348
O 7.68846 1.8246 6.43567 0.688345 0.302058 0.373327
O 5.07062 4.93221 5.46897 1.823894 -1.300847 1.179295
O 11.8469 9.09709 0.11804 0.120624 0.918976 0.53285
O 3.62688 0.54958 6.18714 0.263651 -0.084973 0.835365
O 0.49083 2.40044 5.98105 -0.524994 0.588605 0.169946
O 12.0964 10.1514 5.32832 1.890566 -0.194683 1.186208
O 7.96134 10.2482 1.9284 0.809044 0.364592 0.702389
O 11.8507 1.36142 10.7962 1.210846 -1.11579 -0.36366
O 7.98108 7.23689 11.0219 -0.110445 -1.820804 0.80427
O 6.86455 4.58898 9.48678 -0.637928 0.053313 0.424998
O 10.7795 2.35963 8.78719 -0.774855 -0.348485 -0.142494
O 3.34485 7.26694 1.68911 -0.399129 0.296596 0.862523
O 11.6298 11.0322 10.4029 0.470346 1.299346 -0.148093
O 10.1321 2.76726 5.34057 -0.520437 0.764589 0.2405
O 1.75473 9.3823 7.04592 -0.353295 -0.096148 -0.240464
O 10.4803 5.415 1.56748 1.099038 0.210493 -0.809962
O 7.97176 1.00868 10.8838 -1.438546 0.275436 -1.605426
O 2.64123 5.30841 0.07858 -0.18209 -0.02053 -0.361685
O 9.76777 2.39655 12.0329 -0.351747 -0.017656 1.74641
O 10.0495 10.4192 8.36577 -0.020335 0.264567 0.209688
O 7.74844 6.37355 3.47217 -0.384339 1.005924 -0.582183
O 1.50309 9.38806 9.61972 0.462583 0.333562 -0.227751
O 9.39462 4.6379 10.415 1.425845 1.13859 -0.543726
O 4.26493 10.2733 6.59359 -0.336798 1.557257 2.469844
O 3.25513 11.7514 3.24021 1.241413 -1.443438 1.203297
O 0.21307 4.28841 10.1116 -0.6563 1.716861 1.13722
O 5.3784 2.32849 4.87761 0.703972 0.156299 0.914778
O 10.5586 5.06175 7.3417 -1.140657 1.617858 0.374284
O 9.25388 3.02068 2.17287 1.657089 -0.324906 -0.2369
O 8.52297 6.57334 6.02868 0.424592 1.300285 0.506111
O 0.0389 8.3194 3.49437 -1.946908 0.235764 -0.806016
O 7.98719 9.70836 9.85921 1.364955 -0.045918 -0.897127
O 6.3928 6.43672 7.60711 -0.55113 -1.510945 1.379208
O 2.00751 9.84642 1.24442 -0.918104 -1.158486 -0.291588
O 0.62206 6.9198 9.75948 -0.915705 -1.855953 -0.068241
O 4.87082 8.13599 10.7293 -0.369307 1.402133 0.687531
O 1.18932 0.52942 0.75211 -1.148742 1.598104 -0.509095
O 3.87032 0.74732 0.88178 -1.496609 -1.060287 1.225813
O 1.95964 3.11065 8.12393 -0.214106 1.625946 -0.844317
O 2.81304 5.64358 8.22663 -0.580094 1.298127 -0.192542
O 7.23981 11.0931 11.9928 -0.777174 1.125484 1.199413
O 11.2399 6.16498 3.88101 -0.12715 0.572175 1.190221
O 4.15329 1.42609 8.92744 -1.669448 -0.816873 2.396417
O 11.4074 10.6634 2.07763 0.432642 -0.56336 -1.041724
O 5.34444 10.3559 4.15492 0.300327 1.199389 0.959182
O 8.87602 7.62669 1.28746 -1.829956 0.622902 -0.574519
O 4.87613 12.0376 11.0589 1.12775 0.520061 -1.207514
O 1.7284 3.24114 2.1206 -1.121707 0.358796 0.373586
O 4.7376 3.28239 1.17744 1.749049 1.204553 0.620876
O 4.56193 5.82042 10.6867 0.426507 0.260462 2.462675
O 0.52324 4.49849 4.52441 0.561282 -1.245885 0.463916
O 5.7112 8.14938 2.48841 1.232774 1.37208 -2.441803
O 10.6794 7.84916 10.5515 -1.893795 -0.760146 -0.588661
O 7.37306 11.737 5.60361 0.761717 -2.335607 -2.541491
O 6.80431 3.72688 3.16645 1.56983 1.091581 -2.447734
O 5.58477 2.66469 10.8929 1.442324 -0.578302 -0.477767
O 3.45561 10.0843 11.4838 -1.218122 -1.640909 -0.237639
Cl 9.63899 0.21052 3.48855 -0.256182 -0.019501 0.193398
Cl 2.53603 6.95365 5.11318 -0.011058 -0.048988 -0.090764
190
energy=-1023.44019553 config_type=nep2xyz pbc="T T T" virial="-5.622718839660312 -1.4539677914823348 3.17328648994186 -1.4539677914823348 -3.7214340133602537 2.0770152435272613 3.17328648994186 2.0770152435272613 -3.8048306927080042" Lattice="12.4 0.0 0.0 0.0 12.4 0.0 0.0 0.0 12.4" volume=1906.6240000000003 Properties=species:S:1:pos:R:3:force:R:3
H 11.3238 2.75537 8.32998 0.321895 -0.121486 -0.495964
H 3.95399 3.90596 4.1751 -0.784166 -0.133163 0.095867
H 5.63986 7.39466 5.88341 -0.303694 0.631168 -0.083994
H 8.29197 5.26041 5.60771 -0.469866 1.335064 0.135939
H 2.42806 5.15144 11.5648 0.54291 0.103526 0.567915
H 4.45693 5.38914 7.12532 -0.082307 0.316596 0.269505
H 8.31089 8.09318 3.09003 1.157514 0.386533 0.396321
H 10.1419 11.2813 6.91147 -1.192895 0.364225 -0.119088
H 2.50116 6.09233 0.50475 0.082842 -0.581184 -0.617185
H 8.58176 0.79133 5.6892 -0.604187 0.023486 -1.004407
H 0.32522 6.22788 7.1898 0.476561 0.279499 -0.700533
H 4.10547 4.65395 0.3861 -0.718217 0.809254 -0.341871
H 10.8738 1.87535 12.1535 0.348579 -0.1658 -0.503024
H 12.0882 0.99861 2.90852 -0.334406 -0.35689 -0.048944
H 9.62654 8.33257 6.20706 -0.19302 0.002997 0.179462
H 1.66313 7.63547 10.5539 -1.367354 -1.029611 -0.574183
H 11.56 4.23935 0.63899 0.228364 0.599112 -0.125826
H 10.5397 5.4831 8.18323 1.074753 0.057825 -0.380621
H 8.63266 9.17614 4.76054 -0.804663 -0.078199 0.455664
H 6.57544 12.027 11.863 -0.955357 0.510037 0.13086
H 2.4119 3.97018 9.45004 0.683294 0.283944 0.30234
H 3.20219 9.19367 10.5734 0.169978 -0.079933 -0.062744
H 10.3445 7.26287 10.9993 -0.979914 0.415748 -0.74995
H 0.41765 1.45134 6.74073 0.20961 -0.626742 -0.366348
H 5.62023 0.03386 0.58621 -0.015335 0.196084 1.047797
H 8.14529 10.3173 5.84151 0.314548 -0.33013 0.049103
H 4.89946 11.3041 5.11252 -0.699318 -0.753 0.553851
H 8.59611 11.5541 10.9659 0.856321 -1.188428 -0.620087
H 8.91256 11.7778 7.69843 -0.256364 0.426578 0.340246
H 5.67457 4.52849 0.35231 -0.733587 -0.242929 0.013583
H 7.44839 8.89986 7.32977 -0.039615 0.178511 0.242364
H 4.64744 9.81431 5.47697 0.325215 -1.523217 -0.273729
H 3.20651 0.7928 9.39457 0.153309 0.276943 -0.022853
H 6.27621 3.93169 2.6285 -0.469661 -0.351871 0.339312
H 1.55199 3.66687 0.78507 1.053856 0.982256 0.000163
H 1.23754 11.8035 5.7533 0.325939 0.326208 0.185574
H 11.8667 9.87278 1.09042 0.337858 -0.039348 -0.138938
H 10.2633 3.67178 9.04514 0.199254 -0.000346 -0.036945
H 10.1885 12.0508 2.79498 -0.405008 1.763976 -0.091007
H 0.23689 6.41537 8.77377 -0.142565 -0.479625 -1.18706
H 1.49004 10.7667 4.15702 1.456221 0.615689 -1.269157
H 2.47135 11.8931 9.63313 0.498278 -0.07522 -0.35989
H 3.821 8.9644 1.86378 0.883708 -0.329596 -0.497119
H 6.66299 9.60346 8.47216 -0.918281 1.082731 0.168519
H 9.27318 1.63816 9.11751 0.43766 -0.003342 0.362834
H 10.6176 9.85905 3.05751 0.522091 1.269238 -0.686493
H 1.24626 1.0058 3.17765 0.572373 -0.932303 -0.204154
H 4.86761 8.01299 0.85016 -0.609997 0.585842 -0.448283
H 3.89964 2.8132 6.09472 -0.793122 0.038815 -0.36516
H 8.51467 2.97096 4.83195 0.084028 -1.477225 0.007363
H 1.55213 9.23554 2.54568 0.798335 0.271679 -0.434054
H 1.61399 2.48952 8.16754 -2.12139 -0.035504 -1.00158
H 4.68919 11.4763 8.72546 -0.719546 0.696402 1.201284
H 12.35556 11.5073 7.20041 0.567477 0.263098 0.301146
H 10.0064 4.57757 0.55527 0.941477 1.02557 -0.158077
H 10.9407 6.41524 12.158 0.465469 1.135615 -0.47693
H 3.73324 11.5435 0.0675 -0.454432 0.245727 -0.201241
H 11.6347 8.76436 0.0847 -1.219931 -1.753677 -0.667321
H 11.8626 2.17378 10.4883 -0.467387 0.94922 -1.115984
H 12.263 4.52394 4.68713 -0.866459 -0.36514 0.272124
H 1.71725 5.34767 9.74608 0.888388 0.008406 0.218339
H 0.58338 2.84995 1.74598 0.566897 -0.270006 -0.992678
H 0.12292 7.24021 10.8386 0.561516 -0.340457 -0.551931
H 4.87332 2.69002 7.22577 -0.064627 -1.028967 0.283282
H 3.08665 9.3808 12.1473 -0.310751 -0.125564 -0.648345
H 0.78933 9.86027 5.20465 -0.495071 1.097683 -0.804014
H 8.85203 0.57077 11.6383 0.187677 -0.127393 0.493308
H 2.04636 7.88214 2.87496 0.306046 -0.755805 0.351884
H 7.87184 4.36816 0.97658 0.822023 -0.17501 -0.558556
H 8.84472 3.30862 0.3007 -0.245058 0.774071 -0.881642
H 9.8674 1.51982 0.89111 0.085443 -0.489399 0.582811
H 3.78606 5.94219 9.76943 -1.190488 -0.768316 0.056427
H 9.45483 1.03911 3.32064 -0.440163 -0.35386 0.77008
H 7.56368 4.50817 3.30063 -0.085659 -0.134261 -0.377467
H 3.10126 2.42047 8.05203 -0.166901 0.403712 0.203905
H 9.37731 9.68521 9.46798 -0.208281 0.44302 0.315903
H 8.5042 6.85825 5.55794 -0.128605 -0.324332 -0.342188
H 4.99267 6.75502 11.4767 -0.698822 0.21646 -0.020325
H 3.84062 5.3989 5.68394 0.635812 0.283982 1.067846
H 5.16807 11.0711 7.41949 0.258885 -0.698771 -0.394016
H 11.8446 6.52666 3.40496 0.228029 -0.376663 -0.270034
H 12.2136 8.24961 6.2289 0.225876 0.091768 0.105383
H 1.86597 8.26963 6.59777 0.167682 -0.585384 -0.300619
H 2.56564 4.56959 4.75317 -1.060556 0.304911 -0.658923
H 11.7692 10.9935 8.54117 -0.002595 0.052438 0.577708
H 5.20757 1.51297 11.2332 -0.440238 0.062439 0.458539
H 6.15375 6.70038 0.0246 0.188712 0.033441 -0.023364
H 2.4922 11.8285 1.83679 -0.534552 -0.436253 1.097598
H 9.47516 6.60654 9.36376 -0.58693 -0.179486 -0.279423
H 3.33877 12.1746 3.00319 -0.150388 -0.23534 0.652567
H 5.2468 6.02089 9.31505 0.245902 0.258602 0.167415
H 2.12404 11.5367 12.0848 0.280678 -0.028624 0.033736
H 10.2041 6.84692 6.35008 0.125401 1.318696 -0.359381
H 10.8986 6.12539 2.10277 0.684621 0.056668 0.738055
H 9.79387 3.9329 4.55717 0.587712 -0.573742 -0.015558
H 3.14372 8.37321 7.55812 0.576554 0.064312 -0.18096
H 4.56295 3.43554 2.08382 -0.204217 0.740641 -1.732253
H 6.54373 8.65262 5.57616 0.264491 0.262846 -0.075511
H 11.9396 10.5116 3.45131 0.92802 0.457005 0.851684
H 6.98126 1.8436 8.56012 -0.029655 0.551794 0.00944
H 4.78337 2.23118 2.93311 0.382652 -2.600347 0.363828
H 6.66736 4.08076 8.9117 -0.25513 -0.039954 -0.026726
H 4.18527 7.95185 9.07377 -0.242299 -0.067883 0.399317
H 12.1229 3.21097 3.96933 -0.650434 -0.338088 0.626406
H 4.64796 2.90458 11.7329 0.327787 0.413238 0.481795
H 7.56182 5.35274 9.13367 -1.589501 -0.235342 0.130506
H 0.1701 12.0964 11.0622 0.254474 0.435354 0.101986
H 4.42135 9.50752 8.83548 0.129027 0.398962 -0.555591
H 5.79997 2.36374 9.40552 -0.079346 0.507405 -0.251401
H 7.94577 7.08011 11.1742 0.394876 -0.239546 -0.27437
H 0.27579 10.5856 11.4749 0.565206 0.145662 0.249232
H 7.45295 0.83327 4.55431 -2.069405 -1.22802 -0.662796
H 8.11625 5.82188 12.1236 0.2333 -0.19291 -0.457365
H 6.31555 6.83252 2.76872 0.024045 -0.34313 0.253741
H 0.38486 2.19993 11.7797 -0.042722 -0.076508 -0.131425
H 9.9136 7.77383 3.36975 -0.4067 -0.316654 -0.110539
H 5.414 8.49369 2.23821 -0.257137 0.705928 -0.557405
H 8.53014 0.45866 9.92898 -0.012154 0.81037 -0.501446
H 2.27786 0.16171 6.72762 0.420273 -0.243737 0.084876
H 3.2053 7.03161 6.54233 -0.019569 0.203023 0.311233
H 8.39289 7.72893 9.11339 -0.276932 0.346557 -0.055138
H 10.0287 9.87418 10.8202 0.121901 -0.065661 0.40082
H 0.12536 9.51824 7.04813 -0.244008 0.70363 0.873596
H 5.91483 7.85983 4.0012 0.483707 -0.202659 -0.106869
H 12.149 2.76405 6.15481 0.007131 -0.052089 -0.159854
H 9.06259 5.40513 7.69586 -0.60655 0.126406 -0.871918
O 1.36835 12.277 6.61142 -0.753132 0.195182 -0.364389
O 7.29425 8.91892 8.28949 1.289975 -1.270234 -0.28495
O 8.03711 9.37565 5.5798 0.676805 0.183965 -0.343434
O 2.69815 5.20794 0.13619 -1.132898 0.468989 0.031224
O 8.54249 1.00193 9.11415 -0.431269 -0.596787 -0.426233
O 7.96479 6.16707 5.96998 0.547141 -1.404986 0.030113
O 5.64033 8.28638 5.45695 -0.078623 -1.217807 0.057229
O 9.60308 10.3794 10.1228 0.11071 -0.513271 -0.863419
O 3.24854 12.2544 9.15282 -0.911302 -0.095159 0.557163
O 12.3455 2.25741 6.96778 -0.237885 0.662858 0.485479
O 8.23143 1.23032 4.86776 2.584107 1.079901 1.486593
O 5.15385 6.72278 0.04404 0.536034 0.63128 0.230135
O 0.78789 11.3473 11.1011 -0.525399 -0.280741 -0.404078
O 7.69601 6.68502 12.0209 -0.555437 0.504346 0.915607
O 6.61161 5.05536 9.08551 1.688375 0.633269 -0.042715
O 10.8588 2.91279 9.16648 -0.5622 -0.31665 0.513431
O 2.39181 8.7344 2.59137 -0.922533 0.374517 0.027439
O 11.795 10.8179 7.60058 -0.669754 -0.079803 -0.476009
O 3.3842 4.13401 4.97789 1.546572 -0.396245 0.068216
O 0.56301 8.79563 6.56842 -0.884726 -0.839082 -1.165831
O 0.77015 3.13413 0.80525 -1.58605 -0.704126 0.977711
O 8.32193 12.15 11.6496 -0.781525 0.972149 0.696002
O 4.8437 4.03557 0.49685 1.61247 -0.738131 0.595153
O 9.93854 1.95425 0.02881 -1.007213 0.179136 0.311401
O 9.18424 11.5754 6.79627 1.222883 -0.37065 -0.209091
O 8.49614 4.25128 0.18051 -0.709142 -1.315345 1.752408
O 2.84449 7.99027 6.64518 -0.190929 1.024547 0.657803
O 12.2213 1.6494 11.1931 0.574634 -1.000488 1.161371
O 5.39696 10.9383 8.36524 0.57026 -0.274225 -0.724072
O 0.65013 10.6694 4.58657 -0.226439 -1.799724 2.054734
O 2.5754 4.87665 9.90885 -1.808873 -0.400383 -0.346376
O 4.07528 2.23897 6.85706 1.184426 0.622241 0.07149
O 12.3229 5.86944 7.97187 -0.53756 0.228534 1.8649
O 9.93835 0.62536 2.60662 1.198899 -1.23435 -0.85335
O 10.3476 7.74032 5.94536 0.718425 -1.091095 0.532868
O 9.16449 8.42593 3.49395 -0.772148 0.095652 -0.52169
O 8.98363 7.3427 9.78522 0.225313 0.639932 0.284236
O 9.62987 5.29685 8.45858 0.198778 -0.528071 0.503349
O 11.2255 10.633 2.81876 -2.251164 -1.853567 -0.652007
O 0.89846 7.03053 10.2246 0.6965 1.474769 1.257652
O 3.72724 8.82272 8.86823 -0.159012 0.059389 -0.256851
O 0.45282 1.54253 3.11958 -0.541706 1.500727 0.110258
O 2.4076 11.871 2.87186 0.5629 0.681756 -1.165454
O 2.36239 2.60918 8.71251 1.67319 -0.137241 0.887638
O 4.16264 6.02631 6.46044 0.187739 -1.211992 -1.270704
O 5.62401 12.2997 12.0403 0.843165 -0.553556 -0.85514
O 10.9829 6.60496 2.96501 -1.044785 0.30556 -0.516046
O 4.70803 2.31533 10.973 0.300926 -1.120096 -1.628021
O 12.2916 9.37427 0.35565 0.794977 1.988191 0.960128
O 4.45942 10.69 5.76851 0.244109 2.783864 -0.297438
O 10.9401 5.00298 0.59427 -0.841285 -0.87968 0.296783
O 2.81458 11.4265 0.38895 0.438913 -0.270948 -0.188341
O 6.36395 7.74515 3.08649 -0.414006 0.361642 -0.330188
O 4.7083 3.16324 2.98233 0.080279 1.787295 1.330708
O 4.48566 6.58055 9.61189 1.688352 0.177706 -0.014212
O 11.6511 3.72177 4.67636 1.527479 0.488377 -0.812287
O 4.77226 8.8859 1.45842 -0.040456 -1.436912 1.059462
O 11.0191 7.32135 11.6643 0.607163 -1.570138 1.26744
O 8.87881 3.85044 4.84884 -0.70552 2.232502 0.079131
O 7.00478 4.55369 2.49379 0.834403 0.712855 0.133052
O 6.31114 2.57251 8.57682 -0.190942 -1.076938 0.53548
O 3.08622 8.7276 11.4172 -0.330723 -0.037131 0.710137
Cl 5.48357 0.16691 3.05109 0.016448 0.070649 0.158387
Cl 1.13275 6.18437 4.55585 0.089316 0.069214 0.048409
190
energy=-1024.65423204 config_type=nep2xyz pbc="T T T" virial="-9.71081025704219 3.622305254946046 4.058400390701993 3.622305254946046 -2.070125021303753 -2.0175260882676427 4.058400390701993 -2.0175260882676427 -11.602765317844442" Lattice="12.4 0.0 0.0 0.0 12.4 0.0 0.0 0.0 12.4" volume=1906.6240000000003 Properties=species:S:1:pos:R:3:force:R:3
H 11.8805 3.01591 7.69084 -0.996189 -0.31761 0.510124
H 3.97041 3.49366 3.39721 0.038533 0.803732 0.188537
H 4.10052 7.3386 6.53798 -0.407621 0.135846 -0.088736
H 7.5715 3.71018 6.43538 0.198338 -0.372069 0.596103
H 2.15706 5.01533 11.3895 0.208239 0.153165 -0.054367
H 2.13357 6.66692 7.69394 -0.178429 -0.389915 -0.170865
H 11.1766 8.77382 3.30898 -0.114136 0.654443 0.046455
H 10.4733 10.9615 7.36112 -0.791852 0.466663 0.107848
H 2.19167 5.96682 0.3073 -0.046465 1.023897 0.305661
H 9.44179 12.2486 5.45397 0.420705 -0.315963 -1.295881
H 10.5746 6.62882 7.20218 -0.250686 -0.064684 -0.370098
H 3.89198 4.85681 0.24106 0.566678 -0.426734 0.269961
H 9.15186 2.82034 11.3809 -0.060612 -0.426627 0.632688
H 12.0766 0.79758 0.5686 0.643544 0.44748 0.639834
H 9.56519 8.24579 5.98006 -0.289185 0.043011 -0.459462
H 0.49839 7.70831 9.49036 0.045038 0.052444 0.639746
H 11.1458 4.48419 1.73863 0.977192 -0.84719 -0.210479
H 7.40677 6.05661 7.97862 -1.018431 -0.095473 -1.468823
H 7.71206 9.62849 5.6671 -1.021395 0.649044 -1.521844
H 5.63302 9.42811 0.63047 0.5998 -0.611098 -0.197864
H 2.00087 3.91068 9.14618 0.014298 0.413084 -0.168404
H 4.02369 8.95532 9.85122 -0.304919 -0.231285 0.167426
H 9.94861 7.08626 11.6776 1.536463 -0.702826 0.408479
H 0.25409 1.13177 6.43958 0.068385 -0.451877 -0.486873
H 5.9966 10.4054 1.78138 0.407815 0.18916 0.624553
H 8.86721 9.96227 6.6121 -0.932552 -0.559108 -0.07578
H 5.00234 10.4511 4.53331 0.217819 -0.08417 -0.28474
H 7.59076 11.9467 10.7631 0.597902 -0.559197 0.189362
H 9.42835 12.0791 7.82064 -0.403019 0.125451 0.064124
H 5.13848 5.47335 0.94925 0.115701 0.134639 0.537624
H 7.23086 9.58176 7.75588 -0.059019 0.146166 -0.605537
H 4.71038 9.01811 5.08607 -1.023555 1.457836 -0.283087
H 3.24042 1.49125 8.70082 -0.49264 -0.505622 -0.170407
H 6.98781 0.62512 3.1763 -0.159344 -0.617681 -0.205762
H 1.19048 4.12452 0.7072 0.096748 0.265757 0.233214
H 11.6569 12.1112 5.42167 -0.157923 0.041502 -0.317081
H 10.0252 10.5377 2.29736 -0.63919 0.990026 -0.30468
H 10.9898 4.21082 7.93376 -0.50471 0.798225 0.100345
H 10.0308 0.24187 1.51201 0.425465 0.610289 0.097861
H 11.4658 6.27605 8.37365 1.1671 0.437676 1.265859
H 2.2366 12.0142 3.37226 0.782637 1.217405 -0.778062
H 2.4767 0.41865 9.49012 -0.23182 -0.185394 0.102642
H 4.43934 7.36876 2.0164 0.967693 -0.701979 -0.400005
H 5.9018 10.418 8.23322 -0.676486 0.38449 -1.029486
H 8.92004 2.00643 8.28365 0.216613 0.011625 0.326712
H 1.74678 10.3864 2.22179 0.426368 -0.153821 -0.036611
H 1.28304 0.85015 1.01835 -0.804405 -0.03699 -0.826638
H 5.73216 7.304 1.12757 0.54381 0.741805 -1.094268
H 4.24377 3.63339 5.4296 0.151436 -0.254721 1.852377
H 9.77631 1.85761 4.31506 -0.567204 -1.446668 0.476841
H 2.12082 8.14983 1.11802 -0.439236 1.34919 -0.002389
H 1.62268 2.45157 7.4162 1.244258 0.327554 -0.034927
H 4.05438 11.7414 8.02721 0.929825 -1.076883 -0.747627
H 11.335 11.638 10.0693 0.924791 1.817008 0.071953
H 9.62139 4.81916 1.72042 -0.913393 -0.404032 0.034844
H 10.7778 6.20881 0.3895 0.132844 0.196579 -0.606207
H 4.38884 10.9294 0.29082 0.235752 0.274037 -0.266607
H 8.65615 11.1745 2.79492 -0.122118 -0.1671 -0.715378
H 10.8517 3.66877 9.80662 -0.203479 0.330208 1.508581
H 0.2852 4.29158 4.53422 0.262631 -0.078792 -0.398975
H 1.29885 5.32044 9.63501 -0.384003 0.295155 -0.243934
H 0.54348 2.75001 0.88777 -0.243741 -1.115548 -0.413209
H 12.0789 6.98335 10.7221 0.562743 -0.166096 -1.022298
H 5.34323 3.05069 6.47692 0.739626 -0.024285 -0.124314
H 3.34948 10.1492 10.8565 -0.279871 0.371756 -0.056855
H 2.79369 10.9354 4.43501 -1.109505 0.085172 -1.31006
H 7.97442 1.02811 11.2433 0.898378 0.433347 0.699174
H 2.09323 7.16311 2.34205 0.427468 0.141846 -0.949061
H 7.69641 3.70424 2.32216 -0.697996 -0.500998 1.959015
H 8.29858 3.2824 1.04841 -0.603971 1.536599 0.037658
H 9.65123 1.81045 0.0595 -0.585248 -0.120871 -0.002402
H 3.60111 5.20073 9.33714 2.411684 1.281849 0.723296
H 10.3522 1.69078 2.10313 0.369601 -0.648809 -0.780885
H 7.20276 1.8066 4.02247 0.130722 0.7719 0.989174
H 3.21457 2.90516 7.24459 -0.152205 0.37994 -0.063043
H 11.292 8.79641 0.40906 -0.520331 -0.041972 -0.564539
H 7.36964 2.14552 7.00283 0.650874 0.827777 -0.03615
H 5.69182 7.97994 11.4002 -0.615602 -0.003217 -1.811821
H 2.0649 7.91772 6.72599 0.182077 -0.607021 0.92433
H 4.31573 10.827 6.68224 0.300608 0.02495 0.693405
H 12.126 6.9805 3.73357 -1.382802 -0.559477 -0.000665
H 12.1582 8.51425 5.94429 -1.310495 -1.272378 -0.395148
H 0.04309 9.86153 9.5812 -0.516082 0.672174 0.778799
H 3.07927 4.83743 3.83443 -0.647184 0.199666 0.066793
H 11.0355 10.4662 11.1007 0.042712 0.194921 0.066691
H 4.56888 0.97764 10.2466 -0.147839 -0.144139 -0.477459
H 7.13084 7.55546 11.9788 -0.790504 0.765315 -0.175249
H 3.28205 12.3115 1.36465 -0.03449 -0.356555 -0.572492
H 9.28566 10.4097 9.994 -1.3143 -0.099753 0.783708
H 3.34763 1.32178 1.96913 -0.534745 -0.446976 0.230017
H 5.12386 4.9625 9.8468 1.352769 -1.857474 1.028742
H 4.19748 12.1586 11.6492 0.138026 0.27115 0.229254
H 10.6315 7.33007 5.10165 -0.657746 0.124851 -0.130801
H 10.8375 6.23254 3.05198 0.285027 0.758 0.363356
H 10.7657 2.8932 4.16622 1.25265 0.897688 -0.043642
H 2.25964 9.44973 9.67145 0.261879 0.345735 0.537651
H 4.83638 3.10711 1.63625 -0.042296 0.195851 -0.037396
H 5.60693 6.90344 6.64252 0.089418 0.688461 -0.363265
H 2.51011 10.3752 0.84644 -0.835719 -0.097037 0.274921
H 5.92242 3.10391 10.7626 0.159462 0.302329 -0.049408
H 5.24825 1.88966 2.61459 0.208953 0.837559 0.170112
H 7.3093 4.92127 10.0036 0.736224 0.029848 -0.12347
H 5.05152 7.25374 9.63166 -0.720337 -1.585578 -0.298141
H 0.60413 3.46671 3.22096 -0.355251 0.177452 0.213302
H 5.95148 0.85972 11.077 -0.206086 -0.126138 -0.510849
H 8.87126 5.08026 9.70754 1.463391 -0.799906 0.371025
H 12.205 1.5101 9.57042 0.141574 -1.34531 0.927467
H 5.90413 8.54354 9.18662 -0.741084 0.330409 0.573945
H 5.72297 4.29765 11.711 -0.102413 0.272175 0.344588
H 8.57122 8.48634 10.9189 0.012426 1.466043 0.11777
H 0.33595 0.90759 10.9621 -0.412132 -0.221095 -0.729639
H 9.84672 12.0524 3.83988 -0.408174 -0.491153 0.093296
H 8.30175 7.08648 10.4607 -0.148103 -1.334689 -0.81694
H 5.04395 5.2626 4.23847 -0.045059 -0.258865 -0.774372
H 10.8691 4.76159 11.0447 -0.440299 -1.012432 -0.320243
H 12.2581 9.87125 3.0996 -0.685246 0.105692 0.161132
H 5.77229 6.46029 3.34724 -0.274068 -0.223724 -0.923451
H 7.87243 1.04293 9.0363 0.670969 -0.013982 -0.008894
H 0.72575 11.6923 5.07757 0.282108 0.176569 -0.083868
H 0.65573 9.24278 8.36191 0.371685 0.158302 -1.045582
H 7.62726 10.1653 9.76903 1.529965 -0.318549 0.534659
H 12.309 9.86327 0.59224 -0.249762 0.509827 -0.469871
H 0.03299 9.99 5.92212 0.111172 0.7136 0.002802
H 5.25199 6.7248 4.92993 0.659238 -0.682863 -0.082427
H 0.33337 2.34728 5.41918 0.089165 0.237821 -0.100763
H 7.66653 6.69749 6.59 0.180717 0.282903 -0.382942
O 0.13844 11.9636 5.81626 -0.337105 -0.550341 0.052763
O 6.63941 9.83467 8.48102 1.049311 -0.984245 1.463139
O 8.25884 9.2117 6.3096 1.338158 0.162535 1.557003
O 2.36702 5.0953 12.3433 -0.061251 -1.062155 -0.360907
O 8.45961 1.15879 8.24181 -0.463782 -0.102642 -0.167174
O 7.1399 2.85032 6.36324 -0.829415 -0.631879 -0.686263
O 4.95413 7.44962 6.06531 0.343708 -0.745024 0.501767
O 11.4293 9.72883 0.16295 0.986149 -0.500229 0.815842
O 3.34749 0.57646 9.10683 0.281725 0.382537 -0.335389
O 0.2971 2.09942 6.36504 0.096329 0.53324 1.088855
O 10.0018 0.11114 4.67631 0.174277 0.564602 1.41658
O 6.20731 7.90669 12.1845 1.447203 -0.307427 2.265419
O 12.377 0.65027 10.0554 0.472102 1.705559 -0.023958
O 8.55221 7.56901 11.2463 0.267439 -0.067813 0.399735
O 8.02222 5.42548 9.5056 -2.255564 0.900482 -0.287463
O 11.1374 3.31906 8.3013 1.174471 -0.552542 -1.067604
O 2.48821 7.33442 1.4301 0.108198 -1.585807 1.237603
O 10.8524 10.8406 10.2051 -0.400586 -2.162983 -0.257336
O 3.82629 4.26752 4.05543 0.789999 -0.731771 -0.304066
O 0.29966 9.16912 6.341 1.417839 0.664881 1.115479
O 0.54959 3.63258 1.26257 -0.161943 0.947818 0.827752
O 7.41054 0.48676 10.6631 -0.93123 -0.142878 -1.005176
O 4.83461 4.63755 0.55918 -0.650945 -0.3115 -0.423661
O 8.81515 2.11737 12.007 0.873102 0.873695 -0.257225
O 9.53345 11.255 7.30192 1.467587 -0.317923 -0.219594
O 7.9857 4.12194 1.53899 1.405516 -1.104275 -2.175636
O 0.8923 9.54535 9.24882 -0.398333 -0.523599 -0.640423
O 10.533 3.86366 10.7683 0.421047 0.821754 -1.016986
O 4.65572 11.041 7.58437 -1.648292 1.348419 0.067588
O 2.00872 11.2342 3.86149 0.05241 -1.699817 1.952403
O 2.0822 4.75018 9.66947 0.107466 -0.544764 0.030387
O 4.44996 3.40042 6.41426 -1.12737 0.304999 -1.327652
O 10.7217 5.94564 7.90011 -0.923689 -0.550374 -0.704085
O 10.5699 1.08404 1.33444 -1.112391 -0.02285 0.960774
O 10.3871 7.73051 5.97715 0.758569 -0.568718 0.659275
O 11.3 9.7661 3.2766 0.676619 -0.945948 -0.057294
O 8.40678 10.1381 10.4424 -0.500947 0.236844 -1.274285
O 6.96737 6.22696 7.05086 1.120276 -0.476294 2.105386
O 1.73484 9.98969 1.32236 0.18121 0.330633 -0.319242
O 0.25528 6.85885 9.88966 -0.586747 -0.468145 0.585608
O 5.2007 8.18591 9.83016 0.89117 1.087779 -0.813871
O 0.5816 1.13302 0.34989 0.598276 -0.50625 -0.043778
O 2.77258 0.49372 1.93935 0.345146 1.234752 0.172349
O 2.46382 2.73562 7.90174 -0.897919 -0.354563 0.093003
O 2.53216 7.51816 7.51144 0.019239 1.062848 -0.937897
O 5.27405 10.0824 1.24005 -0.84594 0.148234 -0.311386
O 11.1012 6.99136 3.66986 1.40037 -0.328192 -0.881503
O 4.99267 1.11809 11.1041 -0.004603 0.394878 1.030258
O 9.34467 11.2597 2.08825 0.681986 -0.862037 0.928183
O 4.25691 9.87457 4.78349 0.38526 -1.125039 1.010054
O 10.5138 5.19491 1.70204 0.000887 1.202633 0.326295
O 3.7376 11.384 12.0688 -0.30409 -0.84856 0.050303
O 5.73881 5.99904 4.22703 -0.568655 0.915452 1.658455
O 4.52925 2.52691 2.36734 -0.329083 -0.775807 -0.410736
O 4.56939 5.61741 9.49207 -3.696186 1.408576 -1.813923
O 0.18708 3.4159 4.1155 0.127215 0.059522 -0.239406
O 5.32991 6.91427 1.91473 -1.751634 0.094223 1.714813
O 10.8969 6.72079 11.9351 -1.228452 0.412106 0.122214
O 9.84922 2.7368 3.96834 -0.621247 0.621264 -0.853755
O 6.82831 1.57976 3.17832 0.067065 -0.205609 -0.639983
O 6.16028 4.04985 10.8496 0.190089 -0.959516 -0.307575
O 3.14565 9.43762 10.1919 0.520735 -0.082063 0.087195
Cl 6.81904 10.9501 3.83224 0.543158 0.141446 0.058828
Cl 1.6056 6.38206 4.31423 -0.016935 0.156204 -0.112413
190
energy=-1023.66828178 config_type=nep2xyz pbc="T T T" virial="-13.299723519658073 -2.3299542303332608 1.528189408076502 -2.3299542303332608 -9.095581243686116 0.36960865637297297 1.528189408076502 0.36960865637297297 -14.523350825202186" Lattice="12.4 0.0 0.0 0.0 12.4 0.0 0.0 0.0 12.4" volume=1906.6240000000003 Properties=species:S:1:pos:R:3:force:R:3
H 0.18399 1.6414 6.03263 -1.03317 0.203677 -1.089115
H 10.1149 5.65879 4.27808 -0.490172 -0.025706 0.197273
H 6.1446 7.4194 10.3422 0.106546 1.547692 -1.071783
H 10.3935 0.1385 8.0258 0.581933 -0.452318 -0.15512
H 1.27546 2.85395 0.69216 1.139479 0.054176 0.205142
H 0.95714 1.14998 9.8311 -1.534741 1.497124 1.27537
H 0.85647 8.03729 2.45209 -1.801646 -0.943644 -0.022349
H 7.15166 10.4873 8.21721 0.201039 0.69028 -0.327081
H 0.22769 1.85895 1.51395 0.995139 1.171336 -1.265324
H 12.3621 11.2111 6.62175 0.32401 -0.077707 -1.621693
H 11.0565 10.012 5.09064 1.095791 0.335526 0.164237
H 2.45227 8.37725 11.2427 -0.036767 0.389726 -0.869668
H 9.1996 2.90692 10.0789 -0.724382 1.140826 0.112414
H 0.06554 1.38567 3.785 -0.011978 0.186513 0.090371
H 9.0366 8.80055 5.26118 -1.163209 0.184155 -0.207367
H 1.31988 4.67508 8.94477 -0.244032 0.226335 -0.983656
H 10.6774 5.42346 12.2764 -0.255039 -0.281453 -0.430229
H 7.91488 6.5366 7.27357 1.095619 -0.854325 0.496092
H 8.5898 0.93658 4.612 -0.380346 0.076224 -0.334503
H 3.88036 0.69716 11.255 0.703223 1.040935 0.31421
H 12.2437 2.14227 11.6021 0.297672 0.723268 -0.406748
H 8.74425 10.795 10.3627 -0.189093 -0.470437 0.007698
H 0.95834 5.57254 11.1146 -1.089471 -0.715828 -0.52019
H 11.8015 0.45238 5.44109 0.158722 0.694518 -0.295474
H 2.73835 0.20966 10.3745 -0.272915 0.151145 -0.712418
H 7.64487 12.3843 3.68235 0.489057 0.319015 0.328692
H 3.19228 11.6903 4.30495 -0.220198 0.240384 0.456631
H 9.58836 0.2023 0.23883 -0.190609 -0.56562 -0.334336
H 7.98492 11.7842 7.71849 -0.321049 -0.274772 0.198391
H 3.79104 8.06397 1.09783 0.506869 0.283404 -0.988004
H 5.8828 10.6511 6.13362 0.096492 1.229099 1.630903
H 3.29508 0.3408 5.42783 -0.243464 -0.001448 -0.075061
H 4.86478 2.00372 6.39988 0.868327 0.270229 -0.251591
H 6.66447 3.74583 4.49144 -0.966558 0.273521 0.127242
H 11.5824 3.70661 1.09732 1.704558 -1.869361 -0.781875
H 1.25343 3.12971 7.24458 0.447563 -0.461579 0.302354
H 4.55418 9.86117 2.5349 -0.261075 -0.448544 -0.262109
H 12.2708 10.5798 8.71116 -0.022656 1.037752 -0.748451
H 6.70576 3.40368 2.90566 0.040057 0.233025 -0.122965
H 11.3382 8.40687 5.21373 0.117442 1.185377 0.295089
H 2.13546 1.44702 3.19442 -0.551816 0.104014 -0.393918
H 4.24506 0.64514 7.00717 0.303352 0.472951 0.105059
H 6.39091 6.81701 3.55398 1.414477 -0.043734 -0.9954
H 5.54411 10.6298 4.58539 0.925075 -0.852511 1.659587
H 6.18593 12.3559 0.75455 0.230898 0.276324 -2.341337
H 3.32405 11.4646 11.7751 0.161062 -0.342564 0.654159
H 12.1622 0.2644 2.75494 0.525809 0.687315 -0.429711
H 7.4856 6.38199 2.14034 -1.139097 0.34682 1.707856
H 6.36381 3.64381 6.7021 0.049962 0.188925 -1.22057
H 9.94859 2.27206 5.29704 0.310473 -0.018144 0.438087
H 4.72791 6.90038 4.99388 0.374995 0.555848 -0.583608
H 0.49366 12.0244 8.51276 0.665022 0.46921 0.346018
H 6.5855 8.19071 8.55602 1.187805 -2.08643 -2.413197
H 11.8707 8.5127 8.98827 1.002857 -0.688597 0.760291
H 9.70333 5.46249 10.9525 -0.140693 -0.320512 -0.049101
H 11.7806 5.6518 10.7218 0.863636 -0.506365 -0.128733
H 3.37491 7.98873 7.68686 -0.146406 -1.278814 -0.670254
H 4.66333 8.41989 3.16668 -0.387357 0.169542 -0.180008
H 9.06705 4.91409 9.00474 -1.314424 -0.369044 2.110451
H 1.99062 3.3552 3.91369 0.307252 -0.414119 -0.260093
H 12.314 3.34301 10.4912 -0.158584 -1.813965 0.63457
H 8.64371 2.80353 1.52532 -1.868474 -0.554282 0.337038
H 2.0009 5.2445 7.60787 0.197519 0.006967 -0.043141
H 7.53729 2.83742 5.92083 -1.304583 0.206179 -0.025521
H 2.67331 8.76094 9.6995 0.84073 0.168992 -0.75051
H 3.61796 1.25022 3.18026 0.085358 0.750481 -0.035282
H 9.3168 0.789 11.2515 0.064797 1.027381 -0.811489
H 5.38862 8.34305 5.11573 0.253829 -1.337121 -1.442962
H 9.38502 9.02714 2.50376 -1.045022 0.603742 -0.937434
H 10.5082 8.69396 3.32402 0.634168 0.852095 0.274103
H 10.5462 2.19211 10.1364 0.575306 -0.156527 0.41103
H 5.32357 7.20734 11.6426 -1.027014 0.631898 0.629574
H 7.9691 1.67113 2.31541 0.204194 -0.829347 0.840378
H 6.68904 5.02876 3.3109 0.472381 0.343285 -0.001462
H 1.64569 1.27778 8.4606 -0.074242 0.441087 -0.312373
H 10.3843 7.81162 11.6848 0.243749 0.978072 -0.031382
H 9.38418 1.17701 8.48628 -0.036573 0.371531 0.649417
H 7.61768 8.3435 1.16276 -0.416924 1.422279 0.10739
H 5.96395 5.2816 10.691 -0.326203 0.266863 -0.047777
H 5.2464 8.87904 8.92433 1.731889 0.148944 0.276084
H 11.3181 4.91791 1.93347 -0.423731 -0.151915 0.052026
H 12.3778 6.55261 4.93233 -0.136481 -1.097064 -0.449557
H 12.2414 6.25359 8.41473 -0.304634 0.727894 0.204928
H 8.61952 6.30959 4.26824 0.038012 -0.125048 -0.145575
H 11.3324 8.9285 10.5839 0.818322 0.287645 0.28568
H 5.64346 4.64571 9.30153 0.182554 -0.088045 -0.161301
H 6.89995 9.67321 0.69479 0.005384 -0.564971 0.169396
H 1.26805 9.79623 3.90004 0.65498 -2.705754 -0.203821
H 5.4414 11.6116 8.07943 -0.502728 0.435165 0.018565
H 2.55976 9.08961 3.42564 0.497798 -0.420006 -0.321695
H 6.11201 10.7581 11.5536 -0.063416 0.139905 -0.046128
H 3.42113 9.49182 7.63302 0.04164 0.906369 -0.219514
H 7.40809 9.16191 5.0826 -0.264801 1.398161 -0.083047
H 12.0488 6.09704 3.20234 0.819934 1.711712 -1.458019
H 9.27892 1.39247 6.43838 0.514974 0.70099 -0.05318
H 0.64254 8.95661 10.1604 1.817881 -0.835315 0.031147
H 2.41851 4.8041 0.50699 -0.643848 0.239342 0.910926
H 5.99095 5.9151 7.45878 0.764444 -0.404441 -0.238958
H 3.25977 11.163 0.98247 0.10952 0.240632 -0.1905
H 5.47159 1.79554 12.1723 0.578443 -0.550531 0.140066
H 3.27405 3.0303 1.84155 -0.653222 0.184268 -1.168571
H 9.25783 5.47643 6.45802 0.235517 0.111241 0.102778
H 4.93801 9.9497 11.982 -0.626502 -0.041671 0.335782
H 0.1001 4.73559 3.77674 -0.147561 0.581213 0.641002
H 5.35481 3.03342 11.2457 0.253962 0.540174 -0.550228
H 9.97141 6.36241 7.53079 0.392273 0.043701 0.211296
H 10.8051 10.9644 2.26235 -0.648521 -0.335421 0.250969
H 7.91803 9.46748 9.98558 0.463689 0.677447 0.137711
H 3.82325 3.20087 0.32273 -0.249835 -0.449271 0.330208
H 8.86991 6.63016 0.13632 -0.167617 -0.16985 0.23556
H 10.2125 0.02989 2.68253 0.515528 -1.420679 -0.602794
H 1.05074 11.3629 5.4486 -0.862969 0.232823 -0.058472
H 7.36875 6.66464 12.1946 -1.148131 0.124918 -0.951114
H 3.14255 6.89265 0.32754 0.645751 0.41674 -0.634649
H 7.77863 4.67121 9.99749 -2.382456 -0.154209 -0.152111
H 11.6727 7.77245 1.89217 1.325761 0.260152 0.220398
H 1.32525 6.04983 1.03209 0.989232 -1.151767 -1.018124
H 7.27971 0.13014 12.0212 1.199377 0.186408 0.045665
H 2.40075 2.15937 6.72737 -0.026143 -0.191729 0.061433
H 11.9813 7.18672 7.19127 -0.19159 -0.223794 1.013893
H 4.25709 12.2219 8.89301 -0.16717 -0.057115 0.817655
H 9.76726 9.22705 11.2384 -0.175627 -0.0828 0.121099
H 1.20087 6.97465 5.8879 -1.879457 0.397119 -0.875767
H 4.68039 5.18461 7.378 1.057974 -0.688265 -0.101428
H 2.31239 4.63179 4.71691 -1.365282 -0.358715 -0.841523
H 7.47108 7.70774 6.3846 -0.192048 -0.400929 0.627554
O 1.49921 2.16716 7.11875 -0.198366 0.436496 -0.538401
O 5.96844 10.1107 5.37805 -1.206335 -0.295263 -3.588699
O 8.45701 0.53112 3.72157 -0.188963 -0.383799 -0.451089
O 0.40465 2.45587 0.64757 -1.958327 -1.408351 1.77208
O 6.32779 0.12564 12.1416 -1.341627 -0.319917 2.606158
O 9.5642 0.54947 7.7676 -0.59764 -0.419844 -0.097352
O 5.65181 4.98543 7.56177 -1.46902 0.786392 0.457253
O 10.5576 8.80434 11.6799 -0.001368 -1.198868 -0.967613
O 4.09389 1.44553 6.41712 -1.056098 -0.640677 0.254853
O 11.8252 1.45911 5.36368 1.136368 -0.742749 1.205086
O 0.06401 11.2302 5.56275 0.500685 -0.005166 1.344905
O 7.40501 9.28104 1.44679 0.465122 -0.931972 -0.022358
O 10.8736 11.9226 2.12265 -0.59712 1.362922 0.465986
O 7.98021 6.70338 0.52958 1.237769 -0.156299 0.97799
O 9.30394 5.6685 7.43708 -0.036576 -0.543297 -0.186555
O 12.3137 11.3655 8.08617 -1.046361 -1.470541 0.812822
O 5.31124 7.53606 4.47593 -0.388124 0.871296 1.733186
O 12.1441 9.08889 9.77747 -3.629608 0.862186 -0.503199
O 9.25739 5.75859 4.75231 0.535609 -0.252376 0.397555
O 0.21711 7.14065 5.65259 1.874533 0.711077 1.79577
O 10.9568 4.39771 1.19477 -1.483725 2.051166 0.483182
O 9.1004 0.0384 11.807 -0.060419 -0.769473 1.046874
O 3.79564 7.64753 0.18511 -1.07319 -0.75021 1.091205
O 9.57617 2.03258 10.1278 0.054456 -1.016925 -0.622921
O 7.09917 11.3597 7.75308 0.074509 -0.654262 0.243106
O 10.3331 9.17484 2.49029 0.18797 -1.032409 0.100503
O 11.7596 7.09103 8.18926 0.297444 -0.435392 -1.629437
O 8.71681 4.68802 9.98591 3.488673 0.391407 -2.467579
O 6.25496 8.86542 9.09519 -2.483818 1.824592 1.373536
O 2.94756 1.98142 3.1239 0.465462 -0.838928 0.580676
O 12.1254 2.33384 10.6193 0.249939 1.539131 -0.626142
O 6.55803 3.13756 5.85294 1.862183 -0.470591 1.238123
O 10.6777 9.13258 5.07341 -0.632463 -1.819148 0.249444
O 7.73799 2.39912 1.73867 1.5513 1.653563 -0.811014
O 8.08099 8.4965 5.16167 1.596051 -1.416097 0.245381
O 0.14439 7.34686 2.1226 0.39935 0.68894 -0.134207
O 4.46447 11.7991 8.05447 0.616905 -0.330696 -0.708235
O 7.18871 7.14902 7.20345 -1.301718 1.493169 -0.730395
O 3.33372 10.7795 0.10236 -0.212167 -1.092808 0.511012
O 1.31598 4.65054 7.94967 -0.417984 0.018233 1.029617
O 8.81832 9.88211 10.0134 -0.51076 -0.024338 0.242851
O 0.34572 1.08561 2.88309 -0.381405 -0.636399 0.184111
O 1.66597 8.84679 3.74341 -1.088483 3.095976 0.151006
O 1.50349 0.68377 9.23136 1.197034 -1.645187 -0.646741
O 6.02655 6.8607 11.0894 0.74897 -1.706332 1.020483
O 3.6201 12.3635 10.706 -0.174148 0.128212 -0.974756
O 11.7826 5.43734 3.82278 -0.470434 -1.792267 0.570656
O 5.95712 4.43069 10.2038 0.31382 -0.564783 0.154583
O 4.10426 8.98124 2.56909 0.420935 0.287641 0.395078
O 2.70986 12.0232 5.09343 0.173814 -0.526017 -0.548594
O 10.434 5.9252 11.4406 -0.103061 0.889617 1.032807
O 3.54252 8.75233 8.22403 0.437282 0.54543 0.680236
O 1.87448 5.62719 0.29461 -0.521407 1.23282 0.373014
O 3.04224 3.3772 0.92094 0.162662 0.413839 0.675329
O 5.84697 9.82805 11.6657 0.399044 0.191077 -0.015293
O 1.59453 4.20185 4.15202 1.326933 0.605947 1.022527
O 7.16211 6.25767 3.12245 -0.335696 0.582983 -1.035162
O 0.26407 5.22538 10.4583 0.803474 0.53376 0.516383
O 9.12603 2.14381 5.7945 -0.763764 -0.510072 -0.200801
O 6.33773 4.05745 3.56099 0.234644 -1.380013 -0.252352
O 4.86653 2.47794 11.8651 -0.346502 -0.084307 -0.212609
O 2.02096 8.56337 10.3636 -0.424253 -0.593846 2.221923
Cl 4.92064 12.0301 2.86486 0.409954 -0.2415 0.06595
Cl 3.3415 6.13412 6.20071 -0.627295 0.207352 0.047783
190
energy=-1022.37951349 config_type=nep2xyz pbc="T T T" virial="4.907456651846875 6.357544974512519 5.665904705720956 6.357544974512519 -17.03469997324346 -3.186852730589182 5.665904705720956 -3.186852730589182 -18.204062316198282" Lattice="12.4 0.0 0.0 0.0 12.4 0.0 0.0 0.0 12.4" volume=1906.6240000000003 Properties=species:S:1:pos:R:3:force:R:3
H 11.3465 1.53244 8.27256 0.448469 0.79094 0.873957
H 11.9517 6.44611 6.2765 -0.001142 0.623538 0.188801
H 2.41283 2.00277 5.87343 -0.324928 1.112435 0.073628
H 7.1745 4.00547 2.29664 -0.448378 0.431337 0.044196
H 12.35883 11.4383 4.49934 1.383929 0.105473 -0.356809
H 5.19528 9.65981 4.96596 0.136733 0.382974 -0.141906
H 9.23443 2.19951 11.2227 -0.876062 -0.062758 -1.214215
H 0.68075 11.3614 8.78236 1.234466 -0.026827 -0.076305
H 0.42358 0.44402 4.13151 0.340469 0.067885 -0.188225
H 5.17598 1.94588 7.926 -0.047102 -0.648011 0.075632
H 3.98166 4.02059 8.28177 0.113246 -0.378378 -0.722469
H 2.48501 7.39886 5.42702 -0.675826 0.332717 0.175981
H 0.80451 1.94217 9.61124 -1.729563 0.204492 -0.296731
H 2.30976 11.3533 3.68664 0.511172 0.718661 -1.203433
H 8.02505 6.63918 4.73999 1.170232 0.836387 0.619698
H 12.2865 5.60305 9.35284 -1.701414 -1.341162 0.948555
H 9.74777 12.1298 3.73743 -0.01174 0.298068 1.358835
H 8.66881 5.39253 7.32962 -0.105354 0.406842 -0.048568
H 10.5102 3.32055 3.17439 0.438737 -1.047967 0.06851
H 5.23202 1.01329 2.73346 0.239155 -0.191349 0.154696
H 4.19089 4.74777 12.0456 0.001534 -0.029435 -0.311846
H 0.98558 7.4427 10.1163 -0.292987 1.752522 0.6575
H 1.29408 2.6234 0.96737 0.072264 0.313866 0.795091
H 7.98839 3.45403 6.75509 0.40227 1.311013 0.76793
H 8.4148 10.8126 5.60659 -0.471422 -0.570994 -0.562805
H 9.02139 3.88984 3.0579 -2.352263 -0.590595 0.363131
H 10.1226 9.34956 2.40978 -0.379737 0.863825 -0.217527
H 6.6423 9.96384 11.068 -0.213046 -0.071886 0.037896
H 11.2275 0.88513 9.65135 -0.01454 -0.7055 0.98402
H 2.70165 8.3061 6.63731 -0.75876 0.153051 -0.775754
H 5.77323 9.09549 8.96895 0.088439 0.176515 0.034831
H 11.0716 8.55222 1.39997 -0.432263 -0.009097 0.266352
H 7.01439 10.3864 4.95209 0.638098 -0.194434 -0.17268
H 7.99971 5.07028 10.9375 -0.769613 0.385183 -0.201296
H 5.58791 7.49224 1.15654 -1.701477 -0.460617 0.78594
H 1.98799 0.16391 0.36437 -0.246946 0.152899 0.440673
H 11.2546 9.75025 6.30093 0.08818 0.953562 0.387491
H 6.03457 0.52135 7.9961 -0.623241 0.996079 -0.373233
H 11.5076 9.01861 3.9739 -0.121596 0.448548 0.459592
H 3.72361 3.19118 6.9871 -0.446197 0.253553 0.026909
H 10.0261 8.97346 7.72282 -1.78561 0.028343 1.462769
H 3.94346 8.25353 12.2225 -1.349023 1.124727 -1.075618
H 3.63707 6.93942 9.54356 -0.023803 -0.074613 -0.95715
H 5.19307 10.3436 9.67491 -0.819044 0.800013 -0.128052
H 11.1556 4.41321 11.1524 -0.082221 -0.652627 -0.83263
H 11.6418 2.65107 4.41664 0.283885 0.600892 1.880279
H 3.39275 11.8341 2.45593 -0.914902 -0.558845 0.67193
H 11.5325 10.5282 7.69655 0.311918 -0.369825 0.225368
H 3.32949 0.20525 5.16122 0.191502 -1.109822 -2.09538
H 7.16308 3.72874 3.9922 0.395086 0.299608 -2.255981
H 8.00965 7.46106 1.35772 1.992283 1.031307 -0.798736
H 7.29271 6.94123 2.69933 0.096964 -0.059859 -0.029567
H 2.66317 0.00095 7.38056 -1.020125 0.141829 0.645148
H 8.15246 11.9183 8.69004 -0.448277 0.020816 0.116643
H 2.14359 2.77341 9.788 -0.585153 -0.442802 0.091869
H 2.09478 3.51276 1.98268 -0.116561 0.252987 -0.230576
H 8.54267 7.22296 11.2821 -0.713124 -0.474729 -0.548663
H 9.9421 7.42222 4.87271 -0.891848 0.645979 0.601767
H 4.45575 6.48775 1.73244 0.032155 0.396461 -0.383379
H 10.1666 12.3544 2.26172 0.08922 0.145006 -0.213179
H 4.54392 6.1628 11.888 -0.136522 0.348255 -0.167187
H 4.88098 0.14514 10.9919 0.088665 0.294654 0.130238
H 0.11877 6.64551 8.18645 0.661703 -0.668313 0.737674
H 4.3381 0.68286 6.30227 -0.487737 0.019005 -0.162725
H 1.8214 8.53138 10.9871 0.983828 -0.031299 0.243639
H 9.27114 9.49933 9.00167 -0.095696 0.027428 -0.166266
H 7.5929 9.12023 11.9526 0.364542 0.396874 -0.076147
H 4.26662 8.86386 10.7897 -1.397009 0.497697 0.97608
H 7.25731 10.8059 0.92478 0.011568 -0.503093 -1.059818
H 8.04808 11.3401 2.23849 0.302726 -0.006558 0.114986
H 0.44213 9.17972 4.60467 0.506771 0.047975 0.639408
H 4.62854 10.7367 4.07762 -0.788303 0.856651 -0.77492
H 6.35171 11.8336 2.047 0.093536 -0.488491 0.052204
H 9.29194 4.9618 10.2137 0.737486 0.122056 -0.496123
H 8.29586 0.07513 7.23712 -1.000675 0.304919 0.822252
H 11.379 6.7033 0.24788 0.550957 -0.144407 -0.179837
H 10.9777 5.48826 3.71267 -0.086331 -0.073881 0.660267
H 7.05786 9.32715 6.90075 -0.342158 -0.232516 -0.04328
H 1.12003 2.9084 6.26997 -0.361597 -0.129044 0.035901
H 1.99824 0.95205 8.48914 0.117717 -0.8159 0.2056
H 10.9508 4.75957 1.50296 0.248514 -0.56207 0.252804
H 6.48793 6.83526 4.77112 -0.087551 0.33662 -0.437427
H 9.99253 0.95539 5.72153 0.442328 0.435135 0.167498
H 0.53628 7.59283 6.5926 0.016175 0.178705 -0.321661
H 3.7448 11.4102 0.2804 1.668489 0.759969 -0.689156
H 10.4054 1.53524 0.7966 -1.099453 1.588963 -0.551569
H 3.34017 6.36953 8.10615 0.074359 0.118059 0.56141
H 5.74135 2.47725 4.35186 0.031256 -0.103514 -0.155145
H 8.01119 1.60499 8.9958 -0.009813 -0.524805 -0.255807
H 4.55268 2.84419 3.4541 0.055545 0.002522 -0.096852
H 1.83281 5.06 9.39293 0.294675 0.047886 -0.03256
H 9.52658 7.91122 12.0441 2.327512 0.572199 0.565058
H 11.5292 6.63418 3.07016 0.473829 1.236364 -1.405014
H 0.14409 4.46252 1.20347 -1.155825 0.42402 0.034307
H 3.04235 5.32049 4.06606 -0.35818 -0.102697 0.973988
H 11.7535 11.3213 10.7872 0.901468 -0.794954 -0.10654
H 4.63155 6.71855 5.92623 -0.525609 -0.519058 -0.009994
H 6.5958 5.13837 5.18107 0.586368 -1.936366 0.388386
H 0.1057 2.58304 3.10891 -0.233237 0.211861 -0.068858
H 4.49765 12.33927 8.99529 0.605059 1.017089 -0.83708
H 5.79502 7.69913 6.35125 -1.222645 0.290857 -0.522471
H 3.16782 4.82945 10.3081 -0.543762 0.070515 -0.618071
H 9.6643 11.4089 10.2584 -0.139771 -0.433402 -0.382464
H 2.41976 4.54594 5.37908 0.8305 1.859039 -1.112517
H 11.8122 1.03063 1.02907 1.478729 0.215683 0.040097
H 9.13854 7.08353 7.55712 0.50417 0.65841 -0.098901
H 6.14547 0.74775 11.7212 2.747049 0.138404 -0.561114
H 8.40218 10.5042 10.576 -0.146989 0.381228 0.002868
H 3.20361 11.8552 9.52705 0.950571 -0.278937 0.078579
H 7.15097 8.2067 7.89779 0.533516 -0.242748 0.144974
H 0.5974 9.82538 9.46768 -0.1226 0.903143 -0.537173
H 5.28546 0.58103 1.13887 -0.301183 -0.012889 0.327504
H 8.40395 6.12557 8.71936 0.146058 0.578111 -0.851744
H 6.15395 4.79894 0.633 -0.069276 -0.582686 -0.218144
H 2.79198 10.308 0.35897 -0.183208 0.510616 0.261115
H 8.70866 3.16435 12.3653 0.147234 -0.337543 -0.276379
H 7.20169 5.79731 1.01613 0.366272 -0.932316 -0.027948
H 11.1019 3.40172 9.8439 -0.114926 0.540603 0.727632
H 1.76618 1.12561 11.6115 -0.569944 0.511794 0.457589
H 10.8869 12.3595 11.7197 0.85821 -0.589104 -0.879513
H 8.23286 3.10541 9.14241 0.253507 -0.018137 0.045166
H 12.0873 7.87822 11.7393 -0.610361 -0.491247 0.179358
H 10.1966 11.8699 6.24094 0.758334 -0.516881 0.289815
H 5.59589 4.08682 5.84092 0.071814 -0.142604 0.477864
H 9.49284 3.56556 6.98007 1.518866 -0.306802 -0.180265
H 8.84408 8.61735 5.33781 0.269907 -0.813985 -0.393455
O 1.51463 1.00569 0.16363 0.252758 -0.083881 -0.975331
O 5.63973 9.50673 9.8496 0.096734 -0.866083 -0.004672
O 9.93331 4.02228 2.88327 3.030629 2.598057 -1.078783
O 0.78279 11.9441 4.2346 -1.989518 -0.244457 0.609621
O 10.952 4.3259 10.1843 0.217344 0.261113 0.199274
O 11.4353 6.33261 3.95337 -0.853626 -1.323331 1.049289
O 6.5303 4.16829 5.585 -0.364985 1.45344 -0.856689
O 11.2522 7.57229 12.2097 0.270089 0.557118 0.069967
O 3.49856 8.83828 11.4793 2.637756 -1.585463 0.547992
O 8.67034 3.89624 7.34924 -1.762656 -0.249465 -0.851312
O 5.33217 0.25102 2.07505 0.65166 -0.072744 -0.830195
O 6.48881 8.6707 7.37629 0.525615 0.544855 0.026318
O 0.14435 10.5947 9.0143 -0.694746 -1.114741 0.720838
O 8.50032 6.37606 7.70459 -1.000014 -2.476603 1.571183
O 2.60498 4.46845 9.56704 0.462191 -0.169105 0.280308
O 5.12397 0.95162 7.89335 1.257393 -0.05929 -0.084764
O 7.2286 7.12053 1.72519 -1.919197 -0.491031 1.050389
O 2.91104 11.237 0.67119 -1.064196 -1.407215 -0.022201
O 12.0707 7.21442 6.87989 0.041661 -0.64079 -0.264261
O 9.6308 0.06454 5.72188 -0.971915 -0.113448 -0.227406
O 5.22882 0.69922 11.7473 -2.74498 -0.370888 0.588259
O 7.28653 10.0533 11.8069 -0.206561 0.286813 0.224751
O 2.07107 8.18222 5.87928 1.191686 -0.722847 0.710246
O 1.71609 1.87188 9.85762 2.364524 0.773722 0.531868
O 11.5712 1.67846 9.23141 -0.447649 0.408223 -1.933216
O 7.1867 10.9917 1.87592 -0.691038 1.464771 1.220839
O 11.0832 11.9869 10.7941 -1.924696 1.714457 1.436891
O 4.58054 7.33442 1.23209 1.617749 0.340197 -0.799811
O 2.05907 0.0018 8.18885 0.605608 0.178482 -0.768061
O 9.25242 8.74182 8.37406 1.653361 -0.096186 -1.403896
O 4.39364 5.38394 11.321 0.003593 -0.324333 0.888901
O 3.41869 0.69819 5.94826 0.058509 0.719067 1.969648
O 4.43714 3.61119 7.49637 0.004901 0.073642 0.649971
O 11.9327 9.46215 4.75548 -0.329302 -0.610481 -1.360513
O 7.2189 6.35171 4.30526 -1.868694 -0.508509 -0.486444
O 9.46242 2.65223 12.0231 0.564542 0.537257 1.924322
O 8.33213 2.26863 9.61965 -0.183767 0.290299 0.327015
O 9.11663 7.65692 5.39992 1.299684 -0.031687 -0.293011
O 11.673 2.30337 3.54179 0.811001 -1.547659 -2.274118
O 0.55517 6.16465 9.01919 1.044225 1.728384 -1.083227
O 8.88057 10.9476 9.83264 0.314187 0.192623 0.335219
O 3.22971 11.5794 3.38628 0.413666 -0.283563 1.146479
O 4.97813 2.08515 3.90376 -0.100208 0.098708 -0.134434
O 7.68287 0.1199 8.03794 1.421742 -0.508143 -0.976667
O 2.02947 2.94303 5.94578 1.035161 -0.694053 -0.109677
O 7.91698 10.0443 5.23804 -0.104143 1.002815 0.735912
O 11.7191 4.99976 0.94832 0.400926 0.383337 -0.546721
O 10.91 0.7575 0.97939 -0.320158 -1.820736 -0.095516
O 10.8852 10.3955 6.97176 -0.338988 -0.416442 -0.813518
O 10.6839 8.58978 2.30695 0.630713 -0.679389 0.002128
O 9.57757 11.8429 2.85295 -0.50424 -0.804474 -1.218125
O 8.59121 7.94797 11.9136 -1.010073 -0.899804 -0.12819
O 7.12303 4.83401 0.67075 -0.235566 0.682394 -0.199272
O 5.11333 7.48549 5.61973 1.384011 0.167586 0.304978
O 5.41237 10.5466 4.60425 0.435996 -1.353016 1.095825
O 2.75302 5.47102 5.00292 -0.177476 -1.705284 0.192883
O 3.74223 7.11634 8.58232 -0.041131 0.027363 0.278892
O 1.18308 3.32325 1.67734 0.18386 -0.945463 -0.502421
O 7.59568 3.60676 3.07045 -1.090955 -0.952373 2.34688
O 8.44359 5.46383 10.1601 0.262984 -0.360673 0.717253
O 4.19529 11.7666 9.70557 -1.489364 -0.745423 0.888162
O 0.94647 8.35481 10.6302 -0.916158 -1.699023 -1.198363
Cl 4.03257 4.45502 1.98057 0.114058 -0.166368 0.212445
Cl 11.3852 2.99738 6.24322 -0.509081 0.004475 0.952821
190
energy=-1022.60794756 config_type=nep2xyz pbc="T T T" virial="-3.545025284100684 -1.8826490957266313 -1.864989182462924 -1.8826490957266313 -6.8098243973565005 8.057918536910169 -1.864989182462924 8.057918536910169 1.291256205192124" Lattice="12.4 0.0 0.0 0.0 12.4 0.0 0.0 0.0 12.4" volume=1906.6240000000003 Properties=species:S:1:pos:R:3:force:R:3
H 11.3679 8.80021 6.05336 -0.332637 -0.594553 -0.67194
H 8.80696 4.31494 2.62636 0.191717 0.046037 0.365209
H 3.33421 8.13669 3.2071 0.513554 0.047927 -0.840146
H 11.7342 2.57103 7.98379 -0.110411 0.220361 -0.349569
H 4.10146 4.91445 10.4053 -1.488688 0.269597 -0.84894
H 4.66495 10.9655 9.90882 -0.233562 0.514858 -0.229942
H 3.36061 6.66446 4.35691 0.395123 -0.19676 0.142965
H 3.01662 11.1169 0.98942 -0.599118 -0.293606 -1.059423
H 0.36515 4.52386 12.1059 -0.301766 -0.09483 0.108439
H 7.91053 12.3114 4.09262 -0.566332 0.181995 -0.081793
H 8.6733 7.19782 7.6741 0.505751 0.364063 0.061192
H 6.39395 9.52604 12.2002 0.716476 2.551584 2.729833
H 10.7246 4.74967 11.1881 -0.053358 0.120248 1.379331
H 1.95936 0.42418 0.0171 0.06042 -0.427646 0.156518
H 4.85883 8.23911 4.77658 1.131555 0.716638 2.232483
H 11.6451 4.02224 7.46728 0.973111 2.134957 0.733788
H 7.37189 1.75422 9.42774 -0.776732 0.277459 0.313234
H 6.09992 5.87748 11.3768 0.489852 0.278075 -0.101349
H 5.75006 11.8944 3.52109 -1.071653 -0.528279 -0.10205
H 5.15981 12.2045 0.20547 -0.352352 -0.054569 -0.417523
H 1.6052 4.01198 0.59926 0.153161 1.110385 -1.66588
H 8.75075 11.7992 11.1282 -0.166075 -0.254233 0.361332
H 0.70574 0.58209 10.056 0.294851 -0.627782 1.367749
H 10.0684 8.27336 5.18312 0.618516 0.57811 -0.117288
H 10.6608 11.5649 9.21521 0.323425 0.932415 -0.948026
H 5.42703 10.4248 3.25031 0.099038 -0.625212 -0.379709
H 4.94564 1.52006 6.51989 0.653716 0.015591 -0.21105
H 10.5772 0.84146 10.8664 0.239944 -0.064036 0.481229
H 4.0817 11.5309 1.81322 1.42357 0.19597 0.85302
H 3.15401 6.60117 7.89561 -0.382566 1.07897 1.73348
H 6.43667 9.53463 6.27295 0.110483 -0.411234 0.391849
H 3.63851 11.5773 4.21795 -0.245532 -0.109689 0.640133
H 1.89459 1.49394 8.76477 0.478175 -0.011129 -0.218255
H 10.0915 1.51815 1.30388 2.363869 0.024998 -1.379938
H 0.03483 5.92136 3.51676 -0.060311 -0.013074 0.09673
H 10.3463 11.4284 5.44676 -2.888344 1.208328 3.428929
H 0.34694 6.31586 7.87168 0.236491 -1.725356 1.10455
H 8.42463 11.1836 6.40904 -1.447967 -1.386259 0.439457
H 8.59765 1.76834 1.34669 0.116048 -0.664001 0.604222
H 9.95864 8.18397 7.86056 0.373868 -0.431325 0.016326
H 4.12471 2.29836 5.43988 -0.164471 -0.043049 0.205741
H 3.26471 1.60637 7.83757 -1.054975 0.766046 0.978723
H 8.22502 5.86437 0.49092 -1.079241 0.273283 -1.19
H 7.75058 9.41149 7.15321 2.155648 -2.511566 0.695888
H 0.18728 1.40998 12.2624 -2.499484 0.975183 0.0064
H 2.23856 10.7764 10.4579 0.230484 -0.281696 0.170318
H 2.68406 1.12121 11.2685 0.010136 0.074155 -0.102942
H 6.8255 2.61831 6.00081 0.236187 -0.017387 0.049428
H 6.22633 6.57729 6.52031 -0.323919 0.615144 0.042942
H 9.07678 2.80768 2.91173 0.003798 -0.342763 -0.086916
H 8.89826 7.89293 3.62468 0.39798 -0.319935 -1.779868
H 9.52562 11.9339 7.22305 0.535369 -0.191616 1.010164
H 7.51489 5.06463 9.80093 -0.476018 0.762775 1.040841
H 11.2441 10.282 0.48173 0.133502 0.194766 0.206298
H 8.14585 3.15651 9.17309 -0.624653 -1.224943 -0.256101
H 3.33798 0.17418 5.39943 -0.059518 -0.293839 -0.038246
H 9.18213 12.1959 2.15437 -0.344028 -0.722428 -0.14697
H 0.97042 5.07746 8.81808 0.362315 0.48341 -0.297876
H 9.71083 5.04796 9.60052 0.808765 0.904432 -0.173585
H 3.75199 4.31186 4.37336 -1.029515 2.684133 1.17271
H 3.56316 11.9679 9.31289 0.506275 -0.380236 0.326554
H 10.3019 4.65827 0.45413 -0.097763 0.590289 -0.839546
H 11.3573 2.96123 5.6743 0.431606 0.490361 0.006446
H 6.65648 5.18093 5.98296 0.505975 0.778368 0.858327
H 6.50058 9.36144 10.6677 -0.854143 -0.915359 2.044652
H 6.11192 3.75122 4.2503 -0.688276 -0.079183 0.011191
H 9.34137 1.25377 10.0514 -0.534667 0.438799 -0.81985
H 8.24148 7.11697 4.82036 -0.949035 -2.130596 0.562402
H 0.49904 7.70113 2.42118 0.098557 0.154987 0.124743
H 11.8189 8.02215 3.51768 -0.096451 0.846595 1.531104
H 12.1651 0.38098 8.8283 0.622084 0.081477 0.283017
H 5.78819 3.43693 1.16387 0.869876 -1.15779 0.874077
H 12.1733 4.05025 4.63691 0.427112 0.733813 -0.75367
H 9.26174 6.80048 1.30716 -0.948029 -1.307754 0.208164
H 11.471 10.7778 8.19115 0.342072 0.216247 -0.29994
H 10.7114 9.17567 11.8699 0.083447 0.685031 0.358808
H 1.53053 12.1038 4.55313 0.039047 -0.415514 0.355275
H 6.30018 1.25597 1.47745 0.36184 0.505771 0.251369
H 2.12352 4.68072 10.6417 -0.070713 -1.031522 0.019148
H 7.34052 4.83742 8.30545 -0.041405 0.400916 -0.609403
H 1.42032 5.47636 4.17867 -0.624106 -0.330281 0.18801
H 12.1304 11.9104 4.51863 -1.415532 -0.938191 0.236549
H 2.63239 8.95379 7.52956 -0.048377 0.119422 -0.202066
H 10.6661 3.50533 4.26003 0.778521 -0.31608 0.285744
H 1.73763 9.06161 1.52665 0.960754 -0.547665 0.639306
H 2.52251 3.45214 9.56199 -0.084585 1.279332 0.539343
H 10.63 7.93856 2.10546 0.696672 -0.310166 0.284973
H 6.89705 1.70193 2.87335 -0.178435 -0.563211 0.223896
H 6.57253 10.4267 8.4099 -0.466059 0.388131 0.992345
H 4.83598 7.42511 3.08813 0.280076 -0.738521 -1.274655
H 2.29291 7.58941 10.2716 0.394987 -0.06288 -0.937431
H 9.60899 11.2647 3.24889 0.835961 -0.459766 0.869967
H 4.57028 8.60714 6.29721 0.108112 0.127753 0.409534
H 10.9813 7.29603 10.683 0.156942 0.456318 0.426099
H 7.52152 1.54375 7.03796 -0.834012 0.427851 -0.67404
H 9.69861 8.80442 1.29112 -0.103196 0.381406 0.462524
H 1.37991 6.10041 12.1634 0.093696 0.639955 -0.295844
H 6.32089 7.27391 1.79207 0.458541 0.433405 -0.269621
H 1.13455 10.397 11.4739 -0.364553 0.241323 1.932589
H 5.491 1.35025 10.8542 0.044928 0.006815 0.486601
H 3.59239 3.41968 3.20629 0.565737 -0.477583 0.529602
H 7.56222 10.0331 2.58879 -1.029774 -1.160033 0.094087
H 6.61789 11.892 12.0287 -0.980125 1.904157 0.348631
H 12.0064 8.42733 10.3594 -1.022488 -0.177234 0.769347
H 4.80822 1.72092 9.52341 -0.645188 -0.101517 -0.377356
H 7.02553 8.90262 3.5623 0.030866 0.367109 -0.991056
H 3.58668 3.62891 1.3537 0.737535 -0.726564 -1.019934
H 2.04009 8.63887 9.19795 -0.055758 0.043809 0.284609
H 5.05331 3.62334 10.4394 -0.431766 1.365625 0.73501
H 7.65152 3.83966 4.42735 -0.420089 -0.250958 0.269911
H 2.68311 2.23796 0.93755 0.811104 -0.116678 -0.787041
H 7.0093 0.9119 4.95028 -0.030217 -0.454305 0.362519
H 5.15581 4.24775 0.07263 -0.564605 0.53159 -2.589214
H 3.56481 5.09893 7.71557 0.164647 -0.930734 1.222744
H 11.2044 5.56727 9.1581 0.079862 -0.440674 0.283464
H 2.02287 7.7272 0.98348 0.045855 -1.650439 -2.094371
H 0.71916 7.52985 11.7087 -0.606476 -0.271153 0.10032
H 11.3748 2.57061 12.1752 0.618505 -0.553857 0.10894
H 11.037 10.2574 4.75928 -0.422903 0.941702 -0.121054
H 3.18971 10.1006 6.57959 0.02357 -0.759279 0.528253
H 7.04173 11.2004 9.72207 0.882298 0.421699 0.565386
H 8.79903 10.6101 12.0972 0.24656 -0.013311 0.061448
H 0.81949 11.7513 3.18917 -0.973286 -0.316105 -0.631104
H 5.74731 5.8308 1.83975 -0.153644 -0.212319 -0.05367
H 3.07457 5.80027 5.70101 -0.06599 0.546123 0.143536
H 6.72359 7.33204 11.6462 0.1207 -0.75177 -0.635199
O 10.8675 11.2787 4.72018 2.668752 -2.296856 -3.277939
O 7.07091 9.9809 6.9112 -1.975 2.562191 -0.771788
O 4.97063 11.2823 3.25248 0.794406 1.309963 0.7791
O 1.33917 4.61623 12.1817 -0.211909 -1.569726 1.855681
O 11.5733 1.60493 12.3454 1.372345 0.080526 -0.250769
O 2.96057 11.7734 4.94949 0.424665 0.596591 -0.191584
O 5.86819 6.65029 2.35632 0.199396 -0.426159 0.063893
O 4.13264 7.79969 3.65485 -1.247146 0.955519 1.188067
O 2.84459 1.8291 8.73105 0.451773 -0.550729 -0.884632
O 11.0031 8.6507 5.12752 0.02857 0.226549 0.491756
O 7.03783 0.3543 4.12487 0.558274 0.174757 -0.173996
O 9.68856 8.15638 2.04122 -0.666543 0.309675 -0.931628
O 2.80321 3.05642 1.42223 -1.413829 1.181459 1.644828
O 6.79413 3.76389 4.93888 0.765203 0.754344 -0.617844
O 6.82439 9.33143 2.68569 1.199113 0.944442 0.932997
O 8.99299 11.9319 6.43528 0.792989 1.716912 -1.093766
O 8.5633 7.92572 4.50868 0.318546 2.343135 1.189503
O 10.4408 9.9257 0.08119 -0.783516 -0.640183 -0.372272
O 8.95259 3.66631 3.361 0.417991 0.660953 -0.238154
O 0.60937 12.0815 4.09293 2.931719 1.416294 -0.377069
O 0.47254 5.1709 3.97119 0.80527 0.07947 0.285868
O 9.87834 0.48709 10.2918 0.114099 -0.423049 0.686234
O 3.34162 5.90494 7.29754 0.191003 -0.153619 -2.558367
O 10.9018 4.37562 12.1329 0.631542 -0.848559 -0.257689
O 3.89603 11.4973 0.86864 -1.084998 -0.061875 0.213682
O 12.0187 7.46592 2.77686 0.695882 -1.034636 -1.152534
O 3.43619 9.34042 7.16349 -0.441789 1.081827 -0.474673
O 10.5521 5.49116 9.90578 -1.136894 -0.252333 -0.429494
O 7.9134 4.62464 9.05571 0.604411 0.054564 -0.176261
O 4.15241 3.55675 4.00955 0.60229 -2.549086 -1.532751
O 3.84839 11.4863 10.1137 -0.67075 0.293272 -0.192451
O 6.88144 5.88604 6.67255 -0.016885 -1.245352 -0.847538
O 8.99881 8.09008 7.88979 -1.115054 0.148417 -0.136769
O 11.5413 3.23923 4.70225 -1.854575 -0.441571 0.198954
O 5.35864 8.46564 5.73603 -0.521464 -0.845017 -2.306158
O 2.269 8.23188 1.74114 -1.150067 2.578515 1.761009
O 6.30399 10.7306 9.36352 -0.365826 -1.180369 -1.682892
O 6.95362 6.36766 11.4399 -0.401927 0.122851 0.438074
O 1.37162 10.3314 10.5746 0.231849 -0.064402 -2.050031
O 11.4085 3.14375 7.26245 -0.753701 -2.598881 -0.549778
O 8.1614 11.1389 11.5836 -0.045995 0.62164 -0.416281
O 1.94497 1.23489 11.8887 0.164104 -0.169338 0.126835
O 6.61084 2.0353 2.01082 -0.140167 -0.16123 -1.130167
O 11.1534 11.6999 8.35415 -0.864568 -1.22598 0.852661
O 5.31695 4.23997 0.99315 -0.534419 0.920586 2.151335
O 5.92999 0.26004 12.2067 1.784489 -1.37244 -0.205236
O 11.4375 8.06825 11.1118 0.962626 -0.712694 -1.94597
O 2.46615 4.44439 9.75159 -0.399198 -0.488639 -1.026613
O 0.20576 5.39474 8.28065 -0.432364 1.509751 -0.926841
O 4.04244 1.67563 6.20354 -0.392046 -0.12303 -0.309055
O 8.1507 2.14044 9.03551 1.152388 0.251269 -0.109911
O 9.07528 11.2531 2.46044 -0.75395 0.581668 -0.450724
O 1.54078 7.07471 11.9286 0.581572 0.058104 0.061986
O 4.87944 4.5757 10.8047 2.363318 -1.490074 0.387691
O 2.51291 7.8022 9.31658 -0.379257 -0.269683 0.947588
O 2.95289 5.84143 4.72366 -0.723174 -0.842369 -0.092372
O 8.85885 5.85486 1.19351 1.744525 0.209058 1.222827
O 0.4406 1.00622 9.26032 -0.817181 0.649437 -1.67708
O 6.79205 1.70635 6.37874 0.494395 -0.741236 0.946209
O 9.35263 1.37735 1.85694 -2.302108 0.956199 0.469339
O 5.29376 2.10537 10.2503 0.707698 -0.47271 0.080062
O 6.2202 8.9059 11.5644 0.008906 -1.630115 -4.64756
Cl 0.68254 11.0316 1.32946 0.424526 0.001558 -0.002625
Cl 12.0479 8.76529 7.96616 0.181317 -0.105604 -0.05754
190
energy=-1023.94522452 config_type=nep2xyz pbc="T T T" virial="-12.030577906678866 0.21783336407827908 -4.862021645889438 0.21783336407827908 -19.398165198017825 -3.009372982331141 -4.862021645889438 -3.009372982331141 -9.5072214456436" Lattice="12.4 0.0 0.0 0.0 12.4 0.0 0.0 0.0 12.4" volume=1906.6240000000003 Properties=species:S:1:pos:R:3:force:R:3
H 12.1709 2.8786 7.48322 -1.424541 -0.963473 0.814945
H 3.89785 3.47678 3.22916 0.619914 -0.601575 -1.994909
H 4.34195 6.75895 6.25474 -0.194293 -0.074205 0.102996
H 7.80989 3.2379 6.28196 0.466422 0.665724 -0.430978
H 1.25539 4.1792 11.2429 -0.677919 -1.087114 0.243117
H 2.83721 5.07666 6.78014 0.23267 -0.482986 0.308893
H 9.76242 7.30771 3.26945 -0.211435 -0.02914 0.020604
H 10.7871 11.1866 8.55098 1.31463 0.225832 1.225194
H 0.46686 2.80665 11.6524 -0.062875 -0.639308 -0.819622
H 10.835 11.2998 5.75807 0.215235 0.1219 -0.433969
H 10.5293 5.78454 7.87727 0.457059 -0.906079 0.669476
H 2.27981 5.45079 12.2224 0.444257 0.745587 1.386296
H 9.53264 2.68599 11.7899 0.279197 -0.824184 0.503415
H 12.0399 0.51353 0.93703 0.466017 1.197209 1.250858
H 10.9909 6.41074 5.9763 -2.102847 -1.037113 1.196158
H 0.40245 7.69419 10.0496 0.192304 0.473432 0.067832
H 10.1235 3.96451 2.12424 -1.476595 2.087353 0.179181
H 7.66118 6.69365 8.27025 0.006638 -0.159907 -0.536843
H 7.5844 7.41417 2.69717 0.576482 0.589055 1.272667
H 6.22235 10.6812 0.44598 -0.357503 0.444315 0.426873
H 2.31199 4.571 9.37919 0.147917 -0.917429 -1.990025
H 4.08234 8.94932 10.4199 1.098699 -0.789648 0.014685
H 9.96379 7.33248 12.2454 1.402936 -0.498029 0.149199
H 0.94455 1.5111 6.14106 0.020064 0.948694 0.215183
H 5.97009 11.6222 1.68127 -0.135041 -0.169475 -0.249588
H 7.55517 8.32802 4.00337 0.425353 -0.175954 -0.588671
H 5.79585 10.7571 3.69709 -1.504508 -0.649202 -0.174672
H 7.82758 12.0239 9.75887 0.064992 0.082905 0.142553
H 9.79788 11.8867 7.63604 -0.345635 1.076513 -0.299303
H 2.11334 6.37945 1.15261 -0.256604 0.109493 0.035248
H 6.54881 8.41732 7.88914 0.630832 -0.168055 0.472985
H 5.11015 9.51788 3.04279 -0.325001 -0.260597 -0.200182
H 4.252 0.92319 6.57635 0.107103 0.336841 -0.276093
H 7.31496 0.65264 3.92648 -0.269252 0.248371 0.322924
H 12.2901 4.15152 0.96025 0.409137 0.001868 -0.867128
H 0.5425 11.862 5.4683 -0.462589 0.008344 -0.127166
H 10.4459 9.0425 2.94884 -0.451308 0.791989 -0.106803
H 11.2498 3.77732 8.44775 -0.361536 -0.942851 -0.452675
H 8.5499 1.40007 2.79145 -1.358455 -0.07014 0.772467
H 11.5529 5.99886 9.13344 -0.498981 -0.519162 0.503238
H 3.0781 0.24299 2.52807 -0.494364 0.478973 -0.008606
H 2.90177 0.0993 6.40213 0.07567 0.285034 0.011144
H 4.03709 7.85275 2.21189 -0.44402 -0.057996 -0.245377
H 5.58355 9.48688 7.51763 -0.480844 0.8646 0.99176
H 10.1465 1.6923 7.66544 -1.52593 -0.839895 0.267949
H 1.99724 11.0872 1.74665 0.168173 -0.057124 0.378793
H 0.87127 1.32538 1.49879 0.695173 -0.038623 -0.166873
H 5.32761 8.27117 1.30984 0.117809 -0.392412 0.436929
H 4.38526 2.94758 5.36815 0.200188 -0.047701 0.037113
H 10.8065 0.99827 4.9215 0.067231 -0.805788 -0.066678
H 1.77553 8.47919 2.20759 -0.006097 -0.867519 -0.312874
H 2.22057 3.0507 7.75437 -1.178036 -0.889748 -0.707527
H 4.0723 11.112 6.65951 0.464674 0.102857 -0.111035
H 12.0195 0.0097 10.0476 -0.00158 0.445073 0.078858
H 9.48906 5.46579 2.33842 0.59983 -0.583397 -0.063144
H 11.0647 6.76861 0.8726 -0.237776 0.238477 1.028584
H 4.68872 12.196 11.9579 0.566703 0.173405 -0.021273
H 9.22296 10.0463 3.26357 -0.372679 -0.162588 0.089723
H 10.2269 4.41129 10.3933 -0.860315 -0.497369 1.576285
H 1.03049 5.23551 4.80634 -0.368736 -2.280581 -1.803015
H 1.68483 5.85359 10.0799 -2.427401 2.193798 -0.520647
H 11.863 2.88639 1.73078 0.369284 0.733536 -0.115072
H 12.017 6.83131 11.1591 -0.591564 0.145443 0.522727
H 5.65853 2.88847 6.33024 0.89111 -0.369558 0.200126
H 3.22132 11.1249 11.0424 0.54228 0.667051 0.136543
H 3.5349 11.3791 3.2001 0.222996 -0.622413 0.60012
H 8.46034 0.7354 10.6702 -0.587102 0.119454 -0.338267
H 1.27615 7.59168 3.30684 0.313312 -0.79935 -0.355505
H 7.55779 3.56486 1.16787 -0.051023 0.30963 0.060597
H 6.69847 2.54066 0.34159 0.184362 1.435022 0.555371
H 9.65481 1.5029 0.5741 -0.184201 0.601333 -0.974224
H 3.70777 5.67227 10.2043 0.594943 0.144726 -0.531302
H 9.70262 0.31113 2.43574 -0.920652 1.997238 0.14951
H 7.75441 2.01654 4.57354 -0.931493 -0.48468 -0.866896
H 3.61733 3.36687 7.27139 1.496324 -0.748136 -0.954597
H 10.6249 10.7574 0.795 0.520351 -0.118168 0.009066
H 7.89894 1.94998 7.0914 -0.924366 0.952003 -0.243968
H 5.78947 8.69073 11.8097 -0.855034 -0.184246 -1.484971
H 2.30622 6.49772 6.54655 0.602227 -0.169434 -0.574332
H 4.61899 9.88105 5.74798 -0.30355 0.345297 -0.372408
H 9.90959 3.08162 5.34557 -1.514121 1.038424 -0.609655
H 1.41997 8.8381 6.59662 1.068542 -0.454131 0.399091
H 0.51589 9.80311 9.35334 1.21015 -0.907039 0.163321
H 2.78466 3.7877 4.17954 -1.895593 0.432634 0.322242
H 11.763 11.1147 10.7803 -0.349774 -0.306553 0.953669
H 4.61493 2.11172 9.22214 0.770241 0.309436 0.205403
H 7.26009 8.52033 12.2276 0.032861 0.127683 -0.2065
H 3.4837 1.07008 0.35909 -0.623314 -0.148684 0.166012
H 9.02069 10.3591 8.71119 0.165064 0.120665 -0.488868
H 3.48291 2.3357 1.23285 -0.882205 -0.846847 0.215916
H 5.32217 5.27531 10.4893 0.085793 1.151173 -0.7051
H 4.72495 0.88539 10.7259 -0.906278 -1.19017 1.435243
H 9.88393 5.14713 6.15069 -0.015053 0.245856 -0.45898
H 9.09719 4.09904 4.27271 0.217114 -0.322201 0.621452
H 10.6921 2.2342 3.98688 0.182927 -0.647308 0.101141
H 2.05879 10.2094 10.7813 -0.510919 -0.629111 -0.656303
H 3.62015 4.58101 1.42863 -0.17853 0.710016 -0.788058
H 5.96488 7.05485 6.40629 -0.40508 0.039098 0.08492
H 2.11165 9.97412 0.59174 -0.125239 0.823261 0.212264
H 5.99484 3.66435 10.2901 0.113356 -0.791573 -0.791111
H 5.02041 3.78048 1.20558 0.087463 0.391402 0.064795
H 7.65399 5.39827 10.1534 1.008128 0.876008 -1.134137
H 4.76284 6.99033 10.1261 0.151701 0.059839 0.104566
H 0.49119 4.17494 3.5493 0.447763 0.673014 0.80949
H 6.1309 1.71917 9.37298 1.085445 -0.65475 -0.478033
H 9.08109 5.7488 9.3689 -0.101428 0.071261 0.450763
H 11.6161 2.15813 9.73007 0.143015 -0.057133 -0.457768
H 5.43507 8.8065 9.4693 -0.715925 -0.58318 0.537733
H 6.59692 4.17611 11.5874 0.438792 0.049215 0.714546
H 8.68676 9.06075 10.6703 -0.085711 -0.174043 0.321465
H 11.0489 1.78566 11.127 -1.006315 -0.362651 0.85464
H 10.8282 10.9529 4.20482 0.812795 0.959446 0.894947
H 8.33366 7.5013 10.5938 0.714542 1.196183 1.390337
H 4.56241 5.28271 4.04774 -1.259007 -1.098834 -0.653679
H 9.65257 4.8868 11.7785 0.376284 0.42633 0.38466
H 11.3041 6.95959 3.31713 -0.672447 0.032943 -0.335348
H 5.3615 6.453 3.20651 -0.747428 1.480813 -2.461663
H 8.99085 0.94497 8.56708 0.048051 0.37056 -0.619575
H 1.60385 0.05061 4.53514 0.363405 -0.089061 0.341546
H 1.54859 8.87737 8.51087 0.175826 0.24576 0.596626
H 7.54514 9.7838 9.09258 0.324152 0.526702 -0.421991
H 12.2244 10.4933 0.80254 -1.326441 1.202241 -0.76201
H 2.95238 9.1786 6.94422 0.116229 0.271739 -0.103378
H 5.26113 6.61438 4.89682 0.23997 0.03942 0.233827
H 0.92885 3.02983 5.71271 -0.140412 0.79712 -1.105486
H 8.1849 7.03633 6.80586 1.330062 -0.167306 -0.608846
O 1.31419 0.05195 5.4802 0.434719 0.096704 -0.236017
O 6.1368 9.20806 8.31235 -0.046873 -0.35724 -1.817838
O 8.09867 7.67486 3.51028 -1.213306 -0.221462 -0.642733
O 0.70387 3.69548 11.9086 0.66521 1.665876 0.267414
O 9.3184 1.0544 7.62951 1.071499 1.113799 0.565807
O 7.24124 2.68603 6.82634 0.877825 -1.3132 0.775699
O 5.13255 7.25787 5.87761 0.689889 -0.762585 -0.393497
O 11.45 10.9917 0.33201 1.109061 -0.788596 0.765332
O 3.78455 0.10887 6.83297 -0.654652 0.026151 0.202373
O 0.93027 2.47251 6.48699 0.268726 -1.45016 0.908887
O 11.2441 11.5937 4.90963 -1.266364 -1.307189 -0.215404
O 6.363 8.79486 0.15717 0.629172 0.391958 1.404577
O 11.7723 1.61027 10.5223 1.441348 -0.065626 -0.653213
O 8.56256 8.27083 11.2679 -0.24681 -1.266144 -1.446083
O 8.22831 6.12805 9.69473 -0.836867 -0.795035 0.277754
O 11.3434 2.81022 8.14049 1.495202 1.620356 -0.65193
O 1.76485 7.5064 2.44445 -0.099442 2.020166 0.345852
O 12.0255 11.436 9.91864 0.124151 -0.371511 -0.838094
O 3.72969 3.72331 4.11918 0.972969 0.516695 1.479516
O 2.18077 8.60149 7.19214 -1.145183 -0.170494 -1.044933
O 11.8915 3.89234 1.79648 -0.865889 -1.179749 1.54989
O 7.79805 0.59336 9.94154 0.805881 -0.172592 0.307954
O 2.74042 5.91593 0.57084 0.020483 -0.836841 -1.058144
O 9.67061 1.70158 11.988 -0.706981 -0.017126 0.791867
O 10.1932 11.0299 7.82909 -0.337635 -1.548123 -1.248326
O 6.75663 3.51017 0.60623 0.081656 -1.967012 -0.093051
O 1.21716 9.07927 9.44751 -1.872147 0.947374 -0.133315
O 9.70612 4.10916 11.2198 0.65995 0.624286 -2.016432
O 4.21615 10.1084 6.59848 0.538399 -1.038322 0.144544
O 2.75509 11.9642 3.16551 0.055539 0.531537 -0.748836
O 2.23263 5.11011 10.142 2.198029 -1.121148 2.396598
O 4.72597 2.65317 6.24867 -1.257383 -0.081981 -0.000186
O 10.849 5.36575 8.80575 -0.134829 0.999466 -0.420852
O 9.3873 1.27155 2.35232 2.609778 -1.802978 -1.169953
O 10.1453 6.03283 6.51845 1.716687 1.165746 -1.359699
O 10.525 7.07471 2.70547 0.890599 0.036661 0.520104
O 8.34012 10.2584 9.41351 -0.604421 -0.273378 1.126066
O 7.41369 7.03441 7.35173 -1.493175 0.120983 0.901824
O 1.557 10.3242 1.32572 -0.194666 -1.156827 -0.507644
O 0.1274 6.79746 10.3374 0.762016 -0.468865 -0.964588
O 4.91368 8.36342 10.2679 -1.17733 1.472856 0.083173
O 12.316 1.25284 1.58275 -0.920549 -1.375108 -1.150012
O 3.05309 1.41822 1.1797 0.73161 0.423534 -0.316268
O 2.97016 3.60081 7.93571 -0.332309 1.522071 1.811379
O 2.96323 5.84183 6.19706 -0.576016 1.062055 0.518963
O 5.82913 11.5474 0.72441 0.412404 -0.407552 -0.284632
O 9.15475 3.82746 5.22901 1.073788 -0.499802 0.044453
O 5.40706 2.15221 9.81081 -1.799133 0.466346 -0.024337
O 10.1437 9.98516 2.96001 1.078653 -0.326947 -0.165343
O 4.86369 10.3574 3.46397 1.426868 0.743278 0.641848
O 9.25273 4.51619 2.31771 0.846543 -1.547877 -0.206505
O 4.13257 0.29135 11.3212 0.612092 0.769875 -0.972968
O 5.34378 5.8123 3.88276 1.634793 -0.088008 3.051421
O 4.07685 3.72746 1.42709 0.497375 -0.522063 0.5091
O 4.67212 5.94369 9.96886 -1.117404 -0.652166 0.733785
O 1.06078 4.2742 4.36671 -0.098572 1.423199 0.618586
O 4.99744 7.90197 2.18096 0.475976 0.01294 0.143014
O 10.7966 6.7713 12.3609 -1.406837 0.381996 -1.424483
O 10.8307 1.96424 4.91363 0.139912 1.01563 -0.40086
O 7.21422 1.63005 3.82634 0.961532 0.252088 0.688691
O 6.43559 4.45315 10.6599 -0.222817 0.2411 0.228467
O 2.92707 10.2158 11.1853 0.467555 -0.358287 0.434934
Cl 7.60457 10.9774 4.1373 0.181481 0.004679 0.149388
Cl 0.23115 7.22293 4.99012 -0.327044 -0.001108 0.44183
190
energy=-1023.39218739 config_type=nep2xyz pbc="T T T" virial="-18.363572745704168 3.0144662726794333 -8.852959739898738 3.0144662726794333 -7.5662018145002 4.965017972909242 -8.852959739898738 4.965017972909242 -8.05355115943862" Lattice="12.4 0.0 0.0 0.0 12.4 0.0 0.0 0.0 12.4" volume=1906.6240000000003 Properties=species:S:1:pos:R:3:force:R:3
H 12.0612 3.13817 4.07354 1.589489 0.228997 -1.217284
H 10.279 1.28856 4.32593 -0.397574 -0.232286 -0.211574
H 7.16641 7.59874 0.43846 0.52699 0.384161 -0.520936
H 8.70803 11.4974 8.12289 -0.235048 0.273701 -0.55145
H 2.53756 2.79882 12.1371 0.784313 1.008217 0.604363
H 11.2354 1.16001 7.1033 0.342213 0.267873 1.154183
H 4.85024 6.22498 2.35234 -1.038473 2.485776 -1.071819
H 6.13168 10.4927 9.67239 -0.176187 -0.059616 0.273774
H 0.69247 2.43579 10.9624 0.228127 -0.149258 -0.072407
H 8.97575 11.495 4.5597 0.517222 0.932971 -0.166103
H 12.2753 8.41838 10.2095 -0.656314 -0.108665 -0.024518
H 1.38202 9.31421 4.00006 -0.112824 -0.912431 0.141776
H 9.07258 2.44331 9.98732 0.12225 0.561056 -0.052032
H 12.3745 1.24633 9.3433 0.395849 -0.753499 0.17336
H 0.18979 0.1664 5.25469 -0.037781 -0.045181 0.222966
H 2.89937 5.25667 9.33195 -0.571683 0.152003 -0.124697
H 10.1649 4.7293 12.1982 -0.434979 -0.115163 -0.308142
H 7.84472 8.41978 9.66095 -0.536596 0.225382 -0.890937
H 6.11385 1.38739 5.96865 2.018031 0.698579 -0.190044
H 2.21988 0.46815 10.0232 1.206171 -0.602306 -0.051373
H 1.1375 4.01104 10.9128 0.034924 -0.966078 0.60059
H 8.17341 10.2792 10.7888 -0.594543 -0.064239 0.086209
H 1.46384 6.03694 11.0534 0.486842 0.608716 1.405313
H 11.8959 3.06699 5.59675 -0.491043 0.017554 -0.873645
H 1.75012 9.2455 10.8816 -1.042386 -0.064885 -0.034863
H 5.15243 0.32003 6.38507 -0.128548 -0.293825 -0.00723
H 4.42209 1.30963 4.40398 -2.113983 0.379636 -0.566369
H 9.8752 11.8177 11.8586 -1.081904 0.651048 -0.342195
H 4.66311 11.1194 9.76397 0.984695 -0.106668 -0.22891
H 4.2914 6.66212 8.23285 0.871474 0.606389 -0.484375
H 6.91618 10.9579 5.82711 1.415541 0.56911 -0.977957
H 2.91682 0.82209 4.5897 0.486794 0.345058 -1.02881
H 4.08839 2.8586 8.13889 -0.457877 -0.410215 -0.735227
H 7.65324 4.4102 0.64234 0.272177 -0.287525 -0.371299
H 12.1784 3.66774 0.10037 -1.448182 1.08967 1.810752
H 0.58205 4.14935 6.92803 0.600157 1.190331 -0.471264
H 2.02019 8.4092 6.96311 0.148265 -0.506933 -0.342559
H 8.88399 9.114 7.87574 0.066673 0.675339 -0.656394
H 6.59271 3.31105 0.26212 -0.28263 -0.095908 -0.065681
H 11.2655 7.22729 9.62333 0.311369 -0.220918 -0.066179
H 3.60391 2.45542 3.22217 -0.805653 0.24767 0.047314
H 3.63953 2.35645 6.69315 0.48418 -0.209261 0.070432
H 9.58896 4.41447 2.54988 -0.12222 0.008785 -0.524874
H 6.73261 11.1529 7.37415 0.133922 0.208183 -0.005762
H 6.49203 11.746 0.84761 -0.527399 -0.462196 1.581068
H 4.6974 11.3554 11.8793 0.955643 -0.106532 0.244421
H 0.08635 0.25061 10.5986 0.171027 0.478674 -0.227501
H 6.22348 5.14623 3.95673 -0.624687 0.175776 0.426993
H 7.51724 4.72075 6.72225 0.185368 -1.973572 0.984141
H 8.2301 1.40001 5.02537 0.458267 0.275651 -0.633939
H 6.33663 6.65346 5.84117 -1.535571 1.687015 0.577904
H 10.2226 9.72623 7.2491 0.740455 0.068974 -0.207618
H 8.68515 6.18245 9.20518 -0.405343 1.423211 0.035828
H 10.9285 7.94812 11.3088 -0.1402 -0.380423 -0.270513
H 9.12995 4.94899 10.9746 0.266985 0.053189 -0.348036
H 0.85265 5.89613 9.65417 -0.328644 -0.433799 -0.157915
H 0.97244 9.79216 0.36455 0.195042 -0.104841 0.179579
H 2.50038 9.8116 7.50226 1.056181 1.584069 -0.222371
H 12.0498 6.16068 7.81315 0.473124 0.229277 -1.031074
H 1.85967 4.31647 3.04679 0.288749 -0.352358 0.027124
H 12.0786 2.419 7.58628 -0.598035 -0.66496 1.083044
H 10.6108 3.02262 1.27523 -0.806458 -1.67928 0.653119
H 3.04107 4.93319 7.74057 0.43683 0.469594 1.281871
H 7.89967 3.13335 6.72942 0.020376 0.124501 -0.197889
H 0.91359 7.96394 4.77862 -0.050616 0.544055 -0.433418
H 4.37434 3.95146 2.79584 1.633541 0.977891 0.732962
H 9.32644 0.29585 10.7258 -0.217564 0.706257 -0.484384
H 7.69025 6.37261 5.2644 1.105699 0.571902 -0.479904
H 12.1193 9.91998 2.5557 -0.942241 0.399506 -0.834263
H 10.6009 9.68425 2.19366 0.473323 0.425533 -0.443703
H 10.2549 1.85431 8.95756 -0.663958 0.28136 0.322171
H 6.23415 5.75242 12.1613 0.064265 -0.934359 0.124672
H 9.4724 1.94088 0.79228 0.550666 0.305387 0.936786
H 10.0729 3.90845 3.93216 -0.999214 1.313132 -0.295342
H 1.72255 8.95127 9.34707 -1.249486 0.378495 0.27072
H 9.45715 8.101 0.16418 0.216689 -0.17639 0.097959
H 8.63208 0.55496 8.5941 0.085116 0.883805 0.769116
H 8.97854 9.63872 3.4508 -0.002992 -0.405496 -0.103829
H 4.87477 4.25792 8.88944 0.910347 -0.171452 0.260197
H 8.64054 4.92925 8.35614 0.702802 -0.485083 0.751079
H 11.9995 4.67278 1.4041 -0.305746 -0.338507 -0.122921
H 2.63274 11.2377 4.52427 0.224354 0.619962 0.40138
H 12.39542 9.62648 5.82022 0.068082 -0.321455 -0.631056
H 9.49777 1.37489 2.99293 0.145267 0.272016 -0.41427
H 7.90761 8.46814 1.48453 0.500606 0.706854 1.003965
H 6.33341 3.67363 8.52539 0.095004 0.163844 -0.367892
H 9.46836 8.20241 3.24626 0.019035 -0.866918 0.766796
H 7.07151 10.7416 3.22577 -0.160288 0.316576 -0.420816
H 4.26422 11.0109 7.76445 -2.050956 0.290111 -0.601591
H 5.58158 10.889 2.82052 0.868613 0.177867 -0.479948
H 4.31466 8.14467 9.68711 0.233637 0.050569 -1.686774
H 2.53514 9.78405 0.36337 1.238091 0.890701 0.532193
H 11.8988 11.5937 6.23975 0.132711 -0.58517 0.090162
H 0.46444 6.64017 1.42869 -0.484077 0.375271 0.241729
H 8.11488 1.10743 6.52504 -0.217436 -0.098286 0.115455
H 10.8208 7.52963 0.79545 0.993939 -0.808033 1.221649
H 2.66487 6.54679 0.80351 1.097728 -0.389542 0.599956
H 5.80171 9.33539 5.6492 -0.202278 -0.18982 0.39121
H 4.48724 9.84021 11.3118 -0.191948 0.177338 0.028799
H 6.10404 1.23161 11.8662 -0.203646 0.481306 0.016389
H 3.5206 3.34682 1.54614 -0.164181 -0.44714 0.584089
H 10.0813 7.11573 5.29758 -1.663738 -0.764024 -2.320418
H 3.23408 11.8535 10.8029 -0.241385 0.651477 -1.499425
H 12.093 7.19611 2.7186 0.133779 -0.078359 -0.483471
H 5.75929 2.41051 10.7906 0.029528 0.030687 -0.278359
H 9.49772 6.05494 4.0805 0.433353 0.601494 0.722517
H 11.4603 11.5245 0.98952 0.099114 0.926592 -0.345947
H 4.86819 7.46105 10.9312 -0.399535 1.117023 -0.111791
H 4.12114 2.60023 12.1493 0.543152 0.107831 0.160148
H 6.38169 4.688 2.53802 0.725299 -0.8166 -1.677932
H 11.2033 0.66962 0.99779 -0.560985 1.228603 0.891082
H 8.84597 10.4046 5.78294 -0.509076 0.349708 -2.127816
H 5.28517 6.79181 0.36628 -0.941022 0.285156 1.269768
H 4.75602 7.92435 7.2992 0.088583 -0.489718 0.224774
H 10.8805 5.63905 8.71614 -0.229804 -0.159179 0.124324
H 4.19009 7.77671 2.33695 -0.348501 0.945489 0.855345
H 1.82025 7.59532 0.19045 -0.181606 1.243085 -0.073087
H 7.65699 12.1023 12.3519 -1.653158 0.44158 -0.815841
H 1.77718 3.18637 7.54436 -0.338857 0.074427 -0.479551
H 0.1678 9.67075 7.34717 0.352704 0.181294 -0.187723
H 3.19784 11.9993 8.2782 -0.430785 -1.430416 -0.77929
H 7.33141 9.13048 11.4355 0.032545 0.146607 0.773651
H 2.85194 11.6587 6.05948 0.164986 0.077315 0.389493
H 4.83563 8.69721 4.66359 -1.653783 0.516677 -2.087941
H 0.46141 4.90208 3.24443 -0.024179 0.313738 0.310196
H 7.04941 7.85424 8.34169 0.715012 0.127274 0.961387
O 0.79301 3.36411 7.42013 0.009123 -0.938804 0.539074
O 6.34461 10.8087 6.55795 -1.700796 -0.464487 0.740254
O 5.18997 1.19787 5.98462 -1.875993 -0.467554 -4.7e-05
O 1.041 3.1775 11.5041 -0.981194 0.998781 -0.391929
O 6.64004 12.1939 0.0272 1.722799 0.160148 -0.916029
O 8.19836 12.3324 8.00552 0.158113 -1.041805 -0.546985
O 5.35723 8.5013 5.40208 1.59156 -0.499854 2.060246
O 7.88442 8.29367 0.54654 -1.01604 -1.089172 -0.873375
O 3.31886 2.75091 7.51432 0.043438 0.28795 0.580081
O 11.4041 3.0716 4.74258 -0.968533 -0.404038 1.822786
O 8.54768 10.6703 4.78872 0.107404 -1.18779 2.193874
O 9.18502 8.96905 2.74156 -0.084433 1.328018 -0.161442
O 11.4765 12.37 0.42788 0.391877 -2.317154 -0.820661
O 5.70268 4.89149 3.16443 -0.281729 0.889056 1.206254
O 9.40899 6.97701 4.52293 1.350742 -0.092582 1.654797
O 9.27512 9.87958 7.33038 -0.838874 -0.731752 0.60784
O 6.88853 5.95377 5.56745 0.678728 -2.206251 -0.275412
O 10.4444 7.97548 0.04928 -1.422577 0.923808 -0.915907
O 9.46716 0.9704 3.87548 0.149674 -0.354192 0.971555
O 2.5562 11.9824 5.17595 -0.831422 -0.802835 -0.804219
O 11.4405 4.12363 0.81505 2.399966 -0.873271 -2.177559
O 9.01128 12.0639 11.3887 1.786456 -1.367858 0.985919
O 5.00778 7.36521 8.06466 -0.603582 0.042343 -0.097221
O 9.47172 1.67188 9.58763 0.467962 -0.749702 -0.121922
O 5.44996 10.9901 9.18952 -0.673632 0.216911 -0.466801
O 11.4285 10.1773 1.88401 0.663026 -0.93221 1.276928
O 12.0174 10.022 6.62357 -0.678485 -0.194653 0.827872
O 11.7596 6.0863 8.72138 -0.453045 -0.456532 0.223392
O 9.1611 5.36261 9.10449 -0.01929 -0.984555 -0.78302
O 3.59609 3.43799 2.62949 -1.378537 -0.797813 -1.652766
O 11.3664 1.73145 7.93234 0.644653 0.037881 -1.82413
O 7.77941 3.90772 7.32713 -0.637933 2.388891 -0.958136
O 11.3087 7.97515 10.259 0.89724 1.445689 0.246306
O 10.0387 2.14531 1.57998 0.228 1.207488 -1.713314
O 11.7713 0.02729 5.75388 -0.252315 1.078761 -0.311229
O 4.44062 7.04372 1.78479 1.216741 -3.81768 0.330528
O 3.26491 11.2712 7.54137 3.044846 1.03345 1.790601
O 7.94037 7.95467 8.77851 -0.216356 -0.528332 -0.5697
O 4.06914 10.7063 11.5625 -0.527366 -0.580068 0.601116
O 3.48665 5.30704 8.55157 0.133457 -0.432331 -1.135087
O 7.43027 9.65026 10.6272 0.6728 0.402979 -0.34346
O 0.58885 0.88846 10.0493 -1.017513 0.336197 0.021735
O 6.50351 11.1112 2.51835 -0.96618 -0.648787 1.076321
O 1.11563 9.18942 10.1157 1.680317 -0.47209 -0.709816
O 5.94035 6.66055 12.083 0.922151 0.43485 -1.173982
O 3.15492 0.08119 10.0104 -1.358538 0.401191 0.73767
O 11.9621 6.73204 1.86593 0.563161 -0.133119 0.440303
O 5.56431 3.56919 9.10975 -0.995546 0.072022 0.162425
O 1.91502 9.08072 7.63672 -1.185633 -1.656073 0.671305
O 3.48151 1.47312 3.97112 2.409084 -0.717208 1.319468
O 9.26373 4.55016 11.8429 -0.194436 -0.11623 0.608341
O 1.76817 9.27704 0.1531 -1.289547 -0.513578 -0.232832
O 1.8208 6.65255 0.37395 -0.932314 -0.874245 -0.28904
O 3.40515 3.15287 0.12414 -0.888679 -0.62562 -0.177828
O 4.3498 8.2652 10.6228 0.37405 -0.883766 1.880785
O 0.92033 4.09937 2.97741 -0.38695 0.090305 -0.124435
O 9.46466 4.6008 3.48072 1.015025 -1.280794 0.97981
O 1.49199 5.49488 10.2717 -0.086857 -0.557951 -0.824132
O 7.79426 1.72948 5.83386 0.022976 -0.459188 0.752985
O 6.75762 4.09408 0.83715 0.254391 0.674964 0.175738
O 5.77068 2.17131 11.7299 0.190359 -0.489667 0.071701
O 0.59799 8.79797 4.32418 0.039308 0.170552 0.217121
Cl 3.26874 9.58974 2.9995 0.198465 0.378755 0.335138
Cl 1.08617 6.19212 5.86356 -0.221045 -0.002565 0.276374
190
energy=-1022.9725766 config_type=nep2xyz pbc="T T T" virial="-12.666703690716254 0.31642661299325003 2.0745280994085857 0.31642661299325003 -12.327642876221946 7.635187338212944 2.0745280994085857 7.635187338212944 -16.775775180257106" Lattice="12.4 0.0 0.0 0.0 12.4 0.0 0.0 0.0 12.4" volume=1906.6240000000003 Properties=species:S:1:pos:R:3:force:R:3
H 1.00635 0.21366 9.55237 -0.113366 1.089623 -0.127357
H 2.87252 5.10045 5.8689 0.147964 0.697683 0.2654
H 3.27398 9.42568 6.20169 -0.140577 -0.269248 -0.801324
H 5.68054 4.4954 7.0816 0.769329 -0.64827 -0.771003
H 11.9456 6.71197 2.75137 0.337696 -0.06251 0.45728
H 2.67419 8.09698 4.95338 0.891091 -0.374118 0.644457
H 7.56953 0.43598 11.7371 -0.191203 -0.346058 -0.557977
H 12.3808 11.068 11.4747 -0.294733 -1.134139 0.246912
H 11.765 5.44484 3.74289 0.008543 0.643783 -0.63585
H 10.5252 0.11951 7.74462 0.115092 -0.028776 -0.496101
H 2.50518 3.65321 9.08426 -0.324905 0.283004 -0.044565
H 1.10958 8.96353 0.33746 -0.436773 0.238339 -0.039138
H 0.66052 0.76902 1.40959 -0.159223 0.564987 -0.403654
H 1.76575 12.113 3.5399 -0.180511 0.063835 0.317167
H 8.36405 8.6335 4.00361 -1.099153 0.208097 -0.00878
H 9.67789 2.403 9.238 0.344448 0.122941 -0.194514
H 10.2528 2.53518 4.23203 -0.86498 0.841818 -0.133921
H 10.9944 7.25849 6.49984 0.389366 0.407083 -0.741443
H 8.36934 4.3309 4.08544 -0.296331 -0.204246 1.495043
H 4.76617 11.0083 1.48528 -0.432401 0.041428 0.652685
H 0.32071 4.25823 9.17154 2.818038 0.034674 -1.44563
H 2.56462 5.61519 7.84324 -0.804739 -1.348792 -0.199871
H 11.7891 3.17844 1.19186 1.518927 -1.740253 -0.203401
H 7.82864 3.70454 7.49334 -1.013903 0.408894 -0.665311
H 3.81052 11.8889 0.40177 -0.308149 -0.419058 0.143418
H 7.25874 5.28314 3.87813 -0.100553 -0.287547 1.733008
H 9.37971 12.2988 2.574 0.135157 -0.024052 0.445725
H 8.2537 9.99145 9.84636 -0.902243 0.285714 0.630699
H 12.332 1.35874 9.44656 0.418133 -0.0499 0.285781
H 1.41035 8.0781 1.6393 -0.086473 0.446837 0.463812
H 7.01809 9.60729 5.0248 0.219146 -0.748799 1.082065
H 9.6944 11.0953 1.72249 -0.162553 -1.055079 -1.262511
H 4.10363 10.0713 0.28265 0.155674 0.252738 -0.593037
H 9.51494 3.70072 0.34651 2.45363 -0.316859 1.334877
H 1.90124 5.32774 11.9814 -0.736184 0.87991 -0.718904
H 2.62895 2.04248 10.6696 0.070469 -0.05201 -0.537532
H 0.93209 8.38204 9.45098 0.789678 -0.970671 0.988205
H 10.1534 0.45494 9.18943 -0.233783 -0.001873 0.255074
H 10.5356 10.7692 3.76051 -0.244001 0.289577 -0.203543
H 1.73313 3.22756 7.8688 0.047305 0.297525 -0.44619
H 11.2518 11.5289 6.04364 0.233864 0.967075 0.291059
H 3.17079 8.47005 12.3458 -0.750364 -0.422752 0.091913
H 3.82108 9.56061 10.4881 -0.096664 0.325011 -1.076592
H 6.92738 10.6989 6.00534 0.35693 -0.139289 0.453857
H 10.785 1.32918 11.2256 0.096356 -0.488093 0.074889
H 0.49309 10.7485 2.07015 -0.263218 1.073106 0.12348
H 2.49875 0.19122 4.87618 -0.309045 1.062862 0.267601
H 2.82887 10.3701 9.34536 0.338753 -0.410141 -0.658102
H 6.2895 2.25239 6.91602 0.277273 -1.262369 -0.306026
H 6.78446 4.25522 5.84702 -0.892113 -0.21336 0.399755
H 4.96589 6.0188 10.5236 0.168539 0.100975 -0.349427
H 5.95788 6.49799 11.6597 1.07999 -0.489031 0.135153
H 3.73242 12.0841 8.80005 -0.047807 0.833972 -0.362737
H 5.24443 2.93007 10.2616 1.725766 -0.185695 0.019596
H 0.05368 1.31141 0.09682 0.325268 0.163329 0.741214
H 11.4502 4.58489 1.70745 -0.402897 -0.231613 -0.51464
H 8.04387 5.22677 12.1697 0.648015 -0.440047 0.040865
H 1.58781 7.29495 10.5616 -0.381115 0.301021 -1.079843
H 0.79784 6.4378 12.1299 -0.064113 0.273001 0.517616
H 10.2344 3.25709 2.81306 0.236165 0.139283 -0.572395
H 12.31002 4.75423 10.6205 0.629921 0.087159 -0.342958
H 4.23003 5.26981 12.31981 0.382344 0.786693 -0.485841
H 11.0252 3.15174 9.54275 0.663925 1.062488 0.353942
H 5.44706 1.15153 7.5814 1.290953 -0.571603 -1.072605
H 2.31907 6.95998 8.46697 0.431325 0.45307 -0.184939
H 0.05991 0.09944 6.48266 -1.324298 -0.049357 0.203847
H 7.17825 11.0359 10.3579 0.938113 -1.705383 0.391059
H 4.50231 7.95261 11.6365 -0.199771 -0.252983 0.169976
H 7.86692 0.93425 1.73642 -0.239421 -0.068334 0.329686
H 8.53084 1.80348 2.83794 0.010747 -0.3554 0.514716
H 11.6724 9.84493 4.30042 -0.668124 0.316302 0.222635
H 3.11134 7.37514 6.29378 -0.084756 -0.242695 0.368879
H 6.20831 0.60724 5.32276 -0.176728 -0.527249 -0.402555
H 9.21413 3.3833 11.1875 -0.094952 0.835028 2.144898
H 6.36284 3.76216 9.56556 -0.018298 -1.339881 0.901159
H 9.26055 9.20884 0.38055 0.679022 1.570353 -0.531388
H 9.11877 5.86443 5.88554 -0.26926 -0.932998 0.044791
H 5.39613 9.3263 7.15358 -0.624623 -0.255652 0.970752
H 2.77348 10.7938 5.45015 -0.299756 -0.028203 -1.25612
H 3.13429 0.78765 7.71184 0.66763 -0.471475 1.341792
H 9.00255 8.02389 2.4123 0.296416 -0.619756 -1.604408
H 9.85273 9.0067 4.34288 -0.810356 -1.19465 -0.111263
H 11.4018 3.36303 5.7443 -0.773593 -1.253168 0.141272
H 2.86569 3.69221 5.38013 -0.227609 -0.734529 0.022097
H 2.32245 1.29359 0.51981 -1.732271 0.385773 0.099445
H 4.7412 1.30415 3.68219 0.057111 -0.249926 -0.682013
H 4.40021 9.67732 8.8672 0.363029 -0.69742 -0.448776
H 3.94506 10.9907 3.38428 -0.308744 0.078231 -0.046892
H 8.53783 9.80972 7.55257 -1.255381 -0.506967 -1.654116
H 5.40036 11.4894 3.56997 -0.390924 -0.388587 -0.489868
H 4.17008 5.84192 8.50854 1.287184 1.101697 -0.001094
H 8.01681 6.74005 0.39503 0.644585 -0.273437 0.075189
H 8.90456 7.31206 5.65772 0.295816 -0.594597 1.169069
H 9.95273 7.22215 1.54173 0.651249 -0.589878 -0.146284
H 12.1766 5.72771 5.81261 -0.301997 1.386594 0.869678
H 0.7755 10.5407 8.4205 -0.361338 -0.609217 -0.205813
H 3.44122 4.32855 1.82997 0.33804 -0.089058 0.124825
H 5.82557 9.3583 3.1293 -1.23577 0.703055 -0.374946
H 11.6849 11.8232 2.01168 1.339539 -0.419849 0.628271
H 7.64345 0.41484 8.79464 -0.021838 0.353 -0.048853
H 3.12312 4.57543 3.33398 -0.033692 0.142781 0.581496
H 5.77935 6.39153 8.7207 -0.819968 -0.250774 -0.230986
H 10.9766 9.43516 8.58578 1.477599 -0.346353 -0.493828
H 0.76296 4.86881 5.06538 -0.175078 -0.459189 0.23133
H 4.23541 2.59391 3.02083 -0.16857 0.857513 -0.351232
H 7.86887 7.03467 7.83469 0.491297 -0.148022 -0.38957
H 3.51257 4.00903 11.8307 0.025219 -0.519535 -0.248415
H 12.1257 8.62929 7.76562 -0.534955 0.416728 0.14062
H 6.88813 1.402 9.76459 -0.064759 0.106395 -0.34571
H 6.0841 8.45984 8.12229 0.202419 -0.510844 0.869104
H 11.4326 9.87396 11.8491 0.227113 0.479184 -0.153817
H 6.89138 0.57331 3.87596 0.257356 0.006951 -0.418422
H 7.74662 7.84593 9.16795 0.56607 0.34592 0.579461
H 5.12036 5.95909 2.3439 -0.100245 -0.478954 0.379297
H 3.59133 1.15622 1.4288 0.209106 0.375778 0.5135
H 7.77419 1.92163 12.0389 0.261413 -0.180362 0.323877
H 6.44599 5.96211 1.53404 0.208597 0.048391 -0.017866
H 10.0649 0.24395 12.0849 1.218207 0.551176 -0.179895
H 3.63676 2.00679 9.47407 -0.114078 -1.356511 -0.489315
H 2.1217 10.8527 7.54885 -0.580752 -0.199022 -0.016092
H 9.29354 11.0213 8.24887 0.283734 -1.115052 0.083315
H 9.04259 10.3491 11.6729 -0.58212 -0.203226 -0.00292
H 11.3056 1.79341 5.77896 2.467159 -3.59935 0.34515
H 6.30075 7.80877 3.08548 -0.073423 0.924963 0.123728
H 9.00141 2.80517 7.0021 0.537819 -0.288723 -1.015615
H 12.0863 7.91906 5.40439 -0.498632 -0.733912 1.170032
O 3.26145 2.57273 10.155 0.197535 1.564482 1.269304
O 7.23699 9.76886 5.99317 -0.967128 0.939646 -1.435155
O 7.71371 4.83039 4.67025 0.493982 0.295981 -3.370777
O 11.6621 5.78825 2.79898 -0.290374 -0.383912 0.246154
O 10.9741 0.5449 11.8022 -1.462125 -0.064792 -0.17932
O 9.04011 6.6472 6.4314 0.054133 1.869152 -0.99081
O 6.50203 8.74548 3.37622 1.606292 -1.607933 0.403275
O 9.60445 10.1115 0.0312 0.035622 -1.501801 1.080227
O 3.96736 8.76392 11.8588 0.288643 0.578752 -0.351254
O 8.55958 3.17059 7.75391 1.017348 -0.328863 1.953384
O 6.19795 0.15085 4.41962 -0.186642 0.36926 1.336209
O 5.23544 8.94019 8.0633 0.64387 0.666806 -2.532862
O 12.3585 10.0809 11.5821 0.016459 0.719502 0.244089
O 7.26929 7.3033 8.55218 -0.731164 -0.244402 -0.406368
O 5.09019 5.7025 8.90091 0.066329 -0.829735 0.189549
O 9.7821 0.06677 8.38726 -0.293424 -0.08972 0.307423
O 5.02599 6.37793 11.4447 -0.432106 0.772032 0.1304
O 3.19081 0.9151 0.57279 2.024552 -1.295727 -0.518798
O 2.63686 4.58391 5.10028 -0.360214 0.080923 -0.14212
O 10.8048 2.54208 5.80865 -1.572031 4.859926 -0.311551
O 3.4225 4.74925 0.03665 -1.059006 -0.991511 0.763327
O 7.6113 10.1375 10.6162 0.086319 1.661317 -1.629157
O 1.66152 8.26412 0.72169 0.530635 -0.402342 -1.120407
O 0.62637 1.60106 0.85729 -0.142944 -0.480972 -0.328484
O 0.807 1.14738 9.82842 -0.14762 -1.033922 -0.157635
O 8.04769 0.94062 2.71634 0.516535 0.496155 -0.971523
O 1.60708 11.0391 8.39949 1.153713 0.351204 0.635034
O 1.13884 5.80387 11.4974 0.90262 -0.811969 0.573977
O 3.76881 0.61744 8.50909 -0.11901 -0.026034 -1.170612
O 11.4565 12.3959 6.50163 1.601098 -1.110412 -1.017718
O 12.0329 4.38911 9.76588 -3.347876 0.076014 1.46746
O 6.26546 1.23399 6.97768 -1.736308 1.143233 0.96338
O 1.97761 4.05693 8.34074 0.275642 -0.478816 0.340769
O 10.7781 10.2206 4.54358 1.212739 -0.687987 0.230483
O 9.19453 8.18536 4.16123 1.437764 1.095106 0.100384
O 7.94365 1.02425 12.39199 0.09223 0.510044 0.366806
O 9.19258 9.98576 8.19423 1.150644 1.324922 1.921553
O 11.944 7.45232 6.28501 -0.096 0.284628 -0.296105
O 0.28932 11.7134 2.17868 -0.817421 -0.763698 -0.30975
O 10.5253 2.33908 9.72876 -1.396014 -0.980122 0.146371
O 11.974 9.27328 8.50118 -0.946056 -0.177597 -0.077492
O 2.41119 11.8906 4.2309 0.392489 -0.928805 -0.848048
O 4.82776 10.8578 2.99578 0.813846 0.549858 0.666021
O 6.25467 2.94063 10.136 -1.959249 1.615207 -0.713373
O 2.9344 10.3432 6.26966 0.324058 0.422361 2.388016
O 4.34976 11.0053 0.56156 0.303385 0.904843 -0.235559
O 9.15806 7.73633 1.42585 -0.807085 1.03767 1.729809
O 4.43184 1.66878 2.82758 0.121341 -0.633659 0.652494
O 1.72817 7.82495 9.72967 -0.583665 0.602037 -0.247477
O 10.0558 11.5676 2.46583 -0.250882 1.127108 0.345642
O 9.65771 2.9481 3.52267 0.034038 -0.39055 0.301456
O 7.52359 6.02373 12.3645 -1.383926 0.877048 0.112039
O 6.06358 6.16195 2.41333 0.291521 0.263056 -0.083854
O 3.81873 4.28003 2.73743 -0.151172 0.211506 -0.886185
O 3.44515 7.93239 5.57214 -0.677246 0.37742 -1.141843
O 12.2014 4.93924 5.28092 0.694845 -1.264546 -1.046024
O 3.79345 10.088 9.57009 -1.417712 0.702557 2.655057
O 11.1161 3.82533 1.14007 -1.02062 1.777841 0.902979
O 6.1735 3.82258 6.5371 -0.158554 1.356177 0.380134
O 8.8782 3.75827 12.0742 -2.216901 -0.515622 -3.783118
O 7.28143 0.50972 9.68524 0.014959 -0.663595 0.520589
O 2.86974 6.51903 7.73758 -0.249899 0.421304 0.635119
Cl 1.84666 1.6651 6.48407 0.013921 -0.210128 -0.432769
Cl 0.97873 8.53189 3.56418 -0.445244 0.05748 0.345477
190
energy=-1023.07517849 config_type=nep2xyz pbc="T T T" virial="-16.433382306656437 7.275158351770757 -9.437402907154267 7.275158351770757 -10.00307944151433 0.89501487639046 -9.437402907154267 0.89501487639046 -20.648948785278773" Lattice="12.4 0.0 0.0 0.0 12.4 0.0 0.0 0.0 12.4" volume=1906.6240000000003 Properties=species:S:1:pos:R:3:force:R:3
H 0.93889 9.15625 9.98353 0.128922 -0.328369 0.225215
H 2.97344 5.16305 5.8842 -0.366785 -0.241437 -0.388098
H 3.89941 8.35792 4.77578 1.184359 0.283408 -0.788326
H 6.0389 3.68964 7.83505 0.791553 -0.081851 -0.06044
H 12.0686 6.47471 0.87256 -0.307472 0.392229 0.610199
H 3.76032 7.00252 6.73714 0.031674 -0.805541 -0.110223
H 7.158 2.75529 0.00344 1.340772 -1.243164 1.462618
H 0.42929 10.2751 12.0154 -1.029706 0.063325 -0.198816
H 12.25 7.13803 2.28894 -0.757114 -0.311241 0.010911
H 12.0159 0.26418 8.08015 -0.964982 -0.402572 0.627248
H 2.36443 2.65708 8.75937 -0.287617 0.071511 -0.653876
H 1.18726 9.09585 0.97084 -1.883841 1.74218 -1.537229
H 11.9367 1.4442 1.38838 0.183068 -0.352534 -0.164111
H 1.61013 12.2244 2.9583 -0.271333 0.114688 -0.004095
H 6.86404 8.80544 3.69225 1.214404 -0.195704 -0.034069
H 9.6101 3.78734 8.8809 0.331942 -0.119195 0.037732
H 9.55976 3.00333 4.3149 -1.21931 0.010715 -1.068456
H 10.6164 7.0968 5.9125 -1.16858 -0.453999 0.488378
H 7.77113 4.43364 4.43182 -1.237557 1.618241 0.710427
H 5.07457 11.8082 0.98274 -0.229177 -0.056711 -0.079772
H 0.88676 4.71972 8.52255 -0.023431 0.018628 0.045006
H 3.24049 4.55794 9.40941 0.517366 0.375013 0.601226
H 10.7875 3.37717 1.20014 0.476134 -0.206749 -0.119423
H 8.11217 3.84363 7.39249 -2.946101 -0.633232 -0.161324
H 4.61341 0.34609 12.0624 0.096351 0.115588 0.072807
H 6.57932 5.52271 4.25367 0.283133 -0.243091 -0.266415
H 8.81039 11.8731 2.98942 0.144896 -0.260894 0.276384
H 9.08672 10.7264 10.0102 0.304366 0.724488 0.568417
H 0.35852 10.5139 9.84065 -1.030298 1.431123 -0.832996
H 1.67681 8.43036 2.03429 0.731239 -0.733307 1.13907
H 7.72423 10.5708 6.06627 -0.265077 0.425533 -0.08228
H 9.46192 10.7833 2.05152 -0.040511 -0.3757 1.180515
H 4.47654 10.9847 12.0211 1.12216 0.911938 1.085495
H 9.08597 4.88358 0.008 -0.057619 -0.160859 -1.442707
H 1.19611 5.57894 12.0419 -0.140873 0.168218 0.313313
H 1.10133 0.99341 9.36593 0.912335 -0.064936 0.689816
H 1.19079 6.8888 9.21317 1.252213 0.022234 1.518816
H 11.0645 0.40172 9.46567 1.031945 -0.38033 -0.673175
H 10.7402 11.1221 3.97745 0.359649 -0.686099 0.526452
H 2.46615 3.3085 7.24726 -0.390864 0.020798 1.792194
H 11.8914 0.16678 5.46629 0.926324 -0.09398 0.161879
H 3.38157 9.23645 0.28545 -0.222102 0.832214 0.346545
H 3.69877 9.487 10.2249 -0.581763 -0.115711 1.133292
H 7.18673 11.6001 7.16234 -0.457834 0.521987 -0.314333
H 9.74803 2.03566 10.5762 1.292009 -0.70309 0.251345
H 12.3218 11.5454 1.59651 0.016305 0.635418 0.281993
H 2.83168 12.3303 3.95598 -0.381147 0.359305 0.141661
H 3.13827 9.58713 8.55071 0.702569 0.081229 0.386216
H 6.26651 1.38768 7.38079 0.318516 -0.060166 0.34222
H 6.45791 3.23944 6.41346 0.089629 0.240582 0.125766
H 4.41704 6.51094 11.1078 -0.317572 -0.1559 -0.346153
H 5.63076 7.1922 11.7294 -0.145124 -0.104964 -0.304362
H 3.25043 11.2452 7.61518 -0.425408 -0.241469 -0.192662
H 5.25972 2.92537 11.2166 -0.103431 -0.227692 -0.037197
H 11.2832 1.55212 12.3363 0.435151 0.460079 0.504721
H 10.8889 4.89195 1.68404 -0.386161 -0.48435 0.205063
H 7.21574 5.74405 12.1677 0.706932 -1.523522 -1.092521
H 1.64692 7.01952 10.7243 -0.902868 0.047568 0.366763
H 1.4432 7.06243 0.2266 0.175922 0.372988 0.577605
H 9.15047 3.50187 2.81102 -0.318863 -0.388302 1.182459
H 12.3196 5.7638 7.92804 -0.322132 -0.089876 -0.215466
H 2.26245 3.61015 11.6725 -0.376429 -0.170157 -0.052459
H 10.8624 4.18211 9.81263 -0.396833 -0.322615 -0.19217
H 5.15503 0.28558 7.66906 1.395906 -0.308172 -0.21305
H 2.8291 5.82917 10.1617 1.034922 -0.307645 -0.50626
H 0.81026 1.02246 5.98312 0.162234 -0.362703 -0.712543
H 7.86112 11.6779 10.4701 1.108282 -0.036794 0.558796
H 4.44374 8.78546 11.7182 0.222877 0.782973 0.428008
H 7.42595 1.02764 2.05368 0.39525 0.18859 1.281463
H 7.89945 1.68633 3.40596 0.495431 0.339959 -0.223802
H 12.0205 10.2402 4.57509 -0.414748 0.514966 -0.45938
H 3.0933 6.72191 8.04935 1.011381 -1.55508 -0.996185
H 6.01018 0.0465 5.30125 -0.172656 -0.793915 -0.166193
H 9.09354 4.44776 10.8277 0.612563 -0.50852 0.019914
H 6.25766 3.75289 10.3964 0.164319 0.17779 -0.178815
H 9.42905 8.99204 0.79859 0.081132 0.419071 0.047821
H 8.46895 6.54222 5.45521 -1.218015 -1.381762 -0.594304
H 6.71621 9.5124 8.03016 -0.18262 -0.042856 0.924462
H 2.41131 8.1941 4.99567 0.415425 0.158207 0.540925
H 3.385 0.17452 6.81316 -0.246249 0.359618 -0.790541
H 8.86593 7.9996 2.30905 -0.530746 0.135764 0.57698
H 8.15351 9.71807 3.69968 0.437843 0.572766 -0.527605
H 11.4001 3.50939 5.17367 0.681687 1.182662 -0.461945
H 3.1042 3.65738 5.3757 -0.747304 0.924475 -0.823708
H 2.8713 1.49242 11.1573 -0.040858 0.080795 -0.452207
H 4.50972 1.78681 2.52162 0.297598 -0.886838 0.184852
H 4.96541 9.45442 9.13193 -0.119988 -0.662181 -0.069288
H 3.78229 11.3637 2.44908 0.893732 -0.03295 1.200048
H 9.04558 10.4606 8.17019 1.973189 -0.765045 0.46543
H 5.27625 11.4124 3.25744 -0.757915 0.258493 0.161808
H 5.11419 5.40763 9.18484 0.613324 -0.22521 -0.039264
H 7.49948 6.92244 0.58188 0.873896 0.819988 0.631554
H 8.68704 8.04792 5.27799 -0.49164 0.530425 -0.784627
H 10.0696 7.32197 1.50089 -1.472748 0.349095 -0.006259
H 12.1802 5.60041 5.10342 -0.374125 0.033882 0.114935
H 1.38043 9.38463 7.60693 0.456599 0.829297 0.238397
H 2.61931 4.47833 1.91265 0.595869 0.370064 0.557164
H 4.79706 9.33434 3.00635 0.172101 -0.859926 0.327416
H 12.1225 11.8697 3.1512 0.196141 0.580313 -1.041854
H 6.32099 0.32817 9.4044 0.337529 -0.49016 0.772376
H 2.70026 4.84746 3.45914 0.993793 -0.338796 -0.623039
H 6.59704 5.82297 9.42793 0.28873 0.195922 -0.569837
H 11.7432 9.43126 7.88629 -0.451785 0.106884 0.254803
H 0.89372 4.57626 4.80412 -0.543267 -0.00978 0.00788
H 3.95021 3.10406 2.35705 -0.539933 1.536282 0.353807
H 8.38874 6.55974 8.32757 0.747575 -0.652329 -0.870341
H 0.79249 3.31505 12.29304 0.004374 -0.630531 0.095054
H 12.244 8.09039 7.4191 -0.392099 -0.607591 -0.434957
H 6.52911 0.94481 10.8123 0.013996 -0.936486 -0.423999
H 6.93903 8.31194 9.03723 -0.750271 0.567847 0.048498
H 11.3243 10.1798 0.32042 -0.711856 -0.452681 -0.281101
H 6.84152 12.2142 4.0544 -0.002888 -0.087603 0.007602
H 8.39992 6.41118 9.92197 0.658968 -0.199371 0.035651
H 4.78419 5.61523 2.64016 -0.714853 -0.573968 -0.42032
H 3.48875 2.27599 12.36568 0.007104 -0.028476 1.405077
H 8.60736 2.19133 0.58573 0.084862 0.199538 -0.378756
H 6.03475 6.06058 1.73036 -0.167434 -0.435563 0.081441
H 9.49917 0.47135 10.8152 1.321795 0.272886 0.298547
H 2.4568 0.52192 8.79914 0.356809 0.266205 0.76496
H 2.65003 9.39929 6.68404 0.845152 -0.569389 -1.307009
H 10.54 10.8282 8.72915 -0.571856 0.025559 -0.160915
H 9.27929 10.4139 12.3601 0.291655 -0.354847 0.15557
H 11.3576 2.2042 6.02237 -1.091399 0.438649 -1.315052
H 5.14807 7.73103 2.965 -0.039902 0.176319 0.338581
H 9.4786 3.62908 6.74615 0.36412 0.063908 0.162111
H 11.8458 7.63433 5.37269 1.016281 0.252947 -0.464609
O 2.0765 1.06467 9.55629 -1.269117 -0.355894 -1.347556
O 7.71403 10.8022 7.00063 0.739673 -1.274103 0.739958
O 7.20739 5.17395 4.91481 1.279143 -1.582382 -0.549818
O 11.5999 6.62673 1.74729 0.538125 0.005228 -0.714557
O 10.2212 1.21054 10.9006 -1.893917 0.053464 -0.659732
O 9.0522 7.25666 5.65762 1.348285 0.487545 1.283726
O 4.96343 8.5114 3.54721 0.276489 0.661416 -0.919757
O 9.78992 9.93535 0.65908 -0.714463 0.967915 -0.852328
O 4.13716 9.65566 12.2063 -0.354173 -2.060073 -1.016752
O 9.01151 4.00076 7.5234 3.37335 0.853651 -0.142725
O 6.26738 11.7115 4.69973 0.104149 0.831782 -0.24723
O 6.35897 9.11449 8.87669 0.947475 -0.103463 -1.038175
O 12.2757 10.3321 0.42855 2.135374 0.247409 0.660568
O 8.01749 6.83994 9.14782 -1.008394 1.201476 1.192683
O 6.05372 5.12641 9.0302 -1.236099 -0.511785 0.489293
O 11.6928 12.2148 8.91324 -0.084167 0.847093 -0.002694
O 4.86089 7.36738 11.1188 0.708787 0.597579 0.739125
O 3.63021 2.0194 11.4597 0.376363 -0.422222 -0.44895
O 2.63073 4.53643 5.18816 1.037468 -0.507595 1.38421
O 10.7735 2.84474 5.47543 -0.404478 -1.343978 1.621105
O 1.58027 3.88049 12.3086 0.318556 0.93835 0.137578
O 8.84565 11.4471 10.6738 -1.572966 -0.680768 -0.30867
O 1.85114 8.43644 1.08158 1.345911 -0.540734 0.575247
O 11.8349 2.0413 0.61487 -0.654996 0.021974 -0.642646
O 0.91406 10.0231 10.4141 1.23927 -0.93586 0.598523
O 7.6649 0.81426 3.0156 -0.673336 -0.460359 -1.211153
O 2.28699 9.8773 7.4337 -0.828977 -0.721408 1.532658
O 0.88027 6.52201 12.048 -0.083381 -1.052671 -0.464625
O 3.54478 12.1634 7.67294 0.406714 0.718628 0.687551
O 12.279 0.81474 6.11503 -0.541934 0.020939 1.088229
O 0.24862 5.42427 8.77137 0.025321 -0.067775 -0.294157
O 6.16705 0.42275 7.56942 -1.8179 0.386221 0.220344
O 2.22385 3.47597 8.21033 0.53093 -0.151882 -0.896926
O 11.5813 11.1287 4.52861 -0.716508 0.693434 -0.019443
O 7.86953 8.79551 3.64398 -1.636307 -0.404919 0.526285
O 7.66658 2.24422 0.77315 -1.456749 0.836641 -1.319375
O 9.86734 10.1017 8.70375 -1.314672 0.765729 -1.140219
O 11.5787 7.02895 6.0817 0.497462 0.017908 0.509972
O 12.305 12.3089 2.25179 0.01152 -0.834564 0.487951
O 10.0447 3.6442 9.79094 0.167848 0.486536 -0.089621
O 0.05005 8.79417 8.06064 0.406151 0.133568 -0.269228
O 2.24039 11.7141 3.49578 0.750568 -0.792897 -0.61995
O 4.77824 11.2069 2.42303 -0.40116 -0.127845 -0.875099
O 6.20908 3.01649 11.0362 -0.07616 0.036554 0.063391
O 3.26531 8.31222 5.49681 -1.810985 -0.371571 0.499534
O 5.04167 11.9151 12.36269 -1.244697 -1.193587 0.012617
O 9.10162 7.70111 1.41852 1.697251 -1.285982 -0.328706
O 4.19111 2.35567 1.82518 0.275283 -0.858158 -0.776186
O 1.96316 7.19526 9.81706 -0.734714 0.325598 -1.953826
O 9.26048 10.9895 3.03389 0.082669 0.771046 -0.994856
O 8.75596 3.133 3.67076 1.564793 0.52616 0.283959
O 6.75914 6.39487 0.28306 -1.112676 0.973009 0.431588
O 5.69086 5.92408 2.64127 0.636381 1.104854 0.532303
O 3.25754 4.72133 2.63196 -1.756567 0.052202 -0.162411
O 3.61711 6.21484 7.33211 -1.18427 2.291161 0.863184
O 12.3283 4.73917 4.67074 1.006074 0.045669 -0.106349
O 3.94054 9.5863 9.3179 -0.092778 0.489778 -1.986268
O 10.2679 4.14461 1.50576 -0.267995 0.711532 -0.051907
O 6.65036 3.07336 7.35568 -1.404295 0.035834 -0.555522
O 8.70017 5.04676 11.4924 -0.474226 0.793192 1.679457
O 6.46852 0.05781 10.3603 -0.174701 1.6992 -1.093824
O 3.59489 5.16511 10.1231 -1.661967 -0.524478 -0.424347
Cl 3.2802 1.55309 5.10537 0.275723 0.315626 0.672804
Cl 0.48102 8.59382 3.94097 0.533408 -0.435844 -0.309035
190
energy=-1024.2173866 config_type=nep2xyz pbc="T T T" virial="-10.346091126091896 2.204716408778505 2.5898072397849576 2.204716408778505 -2.8633811926282 8.208587109573108 2.5898072397849576 8.208587109573108 -10.262135136822721" Lattice="12.4 0.0 0.0 0.0 12.4 0.0 0.0 0.0 12.4" volume=1906.6240000000003 Properties=species:S:1:pos:R:3:force:R:3
H 0.33424 12.301 8.60752 0.043767 -0.02307 -0.230487
H 3.90997 3.98676 7.217 0.151581 0.091209 -1.05909
H 4.43873 8.1055 5.7099 -1.848241 -0.280044 1.511391
H 7.67511 4.88326 6.89367 0.666727 -0.35202 -1.069026
H 11.7136 4.1236 0.61678 -1.393906 -0.502299 1.517636
H 4.36396 6.12427 7.26281 -1.147936 0.278092 0.661508
H 6.03452 2.99105 1.57985 -0.203942 0.692706 -0.398341
H 0.71896 12.26789 10.6737 0.358641 1.233233 -0.815196
H 10.5652 4.97195 1.40322 -0.129787 0.13812 0.183879
H 9.7721 1.52395 8.38518 -0.006135 0.361309 -0.135265
H 0.71203 4.55938 7.57064 0.254115 -1.048999 -0.719274
H 1.08121 6.36137 1.65336 0.162925 0.220216 -0.882469
H 12.3257 12.0313 1.84982 0.435292 0.356877 -1.192371
H 1.69097 12.1612 2.84801 0.056562 0.331617 0.695824
H 7.0156 8.943 4.90154 0.869047 0.688906 1.396992
H 10.215 5.71785 10.339 1.595353 -3.13995 -0.28634
H 9.03578 1.23032 0.0776 -0.507864 0.716151 1.109915
H 10.9956 7.33232 6.01202 0.244622 -0.593581 0.958597
H 7.21857 4.94825 1.4385 -0.108448 -0.589868 -0.091929
H 4.72903 11.6214 2.57576 0.360123 -0.093173 0.19392
H 11.9204 3.78357 10.4937 -0.157908 -0.163031 1.078062
H 1.41754 5.62445 9.18281 1.226582 -0.016952 0.279526
H 12.0279 7.2124 0.36954 -0.224523 0.353729 -0.300727
H 12.0601 2.54935 5.31896 0.295623 -0.40494 0.7975
H 5.04236 0.46675 1.78863 0.220788 0.268727 -0.094042
H 6.52078 6.11871 2.16014 1.230973 -0.067342 -0.527463
H 8.79437 11.0742 2.86736 -0.773657 0.026907 -0.146244
H 8.10595 10.0128 10.4051 -0.339621 -0.157246 0.170312
H 11.8193 0.81817 9.4668 0.239762 0.280839 -0.446676
H 1.61045 7.02509 0.26824 -0.2765 0.150648 0.106255
H 8.19354 9.91882 6.47269 -0.304675 0.431433 0.059461
H 7.97794 9.95848 2.04445 0.537618 0.343797 0.626444
H 3.49828 11.0626 0.28709 -0.064228 -0.493928 1.638408
H 5.97531 4.65906 11.9773 -0.34216 0.316045 -0.12361
H 1.14501 3.17194 0.28908 -1.230691 1.30601 -0.734308
H 1.49874 2.30073 8.38051 -0.028772 -0.454056 0.328222
H 11.3255 9.12464 11.5609 -0.367818 0.855044 -0.201034
H 10.5774 2.63539 9.35431 -0.75234 -0.69613 -0.443437
H 11.246 10.9782 3.24577 0.023304 -0.050439 0.261087
H 0.01987 6.00424 7.48509 -1.230404 2.189125 -2.131055
H 0.6277 9.32654 4.93779 0.923388 -2.561345 -0.328318
H 2.50479 11.222 11.4363 -0.055609 0.25695 0.922532
H 4.07847 10.5078 10.359 0.651888 -0.491934 0.105817
H 8.09615 11.3644 7.15343 0.174461 0.0977 0.065766
H 9.1061 1.06798 10.2468 -0.35621 -0.202943 0.45911
H 0.78195 9.92535 2.17511 2.055112 -0.812874 0.035067
H 2.09419 0.63719 4.16113 -0.597709 -1.42319 -0.720585
H 3.65217 9.89442 9.02254 -0.163391 -0.321629 -0.545253
H 8.50795 1.58488 6.32651 0.361039 -1.434388 0.878165
H 8.25205 4.11253 5.52436 -0.225923 -0.428666 0.165798
H 2.0416 8.97789 0.42755 0.07637 0.547186 0.936749
H 2.94307 3.78261 10.1563 -1.785102 1.344762 -0.189953
H 4.82888 11.5625 8.96229 0.510003 0.673162 -1.220284
H 4.09087 2.17964 10.5916 0.710325 -0.37357 0.882296
H 0.86343 12.3252 0.48601 -0.766552 -0.473977 0.584608
H 10.6445 7.8261 0.86399 0.731158 -0.414876 -0.928853
H 4.90702 6.85226 12.04 0.264746 0.803822 0.426029
H 10.8248 9.83639 10.2025 0.227453 -0.104987 0.079808
H 0.93601 4.69311 0.2246 0.617379 1.686693 0.005702
H 9.75917 2.41419 0.83027 0.286678 0.409832 0.385766
H 11.8231 4.6097 9.31009 -0.16652 0.462571 -1.249749
H 1.40553 1.54715 1.62072 -0.5436 -1.084416 0.112925
H 10.3611 7.0561 11.0799 0.418611 0.66536 1.125804
H 7.73028 1.40358 7.58189 -0.919997 0.107212 0.943266
H 2.0993 6.72378 9.93971 0.279547 1.144366 0.568328
H 1.02086 10.7843 4.4765 -0.151337 -0.104355 0.107499
H 9.32453 10.1681 11.4018 0.368632 0.208429 -0.174727
H 2.98705 8.1198 11.9079 0.587288 0.595098 0.302817
H 8.88279 0.97017 2.44914 -0.104159 -0.861433 0.533532
H 9.52209 0.30975 3.77379 0.142388 -0.30339 0.240885
H 10.4321 10.423 2.07154 -0.532421 -0.297808 -0.142672
H 3.55952 5.68575 8.6879 -0.573361 0.809623 -0.024292
H 7.24003 2.27116 5.00584 -0.789309 -0.329854 -0.091535
H 6.18184 5.79868 10.9325 0.370884 0.120669 0.007167
H 4.46642 4.14462 10.4874 0.694029 1.266223 0.593443
H 6.93116 9.90764 0.16804 -0.040166 0.360988 -0.364798
H 9.08932 6.11237 5.5616 0.553693 0.716907 -0.155079
H 7.16251 9.57486 8.64809 0.211358 0.509986 -1.191005
H 2.97788 7.49941 5.64924 -1.25658 -0.655937 -1.266298
H 4.91383 0.19179 7.58575 0.299116 -0.222584 1.640781
H 10.2848 6.76892 2.92851 0.32757 0.214081 1.468289
H 8.29276 9.40347 4.27961 1.110523 0.806769 -1.146188
H 11.2756 0.6026 5.20882 0.249411 0.223553 0.521663
H 4.18196 2.64706 6.30245 -0.227676 1.155816 -0.110046
H 4.75458 0.74502 10.0057 0.193638 -0.012908 -0.202732
H 3.93456 2.54961 2.45167 1.332134 -0.436741 -0.313215
H 5.91707 9.10241 9.48539 -1.002227 0.744442 0.044348
H 3.51864 11.1803 4.30171 1.219925 0.552393 0.102557
H 9.60491 9.85645 8.04273 0.044325 0.094584 0.078158
H 4.83806 11.9517 4.87133 -0.027495 0.407902 0.249226
H 5.79572 5.12242 8.34114 0.780046 0.102088 -0.137854
H 5.26705 8.42305 0.2119 -0.116295 -0.833185 -0.548716
H 8.94855 7.67778 5.23734 0.41998 -0.355387 -0.033627
H 8.9671 6.37584 2.18265 0.276131 0.103861 -0.315174
H 11.5883 3.93427 3.26847 0.862638 -0.634647 0.145664
H 1.59944 9.80761 7.88735 -0.018104 0.203813 0.122975
H 2.52271 5.14016 3.89387 0.984809 -0.135846 -0.05561
H 5.06715 9.80939 4.55243 0.236191 -0.392265 0.109026
H 1.93015 8.86196 2.66971 -0.67497 0.719955 -0.393644
H 7.24367 1.69649 9.97991 -0.289726 0.391776 0.173495
H 3.64169 4.41788 4.69961 0.087626 -0.163919 0.414744
H 6.84142 4.01954 8.7123 0.288205 0.278685 0.258165
H 0.34355 10.8431 6.51311 -0.220664 -0.114457 0.38777
H 0.33385 4.5889 3.98194 0.663865 1.251971 0.431533
H 4.88759 2.11862 3.5088 0.61676 -0.456271 2.524244
H 7.26872 5.97855 9.34095 0.112703 0.246571 0.404109
H 1.40213 2.79951 2.47796 -0.113039 0.271227 0.294306
H 11.8011 10.3888 7.71662 0.32215 0.49145 0.096257
H 6.18465 1.77105 8.86172 -0.103544 0.034459 0.360202
H 7.26016 7.57188 9.93181 0.389349 -1.452417 0.016284
H 0.3527 11.0328 11.2758 -1.133297 -1.553698 0.582589
H 8.40538 1.63316 4.19162 -0.345049 -0.395147 -0.236591
H 8.86329 6.50817 10.4266 -1.469295 0.702775 -0.258772
H 4.27436 6.22778 3.16027 -0.367654 -0.722797 0.363687
H 4.15235 0.54428 11.5289 0.18943 0.592946 -1.144119
H 7.46047 2.93105 1.13604 -0.056466 0.272728 -0.848126
H 4.54393 7.46079 2.25949 -0.404894 0.40046 -0.937746
H 8.3982 12.1681 10.8738 -0.048684 -0.640048 0.069868
H 2.17984 2.97098 7.09357 -0.565443 -0.11413 0.418268
H 2.68334 8.76809 7.4024 0.37583 -0.111934 -0.09861
H 10.7377 8.74572 7.9485 -0.113709 0.069897 0.249722
H 5.70033 10.3959 1.05286 0.337712 0.751413 -0.117212
H 10.8579 11.6064 5.70749 -0.152499 0.148437 -0.289203
H 5.4948 8.22674 4.1828 -0.559131 -0.550765 -1.216935
H 0.13103 1.88904 6.72989 0.461241 0.602973 0.078774
H 0.08973 7.35701 5.8368 0.273926 -0.060357 0.361332
O 1.32615 2.8482 7.61295 0.972094 0.579062 -0.697447
O 8.20659 10.4154 7.34724 0.119372 -0.219654 0.286979
O 7.3913 5.85736 1.72446 -1.056815 1.157309 0.927198
O 10.9499 4.08042 1.34067 0.753489 -0.016404 -1.056389
O 8.37008 0.73909 10.8519 0.529418 0.964679 -0.177218
O 9.60689 6.93576 5.23524 -0.629181 -0.056054 0.148887
O 5.46421 8.90975 4.85288 0.006622 0.125634 0.608203
O 6.24672 9.63578 0.79829 0.246244 -0.834711 0.309293
O 3.42811 11.3097 11.7879 0.576767 0.776834 -2.306896
O 11.9867 1.78444 5.94596 -0.727031 0.297887 -1.388501
O 8.17929 2.33704 4.84011 0.59951 1.208324 0.923158
O 6.87252 9.13836 9.4475 1.09058 -1.414934 0.946685
O 0.94835 11.7489 11.4685 0.456401 -0.044674 -0.391641
O 7.48324 6.57396 10.156 -0.097628 1.650903 -0.247487
O 6.80646 4.96817 8.40561 -1.406947 -1.00099 -0.327782
O 10.1625 1.724 9.26505 0.822024 0.279135 0.245264
O 2.08143 8.48964 12.0058 -0.462097 -1.050535 -1.151153
O 4.60008 1.20327 10.8846 -1.300466 0.009516 0.473052
O 3.73962 3.55759 6.32803 -0.179698 -1.203119 0.862536
O 10.7419 12.2149 4.96281 -0.404415 -0.650309 -0.583636
O 1.96836 2.28684 1.88486 0.737665 1.412739 -0.060453
O 8.42386 10.4874 11.19 -0.438841 0.060785 0.470667
O 1.02893 6.31022 0.65864 -0.130693 -0.059618 1.151593
O 0.67555 0.16238 1.44282 -0.038353 -0.227809 0.602049
O 0.36991 0.62577 9.27558 -0.46244 -0.061371 0.295545
O 8.67928 0.41685 3.28397 0.621071 0.520553 -1.244538
O 2.41085 9.33537 8.14752 -0.284757 -0.041925 0.101895
O 0.57514 3.90047 12.2293 1.272593 -3.036358 0.054858
O 5.10915 0.09628 8.57525 -0.614777 -0.613316 -0.33888
O 0.37747 10.2121 4.95616 -0.666037 2.662476 0.25936
O 11.2288 4.13278 9.91318 0.206737 0.018841 0.289786
O 8.47376 0.97487 7.17777 0.83223 1.117153 -1.757047
O 0.37368 5.32782 8.01104 0.651723 -1.269779 3.121008
O 11.3073 10.7539 2.30077 1.033305 0.30633 0.354848
O 7.9871 9.18825 5.15723 -1.447939 -1.374935 -0.238421
O 6.64457 3.4542 0.94015 0.372238 -1.177921 0.879576
O 10.4373 9.51008 8.4779 0.157121 -0.244269 -0.515587
O 11.8577 7.33841 6.58375 -0.776117 0.443962 -1.326145
O 1.78453 9.68167 2.12606 -1.621329 0.038224 0.218011
O 9.89887 6.58958 10.3591 -0.202403 1.784341 -0.257608
O 0.16717 10.9793 7.48849 -0.138302 -0.405686 -0.188343
O 1.8672 12.1191 3.83504 0.692685 1.027485 0.002014
O 4.52419 11.1924 4.34029 -1.694538 -1.1901 -0.825728
O 3.79685 3.4771 10.3437 1.018862 -2.928844 -0.112673
O 3.61443 7.72038 6.3028 2.984217 0.912699 -0.199049
O 5.14437 11.9026 1.73697 -0.639166 -0.21465 0.041148
O 9.93452 6.61079 2.06851 -0.884078 -0.221412 -1.107998
O 4.88857 2.23421 2.58753 -2.153316 0.666569 -2.348425
O 11.0125 9.9962 11.1534 0.561464 -0.506449 -0.032372
O 8.73601 10.1102 2.66509 -0.415002 -0.288487 -0.57963
O 9.08362 1.73397 0.96666 -0.092669 -0.709818 -1.271286
O 4.60528 7.78305 12.2079 -0.090872 -0.193866 0.119415
O 4.93707 6.88218 2.89862 1.070312 0.219407 0.600324
O 3.43925 4.76896 3.81869 -0.920813 0.322306 -0.350314
O 4.20165 5.47412 7.98232 1.590878 -0.742896 -0.304306
O 12.374 3.72448 3.85363 -1.389487 -0.698213 -0.826284
O 4.46968 10.1646 9.5121 -0.732232 0.639424 0.706309
O 11.2851 7.82658 0.08143 -0.722935 -0.710691 0.758184
O 8.32454 4.863 6.12752 -0.324668 0.639167 0.833709
O 5.48726 5.29746 11.4005 -0.075305 -0.79338 0.252228
O 6.63033 2.33863 9.51854 0.442231 -0.070663 -0.839231
O 2.24557 5.80109 9.77321 -1.189267 -0.901211 -0.966422
Cl 5.3791 1.16146 5.73852 0.015244 0.234902 0.064807
Cl 1.32852 7.01824 3.84122 -0.190185 0.011239 0.12435
190
energy=-1022.82729793 config_type=nep2xyz pbc="T T T" virial="-6.898016861775191 2.3393196964643512 2.532995632021521 2.3393196964643512 -7.682264573301372 -8.35961268856887 2.532995632021521 -8.35961268856887 -11.902591136361364" Lattice="12.4 0.0 0.0 0.0 12.4 0.0 0.0 0.0 12.4" volume=1906.6240000000003 Properties=species:S:1:pos:R:3:force:R:3
H 10.2042 1.7248 8.57314 0.405172 0.670292 1.187573
H 10.3211 7.51468 7.44784 0.191274 0.025587 0.309072
H 0.99355 4.17564 6.82954 0.146636 1.80325 -0.521138
H 8.87295 1.32417 3.35043 1.287876 -1.444369 -0.415011
H 1.39903 10.822 1.37021 -0.737364 -1.220482 -0.592638
H 4.51438 8.85484 1.28842 0.356126 -0.050714 0.227888
H 9.07226 2.98358 1.74412 0.349838 0.562758 -1.140518
H 1.47479 9.84157 9.29942 1.034187 -0.605739 -0.418809
H 2.45289 11.7994 0.75922 0.470823 0.216076 -0.968272
H 6.74484 1.40129 7.88505 0.13685 -0.442471 -0.421954
H 4.90477 5.14146 7.46216 0.123105 0.048677 0.779329
H 3.89768 5.04937 3.10795 0.038862 0.315711 -1.130192
H 11.9653 2.81267 10.1505 -0.78767 -0.060933 -0.603977
H 3.89116 10.0369 3.21916 0.726194 -0.63554 0.616339
H 6.00572 4.17686 6.27127 -0.218415 -0.081303 -0.009679
H 0.27722 6.29009 8.70152 -0.460702 0.065486 -0.417017
H 9.71474 11.4493 3.36951 -0.135238 0.227178 -0.489221
H 7.78234 5.26689 8.36792 -0.864561 0.220863 1.311187
H 11.751 3.25342 3.45567 -0.115512 0.311669 0.22004
H 5.56532 0.89762 3.01339 -0.255962 -0.153982 0.361023
H 4.03423 5.9436 1.29043 -0.700701 0.913141 -0.76013
H 1.37238 8.63561 0.23105 1.214739 -0.455566 -0.027762
H 1.60602 4.17619 0.1554 -0.232669 0.353307 0.870717
H 6.28517 1.82626 11.8059 -0.27721 0.463845 -0.207569
H 7.40922 7.47236 2.01134 -0.215233 -0.449861 -0.0456
H 10.3904 3.11451 4.12538 -1.224308 -1.078294 0.989463
H 9.46927 6.57968 4.13648 0.625104 -0.111818 0.531268
H 7.93845 10.1611 10.6398 0.135968 -0.721001 0.78504
H 9.95269 1.43904 10.136 -0.049509 0.028269 0.23076
H 4.33972 4.61674 4.44891 -0.743692 -0.694179 -0.012645
H 7.41934 10.1019 8.4371 0.275362 0.963023 -0.297438
H 10.5892 5.80961 3.40544 0.09908 0.245895 0.711137
H 6.12595 7.91225 2.72729 -0.174831 -0.053211 -0.120508
H 10.479 5.49178 9.01062 -0.2616 -0.133764 0.023791
H 2.28897 5.93014 9.67328 0.452083 -0.492554 -0.350833
H 2.68787 3.92673 10.8918 0.691574 0.924844 -0.545539
H 2.861 0.55812 9.01247 0.474707 -0.178766 -0.392593
H 6.48272 2.79089 8.50636 0.459757 -0.982732 0.317538
H 11.7811 8.43821 6.11695 0.231816 -0.875715 -0.146189
H 4.59066 3.39967 6.51161 -0.365344 -0.261582 -0.109934
H 9.13181 0.13803 7.50527 -0.556184 0.196616 0.231575
H 4.7712 7.75613 7.89088 -0.766037 0.826959 0.108939
H 2.1752 10.2454 7.27551 0.390421 0.08428 0.196337
H 6.23244 10.7291 9.46062 0.792321 -0.504624 -0.735152
H 10.1656 4.7669 10.9977 0.055752 -0.127385 0.181262
H 0.81588 11.5608 5.31553 -0.355544 0.54991 -0.148217
H 3.01854 11.0909 2.84505 -1.087895 0.845527 -0.544002
H 3.3316 11.773 8.16394 0.495821 0.743921 0.095172
H 2.61636 2.59777 6.87451 0.050928 -0.022052 -0.542654
H 7.45613 1.78416 3.25187 -1.129262 -0.536268 -0.593805
H 2.73392 0.05661 11.14 -0.752995 0.495952 0.515362
H 4.09076 11.924 11.4294 -0.652501 0.738977 1.130245
H 0.65382 12.3733 9.80984 -1.173734 -0.108365 -0.638303
H 5.90731 0.84828 5.37165 1.123453 -0.48765 0.463902
H 0.13941 3.34338 8.82747 0.075602 -0.215145 -1.130234
H 1.5375 5.59811 0.92705 -0.545224 -1.715484 0.071874
H 8.18135 6.74589 0.34177 -0.422853 -0.838441 -0.599412
H 8.26329 4.89734 6.1749 -0.06123 0.410199 -0.790388
H 3.18751 5.987 10.9773 0.098225 -0.397512 -1.265221
H 10.6236 9.40374 3.42486 -1.841249 1.472026 0.748826
H 5.35371 6.28919 2.07237 0.112206 -0.31323 -0.198938
H 4.09551 1.74719 0.07549 1.072798 0.443629 0.273489
H 1.5563 6.6162 7.67534 -0.829386 -0.867188 2.040361
H 3.7713 1.7506 7.45606 0.174967 -1.256093 0.371816
H 0.72756 9.12299 11.274 0.270928 -0.138603 -0.282977
H 9.9678 11.4767 8.05604 -0.351903 0.003202 0.949077
H 8.03018 9.01384 11.8338 1.003893 1.776857 -0.742106
H 5.50392 9.03526 8.2973 -0.391874 0.563687 0.121726
H 7.65918 10.7605 0.75536 0.45705 -0.131952 -1.160629
H 8.5479 10.4062 3.01016 -0.914197 0.16287 -1.240427
H 11.8936 8.55462 4.42592 1.101779 -0.62883 0.173796
H 5.81077 9.74721 1.6866 -0.144084 -0.07136 0.007932
H 6.88446 11.6585 1.81147 0.142084 -0.820355 -0.055869
H 11.1831 5.669 7.53381 -0.719557 0.281644 1.377945
H 7.50999 0.81521 5.54222 0.853731 0.59485 -0.617697
H 11.1662 6.80941 0.82064 0.00683 -1.662691 -0.47499
H 11.594 4.6038 5.11362 -0.096295 -0.823221 -0.269064
H 8.747 10.4576 5.27001 0.055526 -1.026039 0.95812
H 0.18772 2.92005 6.55948 -1.201768 -0.603196 -0.577865
H 1.216 1.51278 10.0439 -0.413683 -1.61172 -0.341322
H 10.3126 4.54089 0.75936 0.283189 -0.275251 0.007824
H 8.38977 3.58902 6.96113 0.395779 -0.584613 -0.015118
H 2.10093 10.7823 4.92741 -0.744615 -0.335216 0.223394
H 9.8459 8.95101 6.6881 0.986543 -1.386348 0.139211
H 11.4893 0.57492 3.28645 0.035479 -0.101952 -0.37669
H 1.06629 12.3015 3.30834 -0.208516 0.424838 0.196406
H 3.52544 9.62485 7.91034 -0.219256 -0.169965 0.057162
H 0.94817 3.17884 2.42143 0.566796 0.380362 0.498282
H 9.84489 0.26803 11.9304 -0.301965 -0.046683 -0.058241
H 2.02556 3.5263 3.5332 -1.02024 -0.19956 -0.123514
H 4.38895 5.38021 9.0933 -0.727711 0.503298 -0.169093
H 9.39888 7.48005 0.89907 0.070813 0.617585 -0.386491
H 11.2843 5.97228 5.44429 -0.222053 0.50797 -0.196832
H 11.8794 4.95312 0.49077 -0.905569 -0.142648 -0.059846
H 2.86029 5.279 5.49041 -1.279913 0.865237 1.006712
H 11.4218 10.8945 9.84631 -0.488918 0.60161 0.489911
H 5.5744 8.59043 6.48148 1.303536 0.560374 -1.087544
H 3.96623 1.66594 5.1203 1.495475 -1.042045 -1.100619
H 1.182 1.41123 3.74197 -1.251335 -0.94065 0.459546
H 4.76658 12.3229 9.5225 -0.340817 0.605324 -0.738309
H 7.03015 9.07074 5.79446 -0.100107 0.282348 0.547317
H 6.08988 5.53547 8.85333 -0.190455 0.146101 -0.046259
H 11.5304 10.196 11.9303 -0.866151 0.146421 -0.032484
H 1.54425 6.12033 5.57077 0.089731 -0.314281 0.214116
H 11.1724 8.37042 2.52875 0.884305 -0.444377 -0.52789
H 7.33364 6.74531 5.64202 0.236721 0.09888 -0.440904
H 4.37309 3.19948 0.54323 0.833474 -0.836807 -0.056317
H 9.89763 10.303 11.5222 1.30703 0.13547 0.219392
H 5.9619 0.04807 10.5907 0.934234 1.185925 0.527272
H 8.49524 10.4558 6.83637 -0.094224 1.543484 1.210989
H 1.15066 8.21461 9.38051 0.205412 0.995122 -0.493281
H 5.98916 1.32748 1.61488 -0.169766 -0.149636 0.060559
H 7.75194 5.10041 9.97437 -0.282841 0.159008 0.166365
H 7.89372 4.35626 0.13122 0.122997 -0.206144 -0.248756
H 11.1683 0.13065 1.81172 -0.185184 0.182874 0.496154
H 9.41044 2.7665 0.19017 0.283765 -0.636186 -0.066509
H 6.4497 4.89244 0.12008 0.656581 -0.052268 -0.678843
H 9.75013 3.6776 9.88283 0.254014 0.046608 0.415207
H 1.5027 3.06409 10.9449 0.587346 0.274575 0.345063
H 12.0982 10.5366 8.61254 0.64018 -0.935079 -0.849631
H 8.52847 1.25064 11.7638 -0.19214 -0.786019 -0.33646
H 11.9901 8.11832 0.43241 -0.56454 0.216879 0.114635
H 0.71532 9.13543 5.37519 -0.730161 -0.675458 0.151039
H 4.04043 0.26574 4.4263 0.511822 0.010634 -0.16505
H 6.97006 1.64224 10.3711 -0.094124 0.575104 -1.129384
H 7.22272 6.48752 4.17707 -0.2034 0.054102 -0.958003
O 2.33652 3.23837 11.4646 -1.127862 -0.793292 -0.020298
O 6.78593 9.9297 9.12527 -1.358885 -0.243729 1.139981
O 10.8905 3.69447 3.58222 1.071571 0.858133 -0.869886
O 1.9238 11.5816 1.53924 0.016332 0.929001 1.717222
O 9.57713 4.58807 10.238 0.034342 -0.144615 -0.557685
O 11.7601 5.22071 5.8354 0.348193 0.266276 0.948177
O 4.5659 1.09409 4.47491 -2.218321 0.693151 1.154981
O 11.2326 7.74474 0.96822 -0.262178 1.025906 0.645133
O 4.67188 8.74856 7.81492 1.762017 -2.129831 0.562481
O 6.96582 1.36525 11.2878 0.192257 -0.807109 1.510915
O 6.2491 0.72636 2.34217 -0.004282 0.522097 -0.565613
O 8.64531 9.87166 6.11289 0.253171 -0.197905 -2.15771
O 0.82825 9.14878 9.4671 -1.173245 -0.949852 1.14909
O 7.27452 5.53822 9.23241 1.043446 -0.380642 -1.808794
O 5.01828 5.67168 8.37623 0.688868 -0.172744 -0.18162
O 6.79753 1.88015 8.72736 -0.568978 1.477632 -0.349681
O 3.31564 12.3858 11.9276 1.434028 -0.851642 -1.536891
O 10.7485 0.42883 2.64037 -0.073496 -0.286853 -0.03377
O 10.6089 8.28097 6.92093 -1.089137 1.873129 -0.590902
O 1.25413 10.7198 5.46774 1.47162 -0.73725 0.024224
O 4.85102 2.3466 0.38095 -1.72465 -0.000928 -0.202614
O 8.36011 9.93525 11.516 -1.146919 -1.153811 0.024088
O 3.54837 4.5376 3.86095 0.398037 -0.164119 1.713327
O 0.26656 3.35813 9.76785 0.811893 0.022091 1.69767
O 10.3925 2.0536 9.51459 -0.295243 -0.192458 -1.830622
O 7.18702 10.7254 1.58025 -0.584307 0.805023 1.207934
O 11.7274 11.3124 9.00925 -0.273845 0.515359 0.488197
O 3.09809 5.49614 10.0933 -0.126786 0.587604 1.798042
O 1.40594 0.53157 10.0181 1.438736 1.717088 0.492159
O 9.04548 11.8125 8.17175 0.745953 -0.364694 -1.017623
O 4.68833 5.58145 1.87497 0.947057 -0.762021 0.349354
O 3.52806 2.25174 6.67074 -0.626468 1.039474 -0.287821
O 5.02583 4.26821 6.31335 0.944228 0.672524 -0.216968
O 0.12762 8.29029 5.36554 -0.616283 2.032574 -0.819654
O 7.88136 4.41116 6.91088 -0.30429 -0.163725 0.637806
O 9.26507 3.4415 0.86578 -1.155254 -0.61125 1.844341
O 9.4994 1.12635 11.6352 0.401214 0.208982 0.731998
O 7.73531 6.18308 4.93737 0.048538 0.277392 1.072616
O 0.67915 0.53626 3.95629 1.332969 0.586804 -0.799414
O 1.23806 6.44684 8.63945 0.997823 0.99217 -1.428203
O 10.8257 10.7466 11.5231 -0.417509 -0.130926 0.039292
O 3.32237 10.6892 3.66582 0.469188 0.012759 0.203646
O 1.12481 3.09383 3.3852 1.233888 -0.028375 -0.51106
O 6.69127 0.54939 5.93618 -1.63251 -4.4e-05 0.716791
O 1.00401 3.23858 6.90573 1.097324 -1.375602 1.161836
O 6.68358 7.11279 2.58155 0.305151 0.48108 0.414004
O 10.9149 5.16375 0.2888 1.334971 0.685 -0.185418
O 11.4544 9.03429 3.20302 1.121907 -0.585167 0.392384
O 3.65249 0.31123 8.45017 -1.206091 -0.636203 0.413274
O 10.4575 6.50177 4.09353 -1.229826 0.03578 -1.356031
O 9.10518 10.7586 3.68911 1.098083 -0.105729 1.549126
O 8.45733 7.60405 0.6562 0.259177 0.317697 0.461186
O 7.24021 4.77601 11.9344 -0.909279 0.426919 1.179986
O 6.29512 8.44027 5.79661 -0.810266 -1.02544 0.017666
O 5.10962 9.13138 2.0195 -0.516734 0.376474 -0.006574
O 2.207 5.70196 6.15372 0.970461 -0.301237 -1.373036
O 2.76508 10.2479 8.06032 -0.834666 1.104943 -0.495125
O 1.1647 4.65277 0.94823 0.766363 1.428092 -0.859341
O 8.30303 2.02056 3.60015 0.222653 2.039911 0.644527
O 10.8923 6.13688 8.3964 0.961048 -0.624405 -1.646583
O 5.30454 11.884 10.2068 -0.186286 -2.220418 0.264152
O 0.63286 9.112 12.2516 -1.080731 0.91085 -0.207721
Cl 3.09489 7.51956 0.18577 -0.090011 -0.297344 -0.090721
Cl 9.91357 1.79435 6.40504 0.087139 0.199503 0.039812
190
energy=-1023.46364576 config_type=nep2xyz pbc="T T T" virial="-16.24290752788359 -1.2045512671602014 -1.024846179427555 -1.2045512671602014 -17.54051844579999 -3.009991793308036 -1.024846179427555 -3.009991793308036 -9.783318243238801" Lattice="12.4 0.0 0.0 0.0 12.4 0.0 0.0 0.0 12.4" volume=1906.6240000000003 Properties=species:S:1:pos:R:3:force:R:3
H 9.9991 3.14956 8.08839 0.444254 0.256875 0.261991
H 10.624 8.03893 7.63127 1.800443 -0.274264 -1.135914
H 0.45565 4.45464 6.46075 0.289373 -0.924124 -0.092273
H 8.21743 2.94807 2.71753 0.333587 -0.19776 0.295108
H 1.92785 9.58916 1.4805 -0.123227 -0.387033 -0.291618
H 4.53514 9.9627 6.04187 0.659015 0.463163 -0.560091
H 8.60818 3.61595 0.77646 -1.708493 -0.563443 2.089921
H 2.68363 8.43382 10.3243 -1.066616 0.304905 0.515916
H 1.98964 11.0587 0.85028 -0.164922 -0.088952 -0.062874
H 5.94767 1.61295 7.76641 0.816244 1.294462 0.455861
H 3.79444 4.48415 7.78798 0.169707 -0.198067 -0.738152
H 3.56523 6.4008 4.44562 -0.114741 0.013546 -0.351444
H 12.149 2.98948 9.18034 0.270123 -0.804477 -0.046811
H 2.47799 10.9866 3.01626 0.374534 -0.32681 0.182813
H 5.31001 4.22202 5.67682 0.802534 -0.30008 -0.808421
H 0.40324 5.6947 9.37705 0.237965 0.325191 0.053561
H 9.54683 11.7322 4.26143 0.234175 -0.544767 0.24227
H 6.93797 6.18268 8.17727 0.091724 0.105583 -0.50004
H 11.0503 2.60856 3.32524 -1.587561 0.22754 -0.945238
H 5.60358 1.03668 3.13233 0.319445 0.152154 -0.115982
H 4.4982 4.56831 1.43267 0.134002 -0.156216 -0.768945
H 2.29285 7.17529 1.23491 0.425315 -0.376478 0.712279
H 1.50032 2.98363 0.14286 0.54278 0.233246 0.454788
H 6.52882 3.74134 8.31995 1.523071 -1.980918 -0.41952
H 6.73653 9.95571 3.34728 0.047298 -0.894276 -0.277798
H 9.92561 2.90915 4.24488 -0.73572 0.219494 -0.003003
H 10.1652 9.02287 3.84616 0.916397 -1.001157 0.30573
H 7.39728 9.50931 11.3935 -0.163239 0.024704 -0.830708
H 9.76496 2.88748 9.59971 -0.146901 -0.43276 0.354908
H 3.67289 5.80334 5.89389 -0.20471 0.575226 -0.466449
H 7.42929 10.7497 9.33028 -0.706837 0.376733 0.45133
H 11.413 8.00471 3.64076 -0.87532 0.315769 -0.104158
H 5.34598 9.996 4.57114 0.630225 -0.5894 0.134353
H 8.9854 7.29673 9.04076 -0.141345 -0.114644 0.18391
H 5.00912 5.78538 11.7572 0.164185 -0.346725 0.52963
H 1.93485 2.50324 10.3841 -0.855523 1.281455 -2.101727
H 1.39047 10.2239 7.57965 0.145509 0.294212 0.858452
H 6.13966 0.12513 7.55584 0.225821 -0.446471 -0.395341
H 0.6206 9.26264 5.80586 -0.667039 -0.659748 0.19819
H 3.43468 3.48555 6.54944 0.934043 1.55461 0.335386
H 10.1274 11.6628 8.52471 -0.516192 -0.122685 0.041575
H 4.94474 7.79934 10.5182 0.480927 -0.812451 0.524914
H 3.82037 8.00165 6.54679 0.636345 0.981613 -0.112692
H 6.11213 11.1688 10.2491 -0.33421 1.084266 -0.084773
H 11.5028 5.28255 11.214 -0.307226 0.134099 -0.510223
H 11.8803 0.9921 4.25264 -0.811668 -0.268278 1.201894
H 2.58091 12.3071 3.77148 0.633316 -0.801179 0.41922
H 1.19615 9.69957 9.0625 0.439696 0.567099 -0.146392
H 2.45314 1.21138 6.53901 -0.948965 -0.1066 0.049045
H 6.8501 2.34274 2.17478 1.168233 0.653423 -0.119052
H 8.14643 6.05995 1.49572 0.256386 -0.208163 -0.198785
H 7.01484 6.60497 2.21301 -1.156069 0.353933 1.933636
H 0.38967 11.721 8.43028 1.171818 -1.313615 -0.193002
H 6.86318 0.41136 5.06343 0.084014 0.671923 0.060109
H 0.91652 2.97357 8.18813 -0.70136 -1.034016 1.112509
H 1.8196 4.0938 1.37692 -0.574142 -1.279508 -0.742292
H 10.5028 7.81507 11.0599 0.227126 -1.586797 -1.250084
H 8.14553 6.0748 3.78323 0.010804 -0.727738 0.017049
H 6.08925 6.80158 12.2785 0.342849 -0.403592 0.810359
H 11.0092 11.2886 2.8676 -0.599675 -0.462981 0.537464
H 5.98121 4.275 1.28314 -0.168622 -0.059564 -0.67404
H 3.75832 1.84107 12.1487 -0.788207 0.237596 -0.465434
H 0.93398 6.07551 7.92766 0.278351 0.107678 -0.680294
H 3.93657 1.27708 6.86853 -0.402625 0.459206 -0.852161
H 1.85783 7.96647 12.36066 -0.05895 0.371392 1.11766
H 9.24084 11.3537 9.74685 0.122052 0.200789 -0.091612
H 8.89537 9.07751 11.892 0.284885 -0.607889 -0.370905
H 5.22722 9.08488 9.69343 1.016244 0.94307 0.08191
H 7.63329 10.2894 1.37694 -0.703882 0.9839 0.006157
H 9.14848 11.0229 3.01188 -1.19115 -0.241307 -0.727039
H 1.5236 10.2552 5.04769 -0.501144 0.310582 0.809193
H 3.95936 10.9504 4.79753 1.608067 -0.452207 0.318447
H 6.86228 11.6712 2.07282 0.160766 -0.093192 -0.763087
H 10.3667 6.61322 9.33408 -0.66975 1.625927 -0.060628
H 8.20882 0.77553 5.88506 -1.184053 -0.934368 -1.209463
H 11.5253 6.48997 1.18783 0.227744 0.648481 0.330517
H 9.84824 4.62594 2.96667 0.139735 -0.272157 0.149523
H 8.04909 10.5628 6.18945 0.13093 -0.14183 -0.259016
H 12.1051 3.16326 6.05878 -0.039542 -0.107436 0.320533
H 0.0301 0.75201 8.80548 -0.706614 -0.141834 -0.072136
H 10.5527 4.4139 0.4727 -0.224343 -0.233606 -0.294761
H 6.40773 4.84071 4.69727 0.333881 -0.387304 -0.325819
H 10.5175 0.65027 6.26106 0.586113 0.216051 -1.002508
H 10.755 8.47209 6.17276 -1.673626 1.00831 -2.962376
H 2.92509 11.68 11.1636 0.607421 -0.169779 -0.710205
H 11.9948 0.05529 2.52904 0.331563 2.695739 0.698437
H 4.15322 8.58192 7.9735 0.232775 0.629092 -0.653179
H 2.28966 2.36534 2.31112 -0.270694 -0.308547 0.103562
H 8.89902 0.9984 10.6792 -0.592976 0.047029 -0.032166
H 3.00832 2.38634 3.7062 -0.309568 -0.244488 -0.231509
H 2.78631 5.36795 9.23205 1.388118 0.280413 -0.281566
H 10.8762 8.3196 0.13808 -0.134298 -0.707197 -0.353803
H 9.97495 6.2095 2.91693 1.701904 1.587556 0.399238
H 12.0436 4.1753 0.84294 1.211623 -1.006489 0.486898
H 1.68526 6.54407 5.85779 -1.38469 -0.317461 0.844152
H 11.9581 11.1509 9.88606 -0.237975 0.423717 -0.839963
H 6.00247 7.74224 6.73448 1.351479 0.034031 -0.350841
H 5.79812 2.52819 4.80594 0.137904 0.317484 -0.325551
H 0.64562 1.59725 3.51715 1.010301 0.582485 -0.399864
H 4.97066 0.17995 9.50159 -0.079854 0.61288 -0.315162
H 7.46552 8.5021 6.75574 -0.804893 -1.663739 -0.777904
H 4.48173 5.55002 8.97441 -0.471145 0.427621 0.464886
H 10.2619 11.4012 11.6248 -1.541111 0.548395 -0.442224
H 0.19467 7.09302 6.43229 0.038868 -0.498923 -0.210279
H 0.16378 11.0705 2.12509 0.056374 -0.474465 -0.408005
H 7.37606 6.74151 4.96501 -0.292309 -0.232638 0.275412
H 4.9146 2.71706 0.24477 0.129132 0.490108 -0.115961
H 8.7175 10.961 11.6752 0.025947 -0.060977 0.412343
H 4.98214 0.68183 11.0277 -0.062223 -0.104872 -0.291845
H 8.73626 10.0851 7.45016 0.297057 0.036205 0.022797
H 1.50235 7.64191 9.77105 -0.219542 0.485783 1.445024
H 5.25795 1.16003 1.57136 0.322287 -0.507331 -0.091003
H 6.78851 5.67848 9.64298 0.087008 -0.100194 -0.256507
H 8.51423 5.20385 11.3808 0.09883 0.204762 0.556363
H 1.32799 11.4782 11.1605 -0.258764 -0.31174 -0.312586
H 8.77352 3.06674 11.7275 0.781044 0.411075 0.899099
H 8.2596 6.71248 11.7392 -0.241558 0.161217 0.773265
H 10.9291 4.77661 9.7706 0.594019 0.92838 0.89627
H 1.95774 1.24743 11.1403 0.127289 -0.741701 0.463395
H 12.0328 9.96001 10.9272 -0.241824 0.303087 -0.165929
H 7.85441 2.08605 9.93732 0.421978 -0.694451 -0.024205
H 0.20257 7.61479 1.38987 0.544465 0.008479 -0.109743
H 11.8843 0.0577 6.36942 0.112123 -0.36542 -0.107692
H 4.78872 1.26791 4.9518 -0.141161 0.302479 0.329193
H 7.55428 2.92261 7.34635 -0.407948 0.05024 1.027315
H 6.71032 8.56306 4.15745 1.384899 -1.688742 0.949867
O 2.27416 2.16047 11.1808 0.41225 -0.328952 1.811073
O 6.73181 10.4844 9.9617 0.648953 -1.584783 -0.562259
O 10.0753 2.93106 3.27301 1.676721 0.05369 0.760375
O 1.69425 10.5353 1.63403 -0.019151 0.725934 0.274205
O 11.3667 5.57244 10.2609 -0.330829 -1.699848 -0.608661
O 9.41179 5.484 2.78125 -1.564781 -1.055255 -0.563789
O 5.64015 1.55414 4.60059 -0.307386 -0.896661 0.245801
O 11.6641 7.42464 1.53042 -0.69065 -0.718207 -0.312332
O 4.55254 8.4657 9.93648 -1.551801 -0.231642 -0.660368
O 6.98018 2.79974 8.1641 -0.803229 2.143927 -0.442147
O 5.91414 0.79955 2.21982 -0.33336 0.054986 -0.520875
O 8.46619 9.75899 6.5673 -0.40109 0.44969 0.383046
O 1.69283 8.32906 10.5127 1.402462 -1.067902 -1.894855
O 6.63838 5.42985 8.70212 -0.514291 0.229923 0.801523
O 3.73331 4.99405 9.25652 -0.913829 -0.370015 0.013012
O 5.47115 0.77245 7.77434 -1.410206 -1.064978 0.028557
O 7.33249 6.56326 1.33683 0.717118 -0.068089 -1.68867
O 2.08825 11.956 11.5345 -0.44124 0.114801 1.158921
O 11.3006 8.14303 6.82762 0.374873 -0.951373 4.167613
O 11.2472 0.30559 5.68011 -0.652175 0.208551 1.11804
O 4.69132 1.8029 12.36 0.720766 -0.751993 0.476949
O 8.03443 9.49006 12.1072 -0.218762 0.509135 1.495487
O 3.49727 6.66169 5.38076 -0.043304 -0.706055 1.25738
O 0.61649 2.51337 9.05113 0.253022 1.208526 -1.219483
O 10.4071 3.28549 8.98871 0.112011 0.579757 -0.193616
O 7.47271 10.8963 2.14881 0.615001 -0.68031 0.710464
O 12.0286 10.9285 10.8128 0.294842 -0.819358 1.776806
O 5.62818 6.47563 11.5058 -0.630575 0.870903 -1.582773
O 12.0216 12.266 8.58344 -0.741438 2.000807 -0.236522
O 9.21686 11.3618 8.7565 0.533986 -0.013317 0.044579
O 5.15481 4.25996 0.73934 0.066367 0.275739 1.645329
O 3.2415 1.63896 6.22249 1.624889 -0.469506 0.903789
O 3.94148 4.34655 6.77989 -1.206858 -1.495139 0.006796
O 0.87917 10.18 5.79804 1.137246 0.503684 -0.811725
O 5.95715 3.99253 4.93806 -1.228207 0.661175 1.451255
O 9.12525 3.73016 0.0115 0.683697 -0.043342 -2.956493
O 8.63729 1.92751 10.5074 -0.135341 0.671814 -0.010965
O 7.25616 6.15212 4.19219 0.101014 0.947787 0.08196
O 12.1 1.42644 3.41948 0.687777 -0.416626 -0.54766
O 1.19355 6.01955 8.8662 0.145097 -0.103808 1.350666
O 9.30951 11.726 11.4855 1.706834 -0.151947 -0.248124
O 2.79483 11.3336 3.90413 -0.788526 1.355104 -0.404289
O 2.47839 1.81411 3.11908 0.156928 0.218442 0.302366
O 7.72796 0.0565 5.35 1.57503 0.232349 1.314341
O 0.50436 3.45595 6.52504 -0.098758 1.298787 -0.375658
O 6.1867 9.23351 3.79358 -1.13182 2.392031 -1.492029
O 11.4494 4.81533 0.47969 -0.668958 1.433244 -0.480993
O 11.7204 11.605 2.2004 0.277264 -1.8562 -1.019712
O 1.47959 10.4891 8.54277 -0.114162 -1.055899 -1.023695
O 10.5876 8.17104 4.14242 -0.249845 0.666225 -0.280077
O 9.82233 10.973 3.69929 0.464067 0.7347 0.109236
O 10.3889 8.48599 11.6968 0.057848 2.173422 1.70414
O 8.42603 6.10579 11.0281 0.197371 -0.312207 -1.366364
O 6.97451 7.58339 6.55273 -0.416288 1.666102 0.962699
O 4.87518 10.5931 5.27777 -3.25705 0.633474 0.497201
O 0.82083 6.31509 6.35791 0.990267 0.641505 -1.028257
O 4.25774 8.79565 7.00324 -0.876928 -1.846055 0.583802
O 1.34139 3.23421 1.09132 0.319518 1.062658 0.532712
O 7.50022 3.11526 2.10111 -1.409283 -0.54595 -0.26678
O 9.92643 7.49572 9.05024 0.864487 -1.143897 -0.056213
O 4.82802 12.3144 10.4203 0.090062 -0.410428 0.683028
O 1.90758 8.02623 0.9734 -0.311785 -0.043301 -1.951985
Cl 2.91886 5.47469 2.55584 -0.051287 0.019184 -0.231917
Cl 9.37022 2.88798 6.24031 -0.044288 -0.373453 -0.126718
190
energy=-1023.27443126 config_type=nep2xyz pbc="T T T" virial="-12.862557364903653 -1.8058808339583179 0.07733947190083233 -1.8058808339583179 -1.730671499843337 7.358483629851942 0.07733947190083233 7.358483629851942 -6.016484924554395" Lattice="12.4 0.0 0.0 0.0 12.4 0.0 0.0 0.0 12.4" volume=1906.6240000000003 Properties=species:S:1:pos:R:3:force:R:3
H 0.64327 2.69706 5.22022 -0.519177 -1.762478 0.621963
H 11.2018 1.3417 5.2736 0.457619 -0.011291 -0.033938
H 8.29415 7.57978 0.06134 0.041052 0.109213 0.361822
H 8.75339 11.8044 8.71595 -0.751213 0.441474 -0.597343
H 1.70884 3.02192 11.999 -0.839566 -0.140791 -0.321625
H 12.0531 3.22181 8.99267 0.445249 -0.449284 -0.627664
H 5.15954 5.77499 2.34277 -0.496464 1.342785 -0.02531
H 6.21012 10.0565 9.14291 -0.382252 0.310734 -0.436291
H 0.19166 1.86561 12.1438 -0.204914 -0.513576 0.406747
H 9.42427 11.8985 5.14329 0.35902 0.788645 0.140084
H 0.22041 8.13898 8.19216 -0.753681 0.97944 1.452834
H 11.814 10.0538 2.6814 -0.388171 0.641432 0.485513
H 8.46145 2.85964 10.7179 0.193373 0.434538 -0.322906
H 0.62766 11.9267 12.225 0.417275 -1.895545 -1.38635
H 0.72574 11.0936 5.55644 0.218288 -0.109836 -0.528212
H 2.45971 5.68591 8.93296 0.292447 -0.658209 0.234782
H 9.45622 4.40827 12.3829 0.113828 0.29237 -0.543625
H 7.73445 8.40479 9.7448 -0.271437 0.374469 -0.285446
H 6.33438 1.3429 5.01771 -0.43261 0.019498 0.195678
H 2.88393 0.79839 9.28594 -0.880649 -0.853487 0.367225
H 12.2213 2.96565 11.0629 -0.155748 0.314659 -0.501037
H 8.32969 10.728 10.8012 0.132209 1.640301 0.427925
H 1.99148 5.80927 11.1004 -0.739232 0.014887 -1.144184
H 0.51465 2.06359 6.62748 0.142504 -0.258357 0.781504
H 0.75253 12.32186 8.71104 -2.092252 0.931846 -0.537294
H 6.04014 12.2603 5.29149 -0.963306 0.370762 -0.325345
H 4.32303 0.80914 3.98827 -0.438773 0.729704 -1.122373
H 9.35783 0.0192 12.2751 0.37795 -0.138426 0.298965
H 6.515 11.4752 8.55646 -0.242539 -0.700812 0.012269
H 4.23626 6.6794 8.46791 -0.279378 -0.852964 0.183874
H 7.58885 10.8051 5.50954 -0.686016 -0.546499 0.3481
H 2.94901 0.35829 3.75874 -1.91885 -1.265305 0.703778
H 4.85035 2.4421 7.4703 -0.561305 0.009177 0.351033
H 7.57696 3.59876 0.39065 -0.800643 -0.35775 1.253369
H 11.4214 3.77038 0.36399 -0.589483 -0.176702 0.817115
H 1.64404 3.48899 8.04621 0.710183 2.942659 -0.255234
H 1.78721 8.28973 6.93593 0.499977 -0.455555 -0.81989
H 9.88033 10.2186 9.0809 -0.044942 -0.456108 0.410697
H 6.8685 2.21708 0.65862 -0.488169 0.227406 0.396049
H 11.3849 7.10213 8.17836 -0.471916 -0.022475 0.58718
H 3.09669 2.34101 2.60767 0.032797 0.252629 0.068812
H 4.41445 1.47484 6.27635 -0.392772 0.428786 2.24054
H 12.0277 4.42996 4.43607 0.799129 -0.246524 -0.337745
H 6.40447 10.7945 6.51272 0.116776 -0.551039 0.450084
H 5.52014 0.28319 0.21053 1.431295 0.276556 0.062718
H 4.02089 11.293 11.8171 -0.627295 -0.060141 0.683221
H 12.3527 0.0283 1.05342 -0.478778 0.1882 0.272553
H 6.07817 4.452 3.65349 -0.743373 -0.672254 -1.038178
H 7.25092 4.67845 6.44828 -0.293295 0.673203 -0.756908
H 9.07621 1.70361 5.77199 -0.419935 -0.293431 0.012351
H 6.23853 6.66231 5.56882 -0.609469 -0.503818 -0.058879
H 10.8256 11.4615 8.73554 0.223175 -0.09175 -0.264993
H 8.2661 6.3265 9.27308 -0.500586 0.464422 -0.295929
H 11.5835 8.15884 9.68095 0.106261 -0.406442 0.712926
H 8.78079 4.9828 10.9446 0.097997 -0.187675 -0.388689
H 1.13539 6.85971 10.4502 -0.171941 -0.239353 -0.314639
H 0.78616 9.93009 0.65558 0.312131 -0.100969 0.058714
H 2.22255 9.67931 7.60648 -0.320286 -0.62824 0.118421
H 11.0156 5.52139 6.7334 -0.194419 -0.280146 -1.076658
H 1.83439 3.74075 3.41968 0.135251 -0.093689 -0.192315
H 12.152 4.56821 9.74241 0.210889 0.322621 -0.087005
H 9.81674 3.04777 2.05847 0.595208 0.278536 0.110271
H 2.90396 6.00956 7.5678 -0.177552 -0.002555 -1.503129
H 8.05969 3.32649 6.71342 -0.303914 -0.435681 -0.196365
H 12.1185 8.69188 2.21108 0.581131 0.155621 -0.36805
H 3.90796 3.65702 2.44859 -0.759097 -0.052959 0.190079
H 8.89091 0.85656 11.0065 0.27718 -1.18128 0.318034
H 7.54703 6.14838 5.02824 0.80115 0.09717 -0.158732
H 9.98506 10.5034 4.35714 0.723449 -0.056284 0.017326
H 9.54187 9.84798 3.09336 -0.690556 -0.656117 -0.715826
H 9.50132 2.92106 9.57392 -0.702046 -0.610322 0.491291
H 7.06382 5.79779 12.101 -0.141509 0.006436 0.078555
H 8.54282 2.27976 2.28484 -0.444099 0.225053 0.224936
H 10.8146 3.56741 4.6727 -0.581095 -1.662402 -0.041503
H 12.3766 12.0607 7.40616 -0.489351 0.017099 -0.006036
H 10.5438 8.21215 11.5122 -0.973641 -0.340775 0.516708
H 8.0278 0.78058 9.0939 -0.205964 -0.768591 -0.530112
H 7.24032 8.86104 2.92013 -0.555544 0.315959 -0.147455
H 4.88306 4.46307 8.31339 -0.517053 0.22283 -0.161715
H 8.06812 5.01239 8.47853 -0.794193 -1.042573 -1.462857
H 11.0028 4.96628 1.28993 0.580742 1.221484 0.329686
H 2.99642 10.8105 4.24755 -0.093009 -0.256935 0.201202
H 11.7733 8.74509 5.92305 -0.258037 0.651309 -0.219787
H 10.0621 1.48282 4.11403 0.4442 -0.225659 0.520557
H 9.05399 8.48842 1.04757 -0.496106 0.832477 2.859737
H 6.2433 3.76525 7.97294 -0.05581 0.031454 0.486642
H 8.37705 8.00273 3.45643 0.262199 -0.533343 0.00524
H 4.29821 12.3373 2.02776 0.669736 -2.086828 -0.964108
H 4.23512 10.8159 7.50117 0.685476 -0.650878 0.185334
H 4.93794 10.8036 1.73429 -0.181966 -0.311822 0.952796
H 4.78954 8.31034 9.99996 0.109726 -0.822973 -0.787484
H 1.9916 9.99511 11.8872 -1.327672 0.377466 0.67812
H 0.57122 10.1121 6.74548 0.012765 0.039179 -0.223255
H 0.58327 6.38857 1.60628 0.682594 -0.025902 0.034721
H 8.0699 1.27505 6.92921 0.027003 0.889987 -1.449018
H 11.9452 8.86445 11.5826 0.114 -0.717154 -0.592837
H 2.96025 7.00886 1.31249 -1.149625 0.390493 -1.289624
H 5.46259 8.73766 5.40883 -0.526824 -0.43599 0.198017
H 3.92838 9.95967 11.1922 0.605643 -1.025656 -0.503804
H 5.31429 2.22273 11.3727 0.619146 -0.148175 -0.424394
H 2.87222 3.18999 0.80901 -0.459348 0.317235 -0.339453
H 9.96289 7.2264 4.81257 0.312653 -0.657102 0.25499
H 2.77414 11.9446 10.2178 0.032388 -0.648944 0.130755
H 11.7558 6.32113 2.62662 0.62765 0.196092 -0.568547
H 4.73966 3.1249 10.0908 1.021168 -0.570572 0.034877
H 9.53627 5.72542 4.35218 0.823464 0.229311 0.15549
H 10.283 11.7457 2.45248 -0.165234 0.310473 -0.549872
H 5.73067 8.04171 11.2837 -0.492458 0.027144 -0.645012
H 3.46781 3.02196 11.572 -0.246436 -0.671151 -0.173349
H 6.08856 3.65243 2.14418 -0.137581 0.670363 1.363813
H 9.95318 0.81902 2.09747 -0.816375 2.661123 1.242484
H 9.67233 11.2519 6.50792 -0.016549 -0.545021 0.034928
H 6.06293 6.72153 0.50242 -1.151395 -0.152134 1.748414
H 4.80225 7.73713 7.43952 -0.060852 -0.19181 1.282787
H 10.0776 5.62399 8.03497 0.076851 -0.166934 -0.201837
H 4.73329 7.36438 2.6134 0.32517 0.141165 0.3434
H 1.72924 7.81299 0.54135 0.443125 0.490765 0.291218
H 7.12754 0.28784 12.2123 -1.454015 0.704602 -0.422547
H 2.41828 2.21989 7.78523 0.180007 0.199025 -0.230784
H 12.3459 7.50139 5.31168 1.108819 -0.597153 -0.319548
H 3.13432 11.6829 8.0155 -0.549813 -0.848981 -0.151608
H 8.581 9.36579 11.5491 0.103038 0.082335 0.146136
H 2.70263 11.4069 5.66048 0.484086 -0.169779 0.408434
H 4.22381 7.81552 5.39169 -3.47839 -0.520691 -1.931875
H 1.62242 4.77826 4.5501 0.312344 0.320458 0.343298
H 6.65395 7.74078 8.75107 0.617844 0.026776 0.463632
O 1.5625 2.5759 8.11093 -0.394815 -2.669261 0.195981
O 6.61655 10.569 5.59242 0.582082 0.976446 -0.157845
O 5.56587 0.74443 5.13046 1.281411 -0.680103 -0.256324
O 0.11206 2.83368 11.9904 0.548149 -0.140202 0.303135
O 6.27138 0.83717 12.1873 0.366593 -0.999373 0.629016
O 7.8993 12.3497 8.56059 0.86471 1.140332 0.635969
O 5.02864 7.9331 5.79571 4.281509 1.128981 2.052077
O 9.11048 8.11131 0.21073 0.131411 -1.169839 -3.156837
O 4.15942 1.79 7.22416 -0.03259 -1.005361 -2.171084
O 0.26609 1.87063 5.71582 0.462373 1.802878 -1.478319
O 9.2773 11.0775 5.63116 -0.42012 -0.101299 0.411389
O 8.14822 8.59648 2.72655 0.250297 0.249891 0.248366
O 10.2627 0.03779 1.72637 1.124784 -3.081615 -1.139689
O 5.52577 4.02931 2.93041 0.70543 0.409162 -0.176893
O 9.23461 6.61978 4.55734 -0.86124 0.597972 -0.315841
O 10.0455 10.9239 8.45543 0.064787 0.591306 -0.18059
O 6.69337 5.81743 5.32948 -0.337835 0.233257 -0.091679
O 11.4229 8.13057 11.1361 1.305821 1.210455 -0.042865
O 10.3067 1.03265 4.9647 -0.61291 0.623537 -0.863686
O 2.40563 11.4162 4.74093 -0.132163 0.083352 -0.538144
O 10.6809 4.13358 0.96162 0.05719 -1.19039 -0.940652
O 8.86618 12.3475 11.4416 -0.388239 1.452191 -0.233362
O 4.72773 7.49646 8.4389 0.804347 1.289438 -1.535013
O 8.77252 2.35678 9.93939 0.528755 0.076114 -0.125435
O 5.90457 10.6824 8.45191 0.361315 0.389401 0.228197
O 10.2705 10.3827 3.41086 0.089073 0.348858 0.406455
O 11.515 7.93451 5.47097 -0.889609 0.035962 0.14857
O 10.9394 5.84998 7.62028 -0.136337 0.293016 1.494814
O 8.47648 5.3695 9.25012 1.762573 0.726904 1.827215
O 2.99187 3.27987 2.24089 1.232583 -0.492994 0.134685
O 11.7234 3.70648 9.74458 -0.709948 -0.015603 0.31809
O 7.63747 4.11262 7.12753 0.015048 0.217282 1.041797
O 11.7372 7.94786 8.69102 1.186083 -0.350247 -2.594392
O 9.39508 2.4519 2.71151 -0.128795 -0.19611 -0.122777
O 0.07159 10.7327 6.16877 -0.500592 0.181991 0.383519
O 4.94839 6.68127 1.95513 0.025302 -1.492174 -0.451163
O 3.27557 10.8922 7.42474 -0.266053 1.116374 0.030254
O 7.61358 7.812 8.97903 -0.397204 -0.202024 -0.217024
O 3.36667 10.7244 11.3664 0.403856 0.765204 -0.072308
O 3.05558 5.32327 8.22075 -0.413233 0.362432 0.913501
O 8.30856 9.79201 10.7163 -0.081005 -1.775077 -0.750043
O 0.54793 0.29464 0.34513 -0.102786 1.890564 0.989561
O 4.66723 11.6425 1.34359 -0.689113 3.162102 -0.546306
O 12.2378 0.13581 8.25999 2.128031 -1.048676 0.808942
O 6.677 6.6817 12.1872 1.510279 0.316 -1.581686
O 2.3338 12.38711 9.47042 0.973682 1.616082 -0.553581
O 12.0317 6.50949 1.70411 -1.333396 -0.1012 0.80443
O 5.37799 3.65299 8.47039 0.814097 0.228834 0.035696
O 1.47673 8.98243 7.52954 0.2078 0.498178 0.769858
O 3.55327 0.93001 3.31481 2.578514 0.768039 0.086412
O 8.68389 4.42983 11.7428 -0.713636 -0.410305 0.922826
O 1.00444 9.86841 12.0961 0.483429 -0.293248 -0.489094
O 2.19156 6.97432 0.65406 0.803257 -0.9557 0.854788
O 2.64672 3.25955 12.1751 1.197297 0.662808 0.99559
O 5.13699 8.66678 10.8161 0.256488 0.964392 1.260114
O 1.27192 3.94626 4.19232 -0.326351 0.197045 0.129504
O 11.1078 4.45261 4.71668 -0.548376 2.037299 0.4135
O 1.46206 5.96205 10.2548 0.648083 0.287581 1.791728
O 8.14849 1.88311 6.11018 0.322043 -1.397989 1.472695
O 7.05939 3.08636 1.11861 1.222102 -0.122388 -2.007022
O 4.5638 2.50411 10.8341 -1.345424 0.615251 -0.109231
O 0.07136 9.6029 2.14144 -0.020914 -1.031037 -0.185258
Cl 4.72265 9.48384 3.25999 0.020591 -0.342807 -0.049049
Cl 2.22308 6.8074 5.40997 -0.347178 -0.161675 0.138296
190
energy=-1023.8326368 config_type=nep2xyz pbc="T T T" virial="-18.957428979935163 -1.0935222976518517 0.9250153085587932 -1.0935222976518517 -12.583545015590387 -1.3925865026587476 0.9250153085587932 -1.3925865026587476 -4.14428421416842" Lattice="12.4 0.0 0.0 0.0 12.4 0.0 0.0 0.0 12.4" volume=1906.6240000000003 Properties=species:S:1:pos:R:3:force:R:3
H 11.1515 11.979 6.69843 0.112048 0.609754 0.347397
H 2.93148 4.77325 4.51872 -0.61106 1.402274 -1.135873
H 4.23265 7.45731 5.59521 0.489884 0.583509 -0.008773
H 9.23667 5.08745 6.05231 0.097599 0.040384 -0.088667
H 1.02103 4.02088 10.5364 0.907384 0.419527 0.3344
H 4.16932 5.95717 7.20257 -0.060896 0.306084 -0.267316
H 9.70699 6.2639 2.34439 0.139986 -0.043247 -0.232279
H 0.22246 11.8474 7.30352 0.166674 0.288295 0.029399
H 1.75679 4.99347 11.5969 -0.069388 -0.070019 -0.238355
H 9.36772 1.01847 6.5344 0.946947 0.0721 1.376762
H 1.05333 5.84066 9.08642 -0.014205 -0.845229 -0.062158
H 2.0129 2.51552 1.60711 0.77883 0.110757 -1.48762
H 9.05769 0.65005 1.10101 0.456383 1.106448 0.2163
H 11.2691 0.70392 3.88475 -0.82264 -0.539612 0.141785
H 6.84815 8.20538 5.9636 -0.324169 0.347812 -0.046299
H 10.8302 4.27729 10.6581 -0.631901 0.023034 0.202511
H 10.1389 3.75754 0.40298 -0.362642 -0.045482 -0.232142
H 10.2489 7.38031 10.4026 1.195315 -1.238904 1.952643
H 8.59501 9.73182 1.44534 -0.274369 0.009154 -0.313289
H 4.62695 11.2788 2.16162 -0.451079 -0.11682 2.778435
H 12.0098 2.85753 10.0164 0.401786 0.097585 0.951052
H 1.04393 9.35755 8.59813 -0.12401 -0.852856 0.245597
H 12.39798 6.52955 12.0477 -0.856836 0.117319 0.442286
H 10.8398 3.87574 6.7555 -0.72889 -0.018367 0.491364
H 5.15937 12.3009 1.01965 -0.292333 -0.846719 1.195927
H 9.43176 8.42923 1.76065 -0.240109 -0.980253 -0.242718
H 7.10412 10.0057 3.85184 -0.186829 -0.106323 0.061295
H 8.81412 11.375 0.12541 -0.178723 0.382026 -0.363412
H 10.8899 10.8311 8.40376 -0.68115 -0.581035 0.741362
H 2.53263 2.95616 0.14409 -0.258685 0.130738 0.056328
H 7.71848 9.70049 8.06166 -0.34138 -0.106559 -0.249676
H 8.59579 9.53843 3.44517 -1.010673 0.612264 0.590232
H 3.65806 11.4099 0.06877 0.868851 -0.175813 1.129813
H 6.39131 4.58326 1.55542 0.50543 1.303751 -0.471999
H 12.0474 2.62261 1.57 1.37291 -1.007015 0.839805
H 1.42792 1.85588 6.84932 -0.368712 0.60151 -0.627315
H 11.7605 9.76875 0.85587 0.076668 -2.00088 2.46987
H 10.5015 1.7991 7.33793 -0.215525 -0.096264 -0.253877
H 9.13571 11.5928 3.83367 0.598763 2.049342 0.802871
H 1.10078 5.90062 7.46677 -0.30719 0.301175 0.852782
H 1.25014 10.3406 4.54891 0.24282 1.367246 0.021373
H 2.26841 11.8134 11.9616 0.275421 0.025652 -0.181154
H 4.33949 6.65583 10.7496 0.629611 0.161415 0.275226
H 7.62488 11.1045 8.73311 -0.410806 0.710134 -0.501571
H 9.64126 0.90356 8.97432 0.016347 -0.820826 -1.061036
H 11.6631 8.88048 3.10685 -0.189693 0.348983 0.8363
H 12.39522 1.46574 4.63798 0.367354 0.192953 0.482839
H 3.58521 7.99026 10.8998 0.936012 0.223761 0.275134
H 6.34774 0.63031 7.11544 0.10452 -0.255344 -0.123121
H 9.01144 3.77732 5.1079 0.368581 0.075838 0.608491
H 1.91473 6.56248 0.91907 0.264317 0.175819 1.524047
H 4.92647 4.34698 11.0854 0.048681 -0.148632 -0.234178
H 3.84129 12.3662 10.4031 -0.387089 0.215115 -0.43782
H 0.92539 0.99284 8.91201 -0.478339 0.157754 -0.282021
H 9.34979 2.2117 1.77335 -0.995874 -1.329036 -1.050392
H 11.1727 7.20964 0.45077 0.050407 -1.080005 -0.921523
H 1.59808 8.9931 10.4213 -0.434572 0.619104 -0.833722
H 11.6169 9.50142 11.6941 0.255623 0.172367 0.63465
H 11.2534 1.2501 10.3321 -0.188901 -0.225911 -0.462994
H 10.5453 4.21355 1.86552 -0.527417 -0.813056 -0.068794
H 11.5151 3.61814 8.88663 -0.112965 1.02287 -0.916709
H 0.29822 1.61055 2.65541 -0.679125 -0.599212 1.265052
H 10.7255 5.49213 11.8732 -1.12512 0.072678 -0.56782
H 7.01641 1.103 8.45484 -0.21121 -0.300542 -0.454986
H 0.52824 7.862 8.78645 0.051369 0.81082 -0.012992
H 0.9597 11.8831 4.28443 0.648267 -0.479172 -0.075153
H 10.3252 11.2522 12.3741 -0.150609 0.736828 -0.136637
H 1.6581 7.36462 11.978 0.976213 0.891101 0.043366
H 5.76164 1.95008 1.78069 -0.231238 0.689306 0.721409
H 7.16817 1.32462 1.36013 -0.517495 0.192156 0.299222
H 9.25388 0.58879 3.14544 -0.50951 0.553511 -1.052184
H 4.44409 5.20035 8.56559 0.381858 -0.292198 -1.485378
H 8.61752 1.38757 4.73396 0.351695 -0.512363 -0.36598
H 6.84332 5.24896 0.13344 0.225571 0.352831 1.826374
H 3.45963 4.58512 10.6172 0.17638 -0.12591 -0.227304
H 7.09369 9.66173 12.302 -0.239429 -0.15336 -0.095505
H 8.36952 5.80683 7.89871 1.199897 0.535689 -0.720626
H 7.23673 9.19375 10.4767 0.117339 0.416376 -1.209137
H 2.88695 6.91841 5.3377 -0.491294 -0.222834 0.146678
H 4.76425 12.38742 9.15325 -0.46351 0.689283 -0.050742
H 11.2262 6.18079 5.91956 1.446591 0.327443 -0.255115
H 8.143 8.98058 5.76124 -0.710541 0.176556 0.056596
H 12.1115 8.64719 5.60301 0.285523 0.534493 -0.360704
H 3.74421 4.56438 5.81469 0.872577 0.700427 1.163028
H 2.34749 0.64163 8.5083 -0.703599 -0.035065 -0.891023
H 6.04243 1.81147 11.9774 -0.165935 0.023578 -0.275948
H 6.05991 8.30734 11.1183 -0.341722 0.12747 -0.236894
H 3.38621 10.8675 4.02221 -0.79624 0.49596 0.062044
H 9.42994 10.0644 8.8985 -0.520214 0.288447 0.315062
H 4.79744 11.5377 4.29947 -0.307707 0.099867 0.080625
H 6.33879 5.1996 7.91258 0.769912 0.242071 1.130505
H 2.67177 9.75022 11.4366 -0.617902 0.223838 -0.560179
H 8.84733 7.08662 6.98978 0.201234 -1.226508 0.807923
H 0.1753 6.45856 4.97366 -0.606141 -0.365846 1.488726
H 10.3533 4.91387 4.02564 0.354801 0.33792 -0.188186
H 3.05884 10.3358 7.71545 0.148792 -0.02854 -0.48409
H 4.70798 3.42733 3.41286 0.015105 -0.114755 -0.661946
H 4.856 9.27936 4.43004 0.464897 -0.710804 0.151949
H 0.55396 8.28859 2.52721 1.305072 -0.685515 0.611279
H 8.34146 2.29675 9.52616 0.465147 -0.420324 0.721906
H 4.18467 3.11779 1.90765 0.619703 0.637273 0.824036
H 7.16657 4.13901 8.7225 0.554859 -0.389637 -0.31615
H 4.31874 11.9962 6.57975 0.525994 0.511629 -0.251173
H 11.6053 5.73812 3.42301 0.125456 -0.414395 -0.27055
H 5.19209 1.66376 10.6282 -1.582594 -1.04564 -0.645961
H 7.51622 5.26236 10.0954 -0.390527 0.554439 -0.050126
H 0.664 0.83834 0.73089 -0.060943 2.748751 2.522081
H 2.99826 11.4975 5.98533 -0.61795 0.091868 -0.588081
H 6.7646 2.40005 9.92457 0.67112 -0.240699 0.692363
H 7.56892 6.65601 10.7578 0.53975 -0.408019 0.438869
H 0.22568 11.7342 0.53964 0.662006 1.190724 -0.96462
H 7.28006 2.04249 5.02338 0.357941 0.005437 0.351975
H 9.17925 4.9689 11.0753 0.975702 0.535287 0.798036
H 6.22531 7.04547 1.76157 0.460404 -0.080194 -0.296804
H 0.21187 0.86767 11.026 -0.025979 0.298634 0.078013
H 8.48687 6.25301 1.35932 0.090281 0.102469 0.155218
H 6.83285 8.50907 1.99022 0.56877 -0.138348 -0.382161
H 9.49591 0.37565 10.5261 -0.156754 0.094037 -0.253073
H 1.73421 3.026 5.7361 -0.044181 -0.15399 0.339349
H 2.71798 8.84572 7.2886 0.227262 0.125382 0.098227
H 11.0362 9.42097 9.11947 -0.718831 0.65267 0.374202
H 6.44233 10.6652 1.02665 1.005685 -0.333482 -1.100377
H 12.0097 10.1929 6.00942 0.599975 -1.012787 -1.634546
H 5.5267 8.0417 3.73621 0.128832 -0.048998 -0.505442
H 11.9883 2.97077 6.84568 1.171442 -0.269914 0.375281
H 9.75421 7.30261 9.00495 -0.278256 -1.270289 -1.692833
O 1.03368 2.45915 6.14007 0.082349 -0.270375 -0.042554
O 7.98659 10.2168 8.84741 0.075263 -0.865522 0.00027
O 9.35374 9.37028 1.94569 0.296104 1.039233 0.802252
O 1.88776 4.24166 10.9712 -0.739702 -0.202513 0.069474
O 9.64708 1.12522 9.90658 0.288099 0.383477 1.628416
O 9.21604 6.25523 7.44425 -1.494564 0.790909 -0.365593
O 5.30533 8.39146 4.61641 -0.421362 0.670238 0.573722
O 7.30081 10.3865 0.55575 -0.676487 0.957438 1.545867
O 3.12792 11.4252 11.665 -1.304863 0.091156 -0.975627
O 11.2347 3.26094 7.42018 -0.204627 0.288559 -1.26001
O 8.2565 2.17523 5.16168 -0.615602 0.739391 0.202009
O 6.98627 8.6457 11.2094 -0.160109 -1.260211 0.724113
O 0.70369 0.12667 0.15308 -0.381828 -4.012001 -2.290344
O 7.80054 5.70603 10.9309 -0.204007 0.031915 -0.101634
O 7.18932 5.10822 8.51248 -1.701826 -0.497524 -1.275499
O 10.0858 0.89982 7.24248 -1.331616 0.110757 -1.278958
O 1.69338 6.49297 0.0024 -1.176566 -0.703573 -1.534229
O 1.43471 0.79223 8.09746 1.348527 -0.496857 1.235588
O 3.20894 4.15355 5.16429 -0.493173 -2.506466 -0.023863
O 12.2134 9.54596 5.20659 -0.777318 -0.155299 1.725321
O 0.4747 2.09533 1.84997 -1.377915 2.017994 -2.100896
O 9.5955 11.9386 12.2878 -0.02719 -1.276379 0.184075
O 2.80032 2.52466 0.96585 0.279561 0.03264 1.095813
O 8.72084 1.377 1.70358 0.899496 0.094337 0.402141
O 11.8216 11.3552 7.0422 -0.268777 -0.689985 0.413744
O 6.17549 1.30473 1.20098 0.57494 -0.614426 -1.193802
O 2.57645 9.52472 7.96869 -0.822166 -0.699568 0.604262
O 12.2303 1.39292 10.2696 0.258584 -0.579386 0.527275
O 4.04666 0.51015 9.58642 0.581113 -0.834268 0.379865
O 1.70209 11.2324 4.39112 -0.702707 -0.903345 0.275831
O 11.8195 3.8323 9.80815 -0.262619 -0.500261 0.536104
O 6.6981 0.29107 7.96515 0.127611 0.033182 0.574327
O 1.24478 6.37295 8.31794 0.200785 0.511745 -0.557078
O 9.48884 0.15838 3.97756 -0.144187 -2.716187 0.178365
O 7.59604 8.56861 6.46963 0.952137 -0.319332 0.244047
O 9.31047 6.74161 1.58136 -0.156218 -0.192305 -0.071745
O 10.4104 10.2521 9.13167 3.085185 0.214565 -1.508413
O 9.82903 7.87342 9.74547 -0.897903 2.044539 -0.297663
O 12.1063 8.63008 2.30395 -1.139911 0.315574 -1.547927
O 10.1156 4.65942 11.4354 0.690497 0.153521 -1.020613
O 3.61777 11.3548 6.69966 0.213173 0.093825 0.500404
O 12.2242 0.82788 3.92982 0.438884 0.002178 0.343873
O 4.33106 10.7884 3.85732 1.179565 -0.407115 -0.376455
O 4.39754 4.84973 10.4507 -0.20171 0.14021 -0.008265
O 3.46192 7.11432 6.09572 -0.152185 -0.021697 -0.223781
O 4.72741 11.4154 1.24776 1.290868 1.005905 -3.465836
O 12.1912 6.43088 5.92082 -0.569216 0.108234 -1.239024
O 5.90978 2.11916 11.0331 0.695244 0.998688 1.566914
O 11.7215 10.1477 0.014 -0.467666 1.70246 -2.926795
O 7.99887 9.91999 4.19515 1.750684 -0.246208 -0.901562
O 10.1868 3.44156 1.31921 1.23754 0.566805 1.151494
O 2.19718 8.92599 11.1637 0.591107 -1.042439 1.369598
O 6.07272 7.94341 2.09497 -0.967372 -0.028081 0.496625
O 4.97335 3.4532 2.46669 -0.801457 -0.544677 -0.480284
O 4.67143 5.20456 7.57598 -0.037479 -0.032328 1.831224
O 10.8176 5.21493 3.18452 -0.223353 0.176576 0.204483
O 4.49676 7.58853 11.0186 -0.855585 -0.290841 -0.47629
O 11.3884 6.66166 12.033 1.052436 0.721676 1.008747
O 9.65419 4.50171 5.37523 -0.448419 -0.481398 -0.004837
O 6.8675 5.3783 1.14379 -0.819823 -1.475012 -1.157155
O 7.4606 2.47974 9.20552 -0.623443 1.288293 -1.510853
O 0.36643 8.79897 9.11429 -0.244354 0.131763 -0.404419
Cl 5.48996 0.9383 5.08756 -0.023383 0.019733 0.091564
Cl 1.61989 6.1451 3.31681 -0.286034 0.360505 0.003762
190
energy=-1023.51728076 config_type=nep2xyz pbc="T T T" virial="-13.105999983256526 -3.086783855498538 -2.6808081540218653 -3.086783855498538 -11.916930890729803 -3.3855743556502684 -2.6808081540218653 -3.3855743556502684 -8.676741414016675" Lattice="12.4 0.0 0.0 0.0 12.4 0.0 0.0 0.0 12.4" volume=1906.6240000000003 Properties=species:S:1:pos:R:3:force:R:3
H 0.25428 2.86788 3.52257 -0.417824 -1.109346 0.601437
H 10.9818 1.30335 4.0561 -0.033023 0.317109 -0.0966
H 7.5634 6.53516 11.7338 0.322929 0.466575 0.260767
H 9.55568 12.1743 7.86435 -0.628754 0.658887 -0.145598
H 1.23297 2.45656 0.33081 -0.94104 -0.356641 -0.118613
H 0.40591 1.76989 9.35064 -0.265457 0.203733 0.268158
H 3.32102 7.71237 1.88397 0.32358 0.112444 -0.232676
H 6.51643 11.1096 9.40563 0.237888 0.667886 -0.721939
H 0.17046 1.01539 0.5035 -0.226538 -0.131229 -0.616504
H 9.533 12.1823 4.65301 -0.089319 1.698722 -0.675117
H 0.1317 8.26272 9.33888 -0.375159 -0.026979 0.228394
H 12.2998 9.02963 2.27389 -0.977562 -2.911963 0.676191
H 9.48436 2.20275 10.7323 0.348795 0.024067 -0.001972
H 0.31704 11.3453 0.98436 -0.373252 0.001688 -0.102379
H 1.56313 10.7874 4.96565 -1.052316 0.191072 -0.613424
H 1.80975 4.83173 8.23091 1.1027 -0.25481 -0.302516
H 9.82651 4.43115 12.134 -0.117946 -0.391242 -0.083993
H 8.41793 8.4732 9.59134 -0.221824 0.112654 -0.404655
H 6.86583 1.41561 5.39589 -0.23329 -0.302139 -0.358276
H 3.27317 1.12916 10.3069 -0.75265 -0.580277 -1.001103
H 0.07127 2.04411 11.5095 0.621794 0.224861 0.399749
H 8.24447 10.2298 11.2979 -0.291743 0.063334 -0.843807
H 0.91246 5.50182 9.83515 -0.684712 -0.391633 -1.032446
H 0.84082 2.31911 4.80258 0.27299 -0.002507 0.974067
H 1.45828 0.3855 8.66021 -0.224347 0.056737 -0.165616
H 6.57771 12.2541 5.47366 -0.801519 0.879383 -0.755177
H 4.97215 0.83049 4.25549 -0.26822 0.348201 -0.189354
H 8.76919 11.8493 0.0569 0.4778 -0.127682 1.153767
H 7.4896 12.203 8.68966 0.270486 -0.007655 0.165396
H 3.58248 7.57508 9.5043 -1.032582 0.005791 -0.166675
H 7.50359 10.7308 5.69162 1.573995 -0.16819 -0.414044
H 3.52622 0.42503 4.41718 -1.058152 -1.117965 0.827156
H 4.57623 2.00493 7.98128 -0.077931 -0.231425 -0.046097
H 8.16345 3.20236 0.13548 -1.128502 0.007364 1.210374
H 11.499 3.60885 1.17027 -0.403246 -0.22202 0.522026
H 2.07615 3.23076 6.74016 -0.776769 -1.369003 -0.845019
H 2.1392 8.12867 7.96418 0.074417 -0.079307 -0.310641
H 11.1281 10.2722 7.18763 0.444068 -0.24745 0.308238
H 7.14642 2.04508 0.71311 0.190878 1.662648 0.549504
H 11.2138 7.19059 8.81905 0.125959 0.664136 0.874753
H 3.71121 2.75082 3.35155 -0.233822 1.104519 0.060498
H 4.92286 0.8645 6.97779 0.961012 -0.20591 -0.716593
H 7.06974 6.35768 4.33768 -0.206195 0.254104 1.301001
H 6.84023 11.2237 7.07553 0.057519 -0.416515 0.240843
H 5.75995 0.09713 0.76213 -0.033328 -0.760905 0.451549
H 3.70416 11.0761 0.18843 -0.111592 -0.331564 0.105034
H 11.268 11.967 0.85046 -0.286269 -0.237569 0.475492
H 5.96589 5.56417 2.28232 -0.902317 -0.395389 -0.76762
H 7.07209 5.28884 7.24269 -0.254355 0.453681 -0.495536
H 9.06159 2.50793 5.57252 -0.324828 -0.180661 0.121985
H 6.64751 7.30148 6.4592 -0.669623 1.130827 0.002353
H 11.6728 11.7431 7.39779 1.246957 0.376847 0.450475
H 8.64665 6.40557 9.18286 -0.082559 -0.647009 0.808395
H 11.5213 7.77443 10.5477 -0.479261 -0.479743 0.436232
H 9.10407 4.51644 10.7954 -0.447064 0.917924 -0.998291
H 12.2264 5.20394 8.47365 0.583344 0.508257 1.089449
H 0.80383 9.1282 0.24304 0.029392 0.154249 0.018573
H 2.60983 9.3433 8.81228 -0.511037 -0.263647 -0.14894
H 10.4687 6.33137 7.12922 -0.416606 0.565091 -0.769986
H 2.00552 4.66755 3.98552 1.220963 -0.621072 -0.379603
H 0.23933 3.3777 9.55384 -0.19198 -1.012294 1.0589
H 9.74291 3.8335 2.76479 -0.539202 0.040047 0.885121
H 2.82459 5.40575 7.16961 0.044298 0.911855 -0.759704
H 7.65697 3.94074 6.95359 0.590213 -1.44432 -0.698501
H 0.33704 10.3307 2.79172 0.009518 0.004344 -0.234942
H 4.16228 4.17021 2.78691 1.413588 0.829485 -0.748914
H 8.97144 0.23813 11.1773 -0.5674 -1.158495 0.126006
H 8.20866 6.92724 6.16877 -0.680544 0.329515 -0.127107
H 8.8294 9.41902 2.83816 -0.035133 -0.189162 -0.222758
H 9.65778 10.4364 3.71546 -0.200546 -0.998639 -0.873508
H 10.9175 1.70235 10.3206 -1.80292 -0.506768 -0.048974
H 5.2761 6.40652 10.7779 0.917852 -0.114955 0.38572
H 8.52942 3.19703 2.29961 -1.588335 -0.478188 -0.863831
H 7.7466 5.19538 3.54928 -0.482899 1.007946 -0.354932
H 0.86542 1.16251 7.39438 0.08717 -0.213772 0.618169
H 9.93828 7.11208 12.0163 1.393583 -0.141792 0.014044
H 9.36322 0.76968 9.02432 -0.215967 0.490723 -0.299976
H 6.53893 8.95645 2.12966 1.096203 0.103445 -0.235401
H 4.18268 4.07857 8.66268 1.164375 -1.229773 0.183856
H 8.12976 4.96264 8.92925 0.037488 -0.328917 0.047293
H 11.744 5.00274 1.68534 -0.29084 0.174049 0.632711
H 4.07641 10.5868 5.02434 -0.741102 0.24805 -0.023679
H 12.1462 9.38985 5.54177 -0.103909 -1.223353 0.756216
H 9.58304 1.90513 3.65172 -0.283825 0.635784 -0.071612
H 7.92837 7.27552 0.70624 0.436178 -0.156288 -0.792825
H 5.75799 3.86851 8.48892 -0.062555 -0.293797 -0.003866
H 7.2495 7.80275 2.66397 0.888017 0.006479 -0.270633
H 4.41528 12.1936 2.4425 0.201897 -0.852012 -1.825059
H 4.54542 10.3579 8.50141 -0.632676 0.324246 -0.278738
H 4.51614 10.6336 2.20846 0.403912 1.418859 -1.464264
H 5.03179 8.81891 10.0257 -0.026112 0.397469 -0.168229
H 1.95556 9.49102 11.6415 -0.447072 -0.038657 0.507758
H 0.60095 11.933 4.53416 -0.245444 -0.987723 0.062169
H 1.03898 6.82371 1.61426 1.015132 0.390507 -0.8967
H 8.78215 1.75999 6.93754 -0.542992 0.277879 -0.47708
H 11.4888 6.71868 0.05489 0.394482 -0.503148 1.077374
H 2.38307 5.95555 11.6594 -0.771352 0.85548 -0.722841
H 5.64338 9.28891 6.56387 -0.006992 -0.723453 -0.103618
H 3.94469 10.1425 11.3461 1.296589 -0.179455 -0.543009
H 5.01777 1.61091 11.6446 1.75048 -0.720086 0.50731
H 2.67762 3.39726 1.51063 -0.842767 0.411514 0.723072
H 10.7486 7.78377 5.80754 -0.990255 0.371548 0.944778
H 2.8639 12.1207 10.5463 -0.480154 -0.431542 -0.453854
H 0.66771 6.02931 2.81904 -0.351752 -0.534927 -0.215067
H 4.70633 2.7133 10.466 0.283382 -0.565977 0.392442
H 10.1291 6.89155 4.86145 -1.182859 -0.29512 0.629401
H 9.56716 11.077 2.02715 0.08455 -2.459079 1.102751
H 6.11979 9.60787 10.6861 1.969699 0.053249 0.885886
H 3.21186 2.78224 0.3239 -0.046866 -0.360664 -1.420807
H 6.15499 4.29194 1.51005 -0.651414 0.153917 -0.355981
H 9.5797 0.19263 2.21025 0.181279 -0.04136 -0.084476
H 10.0029 11.0853 5.53423 -0.179669 0.002927 0.580099
H 5.91093 5.54234 11.9712 -0.601179 -0.197476 0.555988
H 4.62894 7.13016 8.48781 0.195982 -0.108508 -1.499182
H 10.1296 5.56476 8.51397 -0.316212 0.527699 0.221005
H 2.7564 7.91662 0.44465 0.164696 -0.095416 0.462311
H 1.56657 7.25606 11.2044 -0.256698 1.214994 0.793842
H 7.10517 0.27015 12.1862 -1.148845 -0.168422 0.464417
H 2.46203 1.84987 6.148 0.658528 -0.303742 0.138237
H 0.37344 7.95607 6.08174 -1.176112 1.567633 0.087929
H 3.96591 11.7734 8.42454 -0.60679 -0.365151 -0.083581
H 7.84951 8.74853 11.5106 0.120882 -0.318967 -0.102973
H 3.47146 11.2858 6.30635 0.025368 -0.525668 -0.196908
H 4.5738 8.24022 6.12896 -0.957639 -0.20901 -0.717656
H 1.37202 5.85993 4.6824 0.463672 0.87801 1.071018
H 7.38844 7.96993 8.61221 -3.327829 0.249105 -0.669755
O 1.6813 2.4011 6.24629 0.692762 1.764673 1.184859
O 6.70084 10.8173 6.18174 -1.554161 -0.013294 0.514436
O 6.28662 0.71579 5.01051 1.11836 -0.265651 1.139495
O 0.2354 1.99646 0.11489 0.968817 0.919187 0.390824
O 6.33142 0.71171 0.27221 0.831742 0.90478 -0.932719
O 8.95584 0.52992 8.14636 1.060727 -1.010088 0.15149
O 5.3348 8.34982 6.68501 1.075678 1.016993 0.859142
O 8.32252 6.93495 12.2552 -0.240986 0.375108 0.624097
O 4.22985 1.19809 7.52748 -0.950578 0.441035 0.359515
O 0.20078 2.07225 4.12121 -0.254417 0.990911 -1.694696
O 9.24334 11.3336 4.98121 -0.061896 -1.797068 0.709931
O 7.48058 8.58546 2.10356 -2.163458 -0.517393 0.521663
O 9.70142 11.8868 1.55144 -0.022931 3.07567 -1.904437
O 5.45877 4.99661 1.61051 1.695142 -0.167128 1.023657
O 9.87201 7.20764 5.76458 1.951836 -0.303799 -1.58134
O 10.9147 11.2086 7.18329 -1.407429 -0.204601 -0.390391
O 7.25786 6.66105 6.0905 1.248119 -1.324684 -0.0121
O 10.9557 7.18182 11.8308 -1.89685 0.620795 -0.900802
O 10.0271 1.09396 3.95171 0.532082 -0.095251 -0.142897
O 3.30956 11.1161 5.34901 0.299776 0.063975 0.365062
O 11.1356 4.23104 1.8373 0.813998 -0.253337 -1.310988
O 8.36396 11.9216 11.5804 0.828155 1.227616 -0.898232
O 4.52243 7.40296 9.38015 0.683158 -0.242872 1.758915
O 9.92736 1.38182 10.4256 1.695679 0.911473 0.118311
O 6.64134 11.7228 8.64389 -0.506527 -0.569858 0.399352
O 9.70613 9.85047 2.87583 -0.06044 0.191597 1.453313
O 11.9248 8.58748 6.12255 1.928185 0.139099 -0.945413
O 10.7611 6.18679 8.04529 1.12931 -0.603679 0.723949
O 8.80791 5.42601 9.47663 -0.273981 0.916416 -1.044172
O 3.43602 3.7086 3.18225 -1.230915 -2.178941 0.479178
O 0.10977 2.46125 10.0157 -0.190506 0.377452 -1.029444
O 7.1122 4.38255 7.59665 -0.330798 0.978881 1.10913
O 11.5992 7.99821 9.56602 0.706314 -0.341078 -1.894311
O 8.87457 3.49201 3.14929 1.971111 0.583768 0.250088
O 0.60789 10.9475 4.6326 1.486495 0.646004 0.354102
O 3.08519 7.23561 1.06377 -0.758767 -0.056283 -0.268611
O 3.75596 10.8396 8.15826 0.999089 0.040832 0.257264
O 8.28335 7.92101 8.77707 3.520953 -0.412392 0.813172
O 3.26901 10.6054 11.8351 -1.316833 0.86127 0.508358
O 2.71189 4.67277 7.76607 -0.760277 -1.111159 0.779754
O 7.84478 9.44964 10.8283 0.429129 -0.036523 1.147053
O 12.2106 12.0845 0.61315 0.473688 0.216717 -0.264202
O 4.60916 11.5497 1.64049 -0.713709 0.245229 2.755959
O 0.61087 0.59962 8.17113 0.373546 0.151465 -0.444321
O 6.0934 6.21155 11.3082 -0.629594 0.087937 -0.910294
O 2.69681 0.40387 9.86009 1.045877 0.755859 1.63953
O 0.28339 6.3516 1.95199 -0.428133 0.082491 0.683295
O 4.9646 3.45249 8.89782 -1.438611 1.388014 -0.247809
O 2.13623 8.47524 8.87639 -0.097282 0.761365 0.351193
O 4.06084 0.9179 3.82065 1.209013 1.069435 -1.12922
O 9.37279 3.88511 11.4645 0.576682 -0.641477 1.365327
O 1.23483 8.82692 11.8276 0.311262 0.149117 -0.363153
O 1.90682 6.41338 10.9164 0.721065 -2.500462 -0.229923
O 2.36336 3.16289 0.60722 0.934249 0.038083 0.526281
O 5.24758 9.73305 10.3585 -1.693945 -0.546977 -1.037732
O 1.18832 5.14158 4.09121 -1.477507 -0.303759 -0.623577
O 7.23809 6.05483 3.44741 0.783149 -1.392836 -1.021282
O 0.54031 4.88051 9.08801 0.09896 0.361986 0.417303
O 8.37078 2.35798 6.24087 0.635736 -0.063223 0.313554
O 7.53018 3.00427 0.91305 0.560389 -1.531382 -1.62546
O 4.3658 2.0902 11.1611 -1.908222 1.312221 -0.749441
O 0.09034 9.86894 1.95731 1.222506 2.524507 -0.150363
Cl 4.47712 9.09887 3.06969 0.155682 -0.428531 0.590313
Cl 2.27395 7.26644 6.04619 -0.186775 0.057744 0.042538
190
energy=-1023.69419061 config_type=nep2xyz pbc="T T T" virial="-7.4696197012601395 -0.8625153998923568 -7.339526593578973 -0.8625153998923568 0.28585497069239785 -3.969993722483608 -7.339526593578973 -3.969993722483608 -0.6779312256111119" Lattice="12.4 0.0 0.0 0.0 12.4 0.0 0.0 0.0 12.4" volume=1906.6240000000003 Properties=species:S:1:pos:R:3:force:R:3
H 10.4735 2.70619 8.60062 0.591604 0.028239 0.698523
H 10.7602 7.90439 7.1378 0.085033 -2.210554 1.041805
H 0.94495 3.82355 6.37481 0.318622 -0.942191 0.951738
H 9.77749 0.6303 3.08668 0.063202 -1.039393 -0.283144
H 1.2385 10.3685 1.06625 0.69189 2.273453 0.393202
H 4.96046 8.316 1.59786 0.194384 0.66247 0.600821
H 9.34094 2.57919 1.53464 0.20497 -0.417623 1.492555
H 1.59945 9.61938 8.50977 -0.525562 0.039381 0.621019
H 2.04459 11.793 0.95291 0.763743 0.098195 -1.550207
H 6.94649 1.87243 7.70869 0.050748 0.211382 0.080215
H 4.44656 5.08374 8.07511 0.163521 -0.028804 -0.142331
H 3.96777 5.07028 3.69687 0.766701 0.198127 -1.517467
H 0.20578 2.92101 9.64981 0.983375 -0.170594 0.384431
H 4.19811 9.74363 2.89095 0.455534 -0.153521 0.212862
H 5.4265 4.74483 6.2004 -0.370154 -0.147128 0.390618
H 12.3095 6.63213 8.14112 -0.154992 -0.219098 0.063003
H 9.42357 10.7109 3.7169 0.144371 0.340766 0.076576
H 7.59673 5.49362 8.71338 0.574918 -0.659334 0.610115
H 11.8899 3.64578 3.32877 -0.945199 1.010906 -0.130036
H 5.9394 1.45412 3.00396 0.460406 -0.369267 -0.336453
H 4.49528 5.83164 0.89582 0.254608 -0.269606 0.44087
H 1.71269 8.4604 12.39033 0.120532 -0.175772 0.064209
H 2.02819 4.47244 0.49532 0.25041 -0.035128 0.188412
H 6.03782 1.69754 11.1328 -0.327002 -0.140636 0.997107
H 7.48622 6.96593 1.80203 -0.224384 -0.811176 0.822796
H 10.3851 3.39747 3.04308 0.751792 0.936872 0.425251
H 8.7726 7.12727 3.22525 -0.818611 0.077047 -0.179983
H 7.7994 10.0349 11.0782 0.328378 -0.29388 0.85842
H 10.6192 1.9235 9.95099 -0.715905 -0.862022 0.812022
H 3.7775 4.80102 5.17289 -0.736415 -0.152595 -0.366154
H 7.95349 10.3637 9.01892 2.114921 1.084436 -1.773232
H 9.68609 6.12675 2.5496 0.260062 -0.804234 -0.47693
H 6.4272 7.51397 2.72911 -0.494641 0.48899 0.494472
H 10.3999 5.89989 8.74842 -0.034894 0.104505 0.269917
H 1.99314 6.37945 9.94559 -1.403891 0.419105 -1.013113
H 2.85254 4.54017 11.2377 0.066746 -0.773093 -0.052253
H 2.76856 0.27402 9.19415 0.8682 -0.30423 -1.66944
H 6.82708 3.33396 8.27363 0.811427 1.578936 -0.441701
H 11.6823 8.79587 5.84006 -0.136835 -0.264603 0.511165
H 4.64337 3.395 6.66293 -0.328264 -0.016011 -0.361228
H 8.94515 0.0842 7.62478 -0.328238 0.603299 -0.172085
H 5.24898 7.61153 8.74312 -0.450121 -0.105652 -0.533427
H 2.59797 10.4147 6.41472 -0.436229 -0.142751 -0.168773
H 6.70558 10.7645 9.78105 -0.526168 -0.03335 0.087901
H 10.4149 5.2462 11.1398 -0.323697 0.277635 -0.773983
H 1.56502 11.5169 4.65421 -1.201274 1.72914 0.141441
H 3.14613 10.7777 2.369 0.361742 -0.033619 0.644951
H 3.13551 11.7601 8.01904 -0.153875 -0.349393 -0.39074
H 2.71606 2.22323 6.20787 -0.172274 0.076649 0.222028
H 8.49857 1.35555 2.42862 -0.353347 -0.637051 0.423545
H 2.39619 0.0559 11.4153 -0.019788 -0.563908 0.07827
H 3.74984 11.6408 11.7345 -1.689853 1.193671 0.693683
H 0.41076 11.9298 9.65053 1.032894 0.557148 0.484788
H 7.11921 0.78215 5.92336 -0.653325 -0.518847 -0.517293
H 1.73246 3.01309 9.18748 0.242093 0.174536 -1.10478
H 2.05931 5.7561 1.40109 0.387055 0.541814 -0.04305
H 8.35425 6.50892 12.1143 -0.090079 -0.845698 -0.854727
H 7.54528 5.34155 6.78843 0.492911 -0.403489 0.034397
H 2.89695 6.82664 11.1985 -0.23784 -1.128621 -0.968601
H 10.3647 8.83202 2.73637 0.432297 0.053264 -0.06534
H 5.66341 5.67927 1.94749 -0.200245 -0.235043 -0.634889
H 4.01138 1.04171 0.1584 1.765319 1.213989 -0.222988
H 1.37242 6.50395 7.60674 -0.937586 0.605313 1.018464
H 3.67784 1.45958 7.15732 -0.256533 -0.36851 0.15848
H 0.91645 8.92479 11.074 0.397809 0.68624 1.391097
H 10.079 11.6978 8.43331 -0.090168 -0.331107 0.049856
H 8.03673 9.05363 12.3371 0.247634 0.070262 -0.317448
H 5.83748 9.00597 8.66089 0.014807 0.081322 -0.214404
H 7.34075 10.6869 1.15006 -0.527854 0.398765 0.280792
H 7.99824 10.3598 3.27752 -1.301709 0.454497 -0.749444
H 11.9443 8.6794 4.02289 0.19657 0.15273 0.364266
H 5.90636 9.54777 2.0962 0.224646 0.526011 -0.153442
H 6.535 11.803 1.97795 -0.045118 0.392317 -0.037751
H 10.3408 5.93649 7.14131 -0.058338 -0.259842 -0.718053
H 8.3121 1.66968 6.28224 0.99542 0.754435 -0.151535
H 11.3165 6.63927 0.2286 -0.530888 1.676 -0.423076
H 10.4363 4.97345 5.15963 -0.229009 -0.036031 -0.560871
H 8.75125 9.92151 5.44746 -0.39163 0.47958 0.91247
H 0.32425 2.49012 6.77885 0.781468 0.258513 0.261586
H 1.04909 0.92471 9.99269 -0.286818 1.370897 -0.080322
H 10.6934 4.24005 0.68938 -0.26219 0.638129 -0.680722
H 8.83138 4.53666 7.27098 1.26846 -0.836794 -0.392248
H 2.57674 10.5907 4.17558 0.72682 -0.798972 -0.118427
H 10.172 9.16138 6.68967 -1.49605 1.203896 -0.075883
H 11.4999 12.1503 3.4534 0.141898 0.43495 0.504194
H 0.97203 0.05537 2.92863 0.015118 0.850451 0.616853
H 3.48187 9.55199 7.43241 -1.265653 0.947625 -0.068589
H 1.69113 3.43193 2.55299 0.256983 0.755266 -1.651512
H 9.68496 0.17611 11.544 -0.662374 0.175048 -0.192166
H 1.97066 3.81079 3.98305 -0.380464 -1.209683 -0.907718
H 3.97695 5.85912 9.51372 0.841504 -0.600058 -1.258052
H 9.38471 7.44346 0.39054 1.429962 0.233935 -0.337879
H 9.81001 6.37635 4.71574 0.288699 -0.392593 -0.729269
H 12.0129 4.8818 0.95004 1.040199 0.22135 0.104436
H 1.23273 5.60703 5.21753 -0.02951 -0.073513 0.282309
H 10.9322 11.1046 10.3953 0.713626 -0.235962 -0.603138
H 5.96289 8.21616 6.72928 -1.008884 -0.202973 1.150238
H 4.65945 0.80906 5.31196 -1.431307 1.299286 1.200407
H 1.0254 1.50007 3.69173 0.217779 0.27859 -0.301669
H 4.53793 11.2597 9.5926 0.790187 0.841618 0.888539
H 7.00764 9.09352 6.16204 1.036719 0.483001 -0.141671
H 6.12118 5.72479 9.42242 0.401497 0.0962 -0.69549
H 11.0374 10.7241 0.37559 0.41036 -0.110356 0.495084
H 12.1617 5.93851 5.48824 -0.045227 -0.471462 0.538811
H 11.3016 8.36617 1.63458 0.045871 0.231126 0.163295
H 6.68408 6.99431 5.46448 -0.155999 -0.589953 0.347321
H 4.29241 2.55654 12.33579 -0.056911 0.350795 -0.101787
H 9.52162 10.6736 12.1864 1.620301 -0.374773 -0.404716
H 5.4153 12.3535 10.2724 1.074393 2.965474 -0.34227
H 8.83881 10.6564 7.03717 0.109873 -0.86161 -1.04432
H 0.91862 8.32808 9.02677 -0.21407 0.426225 -0.414338
H 5.6605 1.72493 1.49823 0.492135 -0.431142 -0.267508
H 7.17596 5.2624 10.5327 0.804914 0.421933 -1.427731
H 7.66021 4.01377 0.05279 0.034778 0.181081 -0.683532
H 11.0694 10.8861 2.76706 0.292951 -1.144217 -0.80421
H 9.36757 2.28399 0.1098 -0.049496 -0.317553 -1.18246
H 6.26002 4.68919 0.1356 -0.330766 0.27814 0.063719
H 10.1222 4.24226 10.0352 -0.392375 1.167539 0.30594
H 2.18136 3.12626 11.1797 -0.156583 0.297159 -0.255382
H 11.9728 10.3714 9.43803 0.177717 -0.823358 -0.300613
H 8.28087 0.96122 10.9988 0.692773 -0.393581 0.097495
H 11.8847 8.22109 12.2889 -1.249437 -1.457946 0.194412
H 0.68824 9.39349 4.92514 0.131819 0.338151 -0.050693
H 4.62033 12.1898 4.16944 0.899887 0.255906 0.602532
H 6.59157 1.85996 9.72027 0.256422 -0.665028 -0.113312
H 6.92852 5.7047 4.57166 0.087456 0.072716 0.074695
O 2.87304 3.63634 11.6508 0.352098 0.727603 0.340625
O 7.31999 10.0199 9.59642 -1.996492 -0.818101 1.613671
O 11.0241 4.15376 3.19158 0.37293 -2.21374 -0.021717
O 1.48134 11.2651 1.50451 -2.060998 -2.777479 1.767659
O 9.88397 5.20213 10.3029 0.858847 -1.607684 0.281238
O 10.2474 5.88331 5.42873 0.330952 -0.119734 1.488271
O 5.22763 0.3201 4.7503 0.744425 -1.481756 -1.993081
O 11.036 7.62077 0.07757 2.024226 -0.22757 0.442208
O 5.21029 8.41636 8.19056 0.213508 0.105038 1.173866
O 6.58703 1.21443 10.5092 0.456307 0.34733 -0.164449
O 6.35323 1.35666 2.11609 -0.409387 0.115804 0.937722
O 8.70198 9.80937 6.45013 0.13493 0.104084 -0.170493
O 0.98169 9.30054 9.23243 0.379082 -0.177232 0.133742
O 7.14357 5.81712 9.59486 -1.759983 -0.410859 2.519945
O 4.73469 5.62923 8.84021 -0.777507 0.975764 1.789104
O 6.5356 2.4554 8.40168 -1.120497 -0.995916 0.130986
O 2.95949 12.1668 12.1724 2.373097 -0.366674 -1.707033
O 10.7025 11.6253 3.23949 0.406376 0.715609 0.432783
O 11.0356 8.77291 6.90422 0.977792 1.245697 -0.538616
O 1.86401 10.6436 4.86049 0.274546 -1.164936 0.314315
O 4.79256 1.74381 0.13131 -2.095905 -1.014803 0.090988
O 8.10079 9.99303 12.0653 -0.503715 0.025446 -0.189249
O 3.27365 4.94062 4.31459 -0.565063 -0.073976 1.987214
O 1.18454 2.80091 9.93128 -1.904312 -0.37424 0.315386
O 10.8786 2.73983 9.54104 0.437314 0.982021 -0.749573
O 6.81889 10.8703 1.97979 0.786933 -0.354078 -0.588342
O 11.3603 11.1247 9.48614 -0.4233 0.804401 0.65051
O 2.75458 6.13942 10.4519 1.476936 0.719401 2.027293
O 1.2894 0.00888 9.89581 -0.837372 -1.279118 0.182103
O 9.16218 11.6673 8.07795 0.238015 -0.248205 0.443914
O 5.10554 5.17188 1.29991 0.245895 0.287879 0.321131
O 3.63819 1.91568 6.29401 0.574363 -0.045455 0.07089
O 4.59081 4.37397 6.583 0.705033 0.474585 -0.305567
O 12.34613 8.73229 4.94257 0.428351 -0.117293 -1.407175
O 7.98123 4.84499 7.55185 -2.010251 1.175568 -0.384394
O 9.23702 3.03046 0.70913 -0.033821 1.076174 -0.865534
O 9.27974 0.96535 11.1281 -0.023672 0.37358 0.20848
O 6.72063 5.96051 5.48368 -0.029226 0.450042 -0.218147
O 0.72586 0.56997 3.7508 -0.159361 -1.566322 -0.69336
O 0.84294 6.88363 8.36533 1.330472 -0.952176 -0.748815
O 10.5241 10.9175 11.9979 -2.120765 0.328242 -0.149761
O 3.77626 10.6002 3.11949 -1.179076 0.728686 -0.748024
O 1.46898 3.12717 3.4159 -0.068547 0.386213 2.511431
O 7.67372 1.06057 6.6514 -0.352282 -0.69968 -0.02324
O 1.18804 2.96783 6.86816 -1.351343 0.756162 -1.121261
O 7.03041 6.74352 2.68495 0.71197 0.125492 -1.303952
O 11.2746 4.97198 0.33904 -0.616266 -0.929826 0.572674
O 11.2771 9.00188 2.40608 -0.588823 -0.046802 0.212487
O 3.46408 0.16552 8.44597 -0.599118 0.570361 1.454032
O 9.69434 6.86019 3.15314 0.190988 1.017012 0.459228
O 8.70966 10.0645 3.83238 1.06277 -0.981767 0.681428
O 8.46967 7.16951 0.38094 -1.619436 0.758213 1.080545
O 7.01372 4.53925 11.9206 0.529593 -0.16724 0.091152
O 6.33016 8.4701 5.88933 0.206874 -0.363718 -1.580321
O 5.39725 8.75937 2.37568 -0.479687 -1.259913 -0.465448
O 0.53434 5.47157 5.88906 0.550534 0.531555 -1.042323
O 2.67068 10.1523 7.36015 1.937652 -1.031227 0.222278
O 1.69334 4.87619 1.32609 -0.958669 -0.825616 0.055288
O 9.35258 1.45599 2.87412 -0.52718 1.938614 -0.135956
O 10.7789 6.28199 7.92598 0.016458 0.352499 0.819791
O 5.16245 11.4638 10.3451 -1.836652 -3.916955 -0.30024
O 0.92479 8.95876 12.0947 -0.833001 0.104152 -1.705842
Cl 3.23588 7.50148 0.76509 0.093507 0.072841 -0.268047
Cl 10.0754 2.75371 6.86214 0.101121 0.152524 -0.916834
190
energy=-1024.41056782 config_type=nep2xyz pbc="T T T" virial="-12.463102979106571 1.657021093381689 -5.982973930113289 1.657021093381689 -9.6285083971151 5.6975235665980914 -5.982973930113289 5.6975235665980914 -10.930284388914448" Lattice="12.4 0.0 0.0 0.0 12.4 0.0 0.0 0.0 12.4" volume=1906.6240000000003 Properties=species:S:1:pos:R:3:force:R:3
H 10.1775 2.44652 8.44129 0.400408 0.635646 0.60457
H 9.48755 7.52491 7.59336 0.365136 0.484371 -0.155407
H 1.31027 4.91094 6.51672 0.595082 0.687586 -0.239948
H 7.22452 3.54174 3.79203 0.458129 0.128033 0.169446
H 1.38383 10.1599 1.67237 0.174996 0.358568 -0.686908
H 4.62801 10.3124 3.58079 -1.481402 0.427229 0.846781
H 9.18768 3.37868 1.86035 0.469558 0.671691 -1.364399
H 2.84803 8.45335 10.6032 -0.805772 0.315272 0.094372
H 1.9278 11.5018 0.93188 -0.299346 0.000118 -0.518028
H 4.65125 2.52073 8.61476 -0.17162 -0.960543 0.758131
H 4.72432 4.47114 6.97149 0.011519 -0.195753 0.112729
H 3.62023 6.61097 3.91754 0.298199 -0.066336 1.899079
H 12.3575 2.90535 9.16279 -0.311612 -0.456716 0.09104
H 2.32802 11.2684 3.03389 0.262338 -0.011744 -0.204703
H 6.2629 3.98719 5.76785 0.347166 0.200677 -0.22964
H 0.39771 6.14667 9.43134 1.160898 0.165439 -0.255735
H 8.77955 11.507 3.70368 -0.712585 0.729596 0.799844
H 8.06125 5.8224 9.10789 0.831027 0.202453 -0.924826
H 11.4465 2.66589 4.94657 0.294954 0.873252 -0.26391
H 5.52583 1.13173 2.68997 0.822583 0.001926 -1.062353
H 4.79523 4.87454 1.84678 -0.419511 0.373868 0.006882
H 2.05231 7.94209 1.54165 -0.286138 0.252806 0.148517
H 1.81838 3.19363 0.55983 0.205273 -0.151939 -0.948862
H 6.37091 2.26764 11.105 0.25361 -0.664689 -0.825032
H 5.84971 6.97009 1.90082 -0.099317 -0.382752 -0.689912
H 10.6175 2.95656 6.10639 -0.311397 0.237346 0.593549
H 9.94319 9.11926 3.42099 -0.821243 1.028989 -0.331262
H 7.69703 9.73543 11.1626 0.932754 0.381088 0.267887
H 10.2113 2.79779 10.0071 0.486221 -0.386073 -0.657727
H 4.18825 5.81678 5.2361 -0.687351 0.968762 -0.546497
H 7.11029 10.4045 9.08788 0.30177 0.355198 -0.417999
H 11.0178 8.20552 2.73714 0.091771 -0.451012 -0.881356
H 5.82173 8.15027 2.89395 -0.023131 -1.077475 0.225654
H 10.4902 6.3647 8.5908 1.61406 -0.582589 1.259415
H 2.66548 5.88312 9.87827 1.345682 -0.334242 0.266063
H 2.00134 2.58563 10.5411 -0.331336 0.059364 -0.313449
H 2.44623 12.0715 6.96156 -1.288557 -0.07152 0.835101
H 4.30388 1.09181 8.01228 -0.044814 0.052173 0.680513
H 10.3555 8.85605 6.51601 -0.562768 -0.40404 0.234232
H 4.19403 3.47439 5.90991 -0.689477 -0.690036 0.069711
H 8.74189 11.8161 7.80278 -1.047313 -1.126911 0.066438
H 4.54442 7.73622 9.35049 -0.284453 -1.251507 0.146868
H 4.32703 8.83867 5.77561 -0.206151 -0.06627 -0.970426
H 6.09316 10.8265 10.2022 -0.394679 0.286761 -0.057907
H 11.4679 5.4235 10.9912 0.197972 0.198075 0.46279
H 12.3138 12.0436 4.82123 -0.23167 0.431399 0.129504
H 2.26726 11.2415 4.54922 0.712138 -0.105337 -0.243112
H 3.65339 11.2076 6.52248 0.160191 0.568146 -0.082712
H 2.23603 2.49281 6.28218 0.45697 0.438423 -0.112303
H 7.24416 2.62431 2.54917 -0.168295 -0.041061 -0.125736
H 5.52277 8.44216 11.544 -0.092472 -0.391751 -0.162891
H 5.63527 6.86703 11.3383 -0.050145 0.771278 0.099532
H 0.58742 0.02473 8.82651 -0.378712 -1.206708 -0.257622
H 6.69366 0.1816 4.56702 0.828905 0.246849 0.570269
H 1.12641 3.56536 8.4041 0.06451 -1.083761 0.499697
H 1.84762 4.49553 1.44009 0.35678 -0.157432 0.047806
H 8.55942 7.3176 0.45292 0.554926 0.204636 0.148557
H 7.59572 5.34927 5.29114 -0.898705 0.930774 -0.060614
H 3.2651 5.56855 11.2838 0.528476 -0.007738 -0.737684
H 10.7587 11.1421 2.37132 -1.491803 -0.900857 1.540708
H 6.19918 4.11469 2.0259 -0.242557 0.518546 -0.409785
H 4.19807 2.55017 11.7425 0.62965 0.409652 0.021753
H 1.07183 6.57243 8.07042 0.732882 0.217882 -0.059844
H 3.25187 1.24994 6.21565 -0.044639 -0.626245 0.112191
H 1.58305 8.63534 0.25224 -0.039185 0.193132 0.069551
H 8.76735 10.2149 7.73624 -0.606151 0.955872 0.055714
H 8.82875 9.37697 12.3163 -0.631368 -0.419038 -0.363774
H 5.32709 9.02718 9.36851 0.429108 0.959377 0.012209
H 7.47779 10.7376 0.52756 -0.370098 -0.07536 0.502095
H 8.46676 10.7391 2.39291 0.640898 0.438822 0.884657
H 11.5097 8.64958 4.90189 -0.295158 0.368552 -0.011358
H 5.61996 10.1077 2.51961 1.070058 0.456534 -1.140093
H 6.8214 11.9951 1.21977 -0.066999 -0.646723 0.645402
H 9.60328 5.85301 7.30236 0.807411 0.895773 0.482153
H 8.05472 0.62575 5.42678 -0.687961 -0.082857 -0.141058
H 11.6935 6.52918 0.90828 -0.12038 0.199904 0.021968
H 10.4064 4.87384 5.42514 -0.112575 0.37553 -0.132105
H 6.59754 9.47627 4.85453 0.400251 -0.316328 -0.021414
H 0.29769 3.8175 6.32558 1.099023 -0.438732 0.229689
H 1.14503 1.18822 8.16909 -0.338766 0.05357 -0.611516
H 10.9457 4.64979 0.7631 -0.364562 -0.337476 -0.484853
H 7.63849 3.34776 6.14253 1.358328 -1.32401 1.12471
H 0.38493 12.0192 6.32087 -0.443857 -0.078279 0.059983
H 8.69141 8.74441 6.26227 0.522329 -0.204974 0.651285
H 3.23765 12.0477 11.3533 -0.874734 0.323489 0.273097
H 11.7161 0.66237 3.07673 -0.149661 0.761134 0.703354
H 4.03266 9.14917 7.1821 0.099171 0.712324 0.218346
H 2.19364 2.82898 2.84047 -0.694996 -1.227262 0.160044
H 10.002 1.05103 11.5569 -0.431238 -0.36222 -0.252538
H 2.6133 2.38561 4.27018 -0.391669 -0.657616 0.016597
H 4.54667 4.6662 9.52958 -1.217359 0.790156 1.21926
H 10.0776 7.87381 0.84361 -0.608759 -0.240115 -0.198542
H 9.94795 6.24684 4.81502 -0.019772 0.82766 -0.844953
H 0.05526 4.59499 0.83874 0.24584 -0.265752 -0.599894
H 2.07891 6.83189 5.69411 1.315901 -0.020328 -0.580059
H 11.7524 11.5083 10.781 -0.329661 -0.338455 0.225677
H 6.47565 7.04233 7.9774 0.40438 -0.330817 -0.141594
H 4.46804 1.21794 4.73267 0.515577 -0.487925 -0.708467
H 0.52918 1.50077 3.6556 -1.025614 -0.126774 0.374635
H 5.02922 0.40193 10.1748 -0.165216 -0.187466 0.175768
H 6.16367 8.18516 7.02622 0.143289 0.544746 -0.193816
H 5.94977 4.58946 8.94738 0.984746 0.416636 0.36202
H 10.6765 11.6992 0.21791 0.190306 -0.088448 0.125387
H 0.58313 7.21347 5.93679 1.021415 -0.637556 0.627461
H 12.2052 11.418 1.69004 -0.923817 0.021585 -0.264486
H 7.15615 7.03334 5.70191 -0.145585 -0.540135 0.862887
H 5.16933 3.39072 0.35358 -0.007961 0.132748 -0.560325
H 9.64134 11.0709 11.5931 0.96692 1.139084 -0.335
H 5.5509 0.09166 11.5546 1.6313 1.257731 2.095817
H 7.52719 10.2559 5.70582 0.663785 2.700705 0.709843
H 1.54244 7.86239 10.0613 -0.002802 0.114267 0.265478
H 5.55175 1.67772 1.17603 0.234964 -0.022819 -0.043127
H 7.5991 5.68441 10.5073 -1.042329 0.51997 -0.538742
H 8.40951 4.98486 0.33509 0.753156 -0.586954 0.211535
H 1.62217 12.1434 11.1072 0.304811 -0.546381 0.282185
H 9.40121 2.9267 0.31525 0.651473 0.372135 0.299079
H 6.98518 5.50724 0.40744 0.653994 0.27855 -0.504346
H 11.3287 4.41487 9.84081 -0.070504 1.53696 -0.437572
H 2.30267 1.58002 11.7353 -0.022142 -0.504207 -0.404217
H 0.44448 10.3549 10.545 -0.209197 0.943962 -0.32616
H 8.69241 1.84179 10.9744 0.13239 -0.502585 0.441361
H 0.04349 7.90422 1.15923 0.043232 0.227541 0.068888
H 12.0726 9.79833 5.83948 0.228306 0.49593 -0.215486
H 4.13959 12.3937 3.89978 -0.724471 -0.673722 -0.113639
H 6.78197 1.71443 9.63427 -0.214745 0.187516 -0.075382
H 6.68281 6.50173 4.17867 1.23573 -0.132223 0.781973
O 2.39419 2.50065 11.4248 0.579719 0.543879 0.820993
O 6.47376 10.0562 9.73713 0.288509 -0.386113 0.60603
O 11.2666 3.44383 5.55701 -0.238076 -1.631534 -0.439564
O 1.30182 11.1572 1.59802 0.502885 -0.067048 1.172475
O 11.4336 5.40856 10.0173 -0.110973 -1.136394 -0.387239
O 9.89702 5.7106 5.59204 0.226571 -1.35007 1.146011
O 4.88573 0.58 4.10631 0.253304 1.192171 0.807416
O 11.5607 7.47435 1.1922 -0.024713 -0.298712 0.135683
O 4.44362 8.65994 9.1656 -0.645745 -0.052554 -0.384955
O 6.99621 1.66686 10.5701 0.404147 0.581473 0.714569
O 6.12191 1.28466 1.86943 -0.793173 0.01198 0.859194
O 7.29798 9.37483 5.53554 -1.100247 -1.894077 -1.113689
O 1.87923 8.43807 10.7923 0.727764 0.053125 -0.067145
O 7.24356 5.90694 9.58225 0.065473 -0.670853 1.588854
O 5.07424 4.21966 8.88058 0.382728 -1.329764 -2.162844
O 4.4364 1.56835 8.86036 0.330779 0.555665 -1.076971
O 5.88502 7.62159 11.9043 0.02782 -0.318403 0.221174
O 2.35125 12.2761 11.7655 0.72547 -0.204125 -0.403844
O 9.41226 8.67055 6.96826 0.526083 -0.411201 -0.597048
O 0.08908 11.4557 5.57629 0.651998 -0.346761 0.077682
O 5.14699 2.70608 12.0192 -0.965881 -0.402074 0.326735
O 8.41067 10.1188 11.7465 -0.509635 -0.434255 -0.032772
O 3.74953 6.6701 4.9366 0.245423 -0.645084 -1.282686
O 0.93264 2.85067 9.08679 0.651967 0.958729 -0.674688
O 10.6685 3.00164 9.13427 -0.606074 -0.285262 0.681669
O 6.93928 11.0178 1.33778 0.253244 0.638895 -0.765266
O 0.18323 11.2735 10.2884 0.870557 -0.463708 0.035985
O 3.54823 5.6363 10.3392 -2.06572 0.756192 0.616945
O 0.79602 0.29742 7.91087 0.769972 1.041038 0.715675
O 8.15294 10.9999 7.83078 1.677575 0.196922 -0.080711
O 5.54903 4.51781 1.35928 0.696264 -0.248709 0.44617
O 3.09716 2.16869 5.92757 0.037341 0.670794 0.119551
O 4.76941 4.24633 6.01552 0.52937 0.882078 0.34279
O 11.7729 8.86931 5.83935 -0.427611 -0.771873 0.350829
O 7.25983 3.95835 5.53663 -1.417574 0.938927 -0.892647
O 9.57522 3.67015 0.98046 -1.104039 -0.749797 1.051924
O 9.57958 1.93247 11.4203 -0.353785 0.738937 -0.314006
O 7.31843 6.3513 5.01568 -0.484611 -0.516413 -3.045907
O 11.9677 1.2074 3.87639 1.327205 -0.428504 -1.202705
O 1.26021 6.54464 9.03194 -1.642138 -0.666582 0.452795
O 10.4325 11.7368 11.653 -1.149104 -0.471371 -0.18247
O 2.92518 11.1669 3.81758 -1.010636 0.294074 0.383099
O 2.14679 2.04956 3.47629 0.44114 1.454278 -0.589976
O 7.63792 12.399 4.7999 -0.176496 -0.277196 -0.28969
O 1.25981 3.94985 6.63534 -1.721499 -0.317844 -0.069537
O 6.08254 7.1896 2.79788 0.169866 0.906344 1.031494
O 11.7394 5.01675 0.30856 0.037415 0.102758 0.788739
O 11.1961 11.5557 1.65947 2.46088 1.37051 -1.154531
O 3.36091 12.1388 6.71933 1.109607 -0.645109 -0.355343
O 10.6107 8.45997 3.5676 0.660551 -0.84689 1.257259
O 9.1758 10.8968 3.08887 -0.311925 -1.48798 -1.354649
O 9.1074 8.08901 0.72938 -0.083983 0.285713 -0.060681
O 7.85477 5.6765 12.3516 -1.302429 0.002239 0.164618
O 6.70585 7.39194 7.09748 -0.683259 0.268591 1.481095
O 5.18459 9.63623 3.2236 0.764984 -0.6111 0.257273
O 1.33145 6.61802 6.25213 -2.382434 0.847022 0.125088
O 4.22413 9.61469 6.33634 -0.039067 -0.902847 0.956922
O 1.47795 3.58602 1.37091 -0.496509 0.586518 0.83114
O 7.46037 3.54038 2.8425 -0.2407 -0.597995 0.03348
O 9.69222 6.47757 8.10533 -2.660344 0.100255 -2.228324
O 5.06021 12.1079 10.8805 -1.844551 -1.145228 -2.359124
O 1.44381 8.67431 1.23206 0.730177 -0.734308 -0.677301
Cl 2.86818 6.15821 1.87526 0.302356 0.054039 0.085804
Cl 9.0009 1.76354 7.13647 -0.302577 -0.044593 -0.447472
190
energy=-1024.3026115 config_type=nep2xyz pbc="T T T" virial="-17.437284114558302 -0.7554015998339798 6.846893554914755 -0.7554015998339798 -16.008985078406035 -7.153526294177525 6.846893554914755 -7.153526294177525 -20.58261700864002" Lattice="12.4 0.0 0.0 0.0 12.4 0.0 0.0 0.0 12.4" volume=1906.6240000000003 Properties=species:S:1:pos:R:3:force:R:3
H 0.80919 12.1438 8.44802 0.192067 0.143228 0.376791
H 4.3516 4.18012 5.65107 -0.221346 -0.457679 -0.407614
H 4.13776 7.8247 5.54561 0.092233 0.087604 -0.189575
H 8.56463 3.81623 6.43523 0.629339 -0.66572 -0.662196
H 11.7433 4.27346 3.19368 0.556649 -0.44364 -1.519044
H 4.49025 5.96524 6.63506 -0.064747 0.59955 -0.510154
H 8.86524 4.44791 4.13468 -0.016469 -0.334684 -0.531624
H 0.71877 11.5547 10.8818 1.042684 0.704252 -0.253212
H 11.8936 4.98084 1.86955 0.296743 2.318646 -1.123299
H 9.80685 0.81109 7.29911 -1.201724 0.002444 -0.459829
H 1.39153 4.73154 7.72203 0.956172 -1.526164 -0.839952
H 2.10035 3.00109 1.11671 0.252172 -1.018332 -0.296468
H 8.25583 0.72833 0.62018 -0.265506 -0.011864 -0.011102
H 12.1046 0.3806 3.97358 -0.321979 -0.130765 -0.031478
H 7.46265 7.62499 5.11655 0.195431 0.197551 0.297046
H 11.1494 5.057 10.6838 -0.665801 0.59071 -0.248629
H 9.60611 4.09508 0.08094 -0.072751 0.131201 0.273845
H 11.2797 7.0805 7.01519 -0.863438 -0.386029 -0.80732
H 7.43783 9.08298 0.57557 -0.375726 0.480619 0.035386
H 4.97083 11.8486 1.60341 -0.109444 -0.842881 -0.802847
H 12.2585 3.86835 10.9572 -0.037966 -0.303727 -0.017338
H 2.84756 7.80041 9.32907 -0.164484 1.767403 -1.211222
H 11.336 7.36569 0.60144 -0.143528 0.017929 0.35459
H 11.9838 3.45039 5.97765 0.368473 -0.46536 0.375645
H 4.99154 0.19953 0.28081 -0.25534 -0.595201 -0.099519
H 6.4367 8.4772 1.60189 -1.363956 -1.14356 -0.192914
H 7.49123 11.2027 3.78664 0.630192 -1.03504 0.013123
H 8.30461 11.0021 11.6371 0.89405 0.898969 0.057096
H 12.2796 0.63731 9.35839 0.916724 -0.65566 -0.148905
H 1.38526 4.19877 1.53509 -0.943396 0.665391 0.272206
H 8.17126 8.94529 6.84747 0.270498 -0.373878 0.100671
H 7.57067 9.78575 3.01515 0.490791 0.934533 0.388461
H 3.79371 10.5418 0.0055 0.019406 0.090642 0.266812
H 4.35363 6.09719 10.1469 -0.006784 -0.465925 0.324116
H 0.49154 2.08549 12.0255 0.535528 -0.354209 0.981297
H 2.84229 2.42601 8.03543 -1.061177 1.090551 -0.217851
H 10.9969 9.17923 11.8476 -0.450685 -0.956153 0.564692
H 11.2997 1.42139 6.97631 -0.59213 0.167459 0.442674
H 10.9472 10.7948 4.94111 -0.364523 0.07773 -0.749128
H 0.47833 6.00427 7.80068 0.540433 -0.299263 0.809554
H 1.7253 11.607 3.459 -0.29123 -0.28891 -0.559805
H 2.3931 10.2174 11.8351 -0.253195 0.283372 0.076027
H 3.99218 10.1381 10.5051 -0.511988 -0.207347 0.804682
H 7.98734 10.0857 7.89429 -0.130062 1.584507 -0.033323
H 10.3397 0.78969 9.40775 -0.045131 0.873579 -0.490924
H 0.25306 10.5016 2.40827 0.284087 -0.486057 0.228149
H 11.8554 1.95758 3.77154 1.314528 -2.392168 -0.63147
H 3.80504 9.92244 8.94049 0.442799 0.270407 0.633737
H 7.4387 0.09518 6.99699 0.392501 -0.186644 -0.046482
H 9.39906 2.77173 5.43376 0.017614 -0.957448 -0.019074
H 0.33969 6.88375 2.46551 0.092614 0.279846 0.222307
H 2.08664 4.2812 11.751 -0.016745 -0.39988 -0.53633
H 4.68543 11.8539 9.34407 -0.337314 0.563999 1.004315
H 2.41188 3.14481 10.4723 1.00549 0.53415 -0.234493
H 8.41192 2.20492 1.07036 -0.518881 -0.156717 -0.166075
H 9.881 7.62279 1.12802 0.647646 0.093576 0.007268
H 2.444 7.19536 11.5698 0.06076 -0.619582 1.178769
H 11.2718 9.944 10.5192 -0.030782 -0.33066 -0.83835
H 11.5717 2.00361 11.2017 -0.382125 0.071346 -0.28636
H 10.4498 3.51163 1.32766 -0.64456 0.24572 -0.476891
H 0.08607 4.81686 9.59265 0.00513 0.548782 -0.434853
H 0.45789 1.22612 1.70771 1.29827 0.125218 -0.420784
H 9.73183 6.39537 11.9936 0.456023 0.161097 -0.287664
H 7.81723 0.71323 8.28063 0.255312 -0.189321 0.171073
H 2.17134 6.37482 9.2718 1.19683 1.269543 1.032864
H 2.04964 0.69005 3.87809 -0.345454 0.302618 -0.253352
H 9.88119 11.2267 11.8068 1.095174 -1.002428 0.15718
H 1.07063 6.71963 1.09621 0.663873 0.231994 -0.359508
H 6.71442 0.79635 4.28889 -0.202175 0.158133 -0.254715
H 7.06327 0.86158 2.70056 -0.03546 0.423716 -0.456792
H 9.85306 10.7812 3.80073 -1.161542 -0.480623 -0.175219
H 4.51693 4.88095 7.65468 -0.062291 -0.438125 0.444658
H 10.2 0.48001 4.44072 0.16797 -1.534763 -0.371216
H 5.76098 5.44073 10.3066 0.570907 -0.029046 0.333095
H 3.39219 4.54451 10.9585 -0.632846 -0.519139 -1.238255
H 6.84747 9.45254 10.8278 -0.371319 -0.069674 -0.501938
H 9.56202 5.38414 5.72063 0.805493 1.36303 0.198243
H 7.10841 8.66238 8.77316 -0.76819 -0.271352 1.35696
H 2.69381 7.24589 5.57106 0.575401 -0.15391 0.277486
H 4.88321 0.63483 8.46175 0.366603 0.691919 -1.121793
H 8.82934 6.36716 2.9831 0.282796 1.321777 -0.449094
H 8.03852 9.01514 4.73778 0.398324 -0.37913 0.611131
H 11.1219 11.8 6.81829 -0.06048 -1.447572 0.280809
H 4.30319 2.75751 4.97317 0.030762 0.421454 0.111589
H 3.62809 1.48387 9.77289 -0.146452 -0.351484 0.271266
H 6.37031 1.70894 0.41406 -0.451128 0.526137 -0.509548
H 5.62552 8.90997 9.41364 0.395697 -0.009786 0.322347
H 3.67544 11.4205 3.93947 1.599624 -0.046166 -0.182574
H 9.97472 9.33741 8.6175 0.826434 0.176588 -0.279916
H 4.94116 11.7678 4.72231 0.246693 0.072126 -0.18601
H 6.74014 4.55622 7.54816 -1.545992 0.201979 -0.849989
H 3.11094 7.71841 0.44777 -0.355152 -0.2699 0.2547
H 9.53745 6.92367 5.21783 0.333242 -0.229124 0.384422
H 8.42719 7.91338 2.39524 0.251561 -0.774635 0.275398
H 11.3035 5.23465 5.01974 1.33992 0.105631 -0.447819
H 2.2194 9.90266 7.51674 -0.020741 0.221678 -0.206976
H 4.25882 4.56833 2.99938 0.994866 0.055182 -0.579011
H 5.07175 9.67511 4.19634 -0.441883 0.476713 0.237123
H 1.28487 9.49341 3.03905 -0.317116 0.152546 -0.237071
H 8.4373 2.03187 9.69041 -0.241821 -0.259429 0.514059
H 3.64002 4.70578 1.67535 0.285624 -0.124685 -0.605767
H 7.50748 3.58629 8.50293 -0.282224 -0.459973 0.216877
H 1.75474 11.685 5.91416 -0.13914 -0.135311 0.727818
H 0.5024 5.28138 4.68087 -0.444479 0.353317 0.003889
H 5.23369 2.82789 0.28001 0.420546 -1.724852 -0.501775
H 7.36683 5.56121 9.12309 0.445627 0.490617 0.553584
H 1.26944 0.32905 0.73998 0.252967 -0.784518 -0.729931
H 0.50557 11.021 6.66161 0.744527 0.476893 -0.082489
H 6.81921 1.76874 10.0533 1.857297 1.093156 -1.422777
H 7.08851 6.97769 9.87102 -0.489313 0.892445 -0.326561
H 0.21633 10.8081 11.9821 1.012017 0.167556 0.406626
H 8.76017 1.1469 4.12504 0.799164 -0.534269 0.028758
H 8.74108 5.72281 10.9407 0.417636 0.031295 -0.098128
H 4.94474 6.32645 1.47804 0.319392 1.641119 -0.049725
H 2.0152 1.29187 9.77176 1.019878 0.838573 -0.049823
H 8.95485 4.52586 2.44779 -0.497705 0.072931 1.646118
H 5.1103 7.43108 0.30205 0.009049 -0.355952 1.895216
H 9.6063 0.51002 10.684 0.271533 1.566324 -0.099315
H 2.80276 2.92286 6.54482 -0.328617 0.7289 0.77012
H 3.11802 8.616 7.20128 -0.568388 0.207548 0.571979
H 11.3723 8.70544 8.28325 0.277228 -0.347186 0.091222
H 6.212 10.5666 11.8902 1.3212 -1.075069 -0.411448
H 11.2771 10.2488 7.36852 -0.639254 -0.004123 0.715987
H 5.2495 8.20287 3.71511 -0.519608 0.637412 1.079345
H 0.77425 2.85677 6.84765 -0.473724 -0.208863 0.088275
H 0.22801 7.71833 6.62544 0.043059 0.200049 -0.493961
O 2.38967 3.10025 7.44384 1.389239 -1.261834 -1.156372
O 8.29961 9.19745 7.80663 -0.13412 -1.016655 -0.03601
O 7.21766 9.00346 1.52268 1.634788 0.525552 1.031906
O 11.8459 4.09671 2.1667 -0.488939 -2.112237 2.351817
O 10.0129 1.3292 10.1611 -0.389492 -2.521445 0.800656
O 10.0651 6.26363 5.73811 -0.586898 -1.195406 -0.281153
O 5.0273 8.74523 4.52139 0.928899 -1.34602 -1.435123
O 7.02175 10.0196 11.6101 -0.801551 1.428444 0.690602
O 3.30357 9.86855 11.8924 0.191341 -0.40729 -0.000322
O 12.204 2.78381 6.67423 0.016456 0.275174 -0.363944
O 9.66636 1.25294 4.53828 -0.897314 2.364108 0.507659
O 6.49239 8.45645 9.5977 0.490949 0.708141 -1.736634
O 1.04229 11.3657 11.7877 -1.557731 -0.825598 0.164087
O 7.34502 6.06184 9.99416 0.356668 -1.90291 -0.044998
O 7.57438 4.39352 7.95654 1.518929 0.191415 0.079302
O 10.7451 0.72199 7.44015 1.90125 0.156865 0.157757
O 0.22109 6.582 1.55145 -0.525392 -0.169136 -0.047834
O 2.7538 1.99509 9.80252 -1.508664 -1.141094 0.201795
O 3.83665 3.61932 5.0017 0.255973 -0.171203 0.165648
O 11.3529 10.8088 6.57812 0.491787 1.634638 -1.495332
O 1.22256 1.23807 1.04493 -1.414455 0.881368 0.892495
O 9.05944 11.6995 11.7546 -1.958367 0.421953 -0.307416
O 2.09053 3.94579 0.93406 0.25285 0.205223 0.00781
O 7.73868 1.462 1.01688 1.329716 -0.131288 0.099965
O 0.67748 0.04969 9.38479 -0.780193 0.813519 -0.718049
O 7.37548 0.63504 3.5801 -0.150393 -0.590333 0.946845
O 2.67965 9.14226 7.93427 0.684328 -0.390203 -0.434998
O 12.3675 2.54102 11.3536 -0.278797 -0.146544 -0.514071
O 4.71775 0.47305 9.3874 0.36198 -1.085627 0.030389
O 2.13921 12.1721 4.13098 0.807861 -0.686911 0.876094
O 12.0839 4.78752 10.5068 0.156005 -0.105765 0.555297
O 8.15795 0.02043 7.66812 -0.888 0.418311 -0.157372
O 1.02022 5.33791 8.33395 -1.543956 2.001408 0.598441
O 10.7213 11.1048 4.00881 1.735171 0.399926 0.984706
O 8.21306 8.20567 5.33534 -0.787748 0.496441 -0.446334
O 8.61844 4.93207 3.3136 0.209565 -0.458078 -1.406428
O 10.9569 9.50357 8.67244 -1.100709 -0.203965 0.962188
O 12.057 7.50557 7.38302 0.61684 -0.292169 0.638119
O 1.19188 10.2308 2.39855 -0.228985 0.342067 0.334352
O 9.62811 5.62369 11.3876 -0.242333 -0.721656 -0.248286
O 1.46077 11.3824 6.81556 -0.570499 -0.330417 -0.48756
O 0.04 1.14796 3.49576 -1.361802 2.787719 0.341509
O 4.69286 11.2704 3.91094 -1.557876 0.2796 0.093838
O 2.42263 4.20412 10.7823 0.794724 0.345074 1.872224
O 3.55933 7.2366 6.08767 -0.231636 0.229672 0.184459
O 4.92057 11.6607 0.62744 0.465233 1.546606 0.882798
O 9.15655 7.30407 2.67146 -0.367073 -0.076864 -0.339814
O 5.49136 1.911 12.3489 -0.257977 1.295888 0.700803
O 11.2731 10.0224 11.4774 -0.042215 1.016967 0.283142
O 7.91924 10.2893 3.81774 -0.81127 0.388738 -0.96214
O 9.55645 3.49722 0.85896 0.542291 -0.182926 0.561758
O 2.53492 6.9842 0.15748 -0.075456 0.677947 -1.372656
O 5.11124 7.33573 1.30779 -0.20695 -1.355389 -1.566697
O 4.54457 4.71764 2.05465 -1.217712 0.040378 1.094883
O 5.02043 5.17436 6.89024 0.02585 -0.163764 0.204277
O 12.1126 4.70674 4.68114 -1.304531 0.061035 0.615332
O 4.45202 10.2622 9.64703 0.039585 -0.360867 -2.081903
O 10.4702 7.73828 0.31659 -0.438332 -0.106355 0.295531
O 9.18526 3.68607 5.659 -0.758224 1.49696 0.860555
O 4.82152 5.31383 10.5335 -1.112037 0.448636 -0.282431
O 7.50778 2.17534 9.39559 -1.564042 -0.998239 1.155052
O 2.79224 7.00454 9.81764 -1.220276 -2.930384 -0.053906
Cl 5.49344 0.91899 6.08269 0.006531 0.047436 0.090615
Cl 1.13357 7.56845 4.52398 -0.366727 -0.009991 -0.129804
190
energy=-1021.52229979 config_type=nep2xyz pbc="T T T" virial="-5.85522516401767 -4.217446711975208 2.3083910478306744 -4.217446711975208 -1.9092222670998515 -1.9766845637925456 2.3083910478306744 -1.9766845637925456 2.00625658836149" Lattice="12.4 0.0 0.0 0.0 12.4 0.0 0.0 0.0 12.4" volume=1906.6240000000003 Properties=species:S:1:pos:R:3:force:R:3
H 10.5315 8.79308 5.98853 0.525432 0.368998 0.321336
H 8.8495 5.21772 4.38176 -0.365521 1.351398 0.601375
H 3.85265 8.61279 3.52822 -0.11024 2.292424 -1.385029
H 0.53948 2.90217 7.34306 1.810667 -1.701394 0.795183
H 3.67329 3.64706 11.8237 1.027748 0.118822 -0.129653
H 4.44769 10.4926 9.537 -0.389128 0.304214 0.289728
H 2.59945 6.54586 4.58212 0.228746 -0.00655 -0.416209
H 3.67947 11.0863 0.91133 -1.69654 0.242842 -1.130863
H 0.94963 4.68623 1.2031 1.022837 -0.617193 -0.326823
H 7.59648 11.6487 3.7376 -0.33218 -0.581993 -0.339011
H 8.78393 7.47458 9.38023 0.38803 0.42677 -1.090657
H 3.78289 7.83599 12.058 -1.014474 -0.486994 0.712245
H 11.2497 4.182 11.8384 0.728666 0.381519 -0.580495
H 2.34356 0.51601 11.0653 0.266837 -0.200381 -0.529863
H 4.68039 8.25071 5.21713 -0.465569 0.202856 0.091214
H 0.0408 4.30122 7.25166 -0.107285 -0.122786 0.070617
H 6.9335 2.44768 9.5053 0.811791 0.52693 -0.554405
H 5.94579 4.76731 11.515 1.066727 2.442861 0.325052
H 5.47873 11.3522 3.92129 -0.458783 -1.236241 -0.021448
H 5.513 12.2121 0.46246 0.438692 0.699291 -0.717294
H 2.21233 3.74267 1.39719 0.65157 -1.862443 1.664464
H 8.8692 12.1822 10.9624 0.03389 0.547384 -0.422828
H 2.00883 0.89726 7.77891 -1.619689 -0.433503 -0.711103
H 9.57409 7.87804 5.21145 -0.512252 -0.199399 -0.179206
H 10.6432 0.10343 8.72665 1.253671 0.324729 -1.066718
H 4.72688 10.1855 4.71393 0.438977 -0.534767 1.014353
H 4.6559 1.40647 5.65352 -1.212239 0.041172 -0.336468
H 10.4166 1.1816 10.4318 -0.866985 -0.374974 -0.063107
H 4.48313 11.1854 2.08057 0.863267 -0.542415 -0.657302
H 4.50507 7.02528 7.1353 -0.418199 -1.29873 0.184298
H 6.20418 9.02472 7.0703 -0.067841 0.030492 -0.313604
H 2.92783 12.2693 4.57237 -1.622761 -0.749861 -0.241409
H 3.76495 2.75642 7.00683 0.031115 -0.450402 -1.234354
H 10.0908 5.82407 1.10136 0.227089 -0.612215 0.747464
H 11.7212 6.13636 3.41025 -0.76607 1.548435 -0.225969
H 9.98211 0.51476 5.31056 1.177939 -1.393508 0.167301
H 0.45004 7.12409 7.11757 -1.764261 2.094798 0.067819
H 7.68361 10.9391 7.99468 0.13037 0.802088 -0.41495
H 8.80298 5.09483 0.8996 -1.097532 -0.151165 -0.259504
H 9.90257 8.42058 8.65697 1.334545 -0.361368 -0.680309
H 3.73594 2.33095 4.75618 -0.009074 -0.067695 0.236842
H 3.77291 4.3279 7.37466 0.207722 -0.428128 -0.319678
H 11.7793 6.69699 12.0751 0.193202 0.873019 -0.682033
H 7.61263 8.92426 7.84155 0.482293 -0.539336 0.173275
H 11.8579 0.13108 11.4976 -0.166018 1.079829 0.538662
H 0.52638 10.5507 11.8621 0.799774 0.511502 1.689668
H 2.92895 12.0723 9.80979 0.380829 -0.176621 0.306869
H 6.57389 1.75842 6.14804 0.506307 1.58881 -0.302737
H 5.90917 5.63913 7.17257 -1.282489 -0.001059 0.322612
H 9.06897 4.57989 3.01447 0.315839 0.186227 -0.177576
H 7.61643 7.14339 4.27969 -1.383995 0.156998 -1.334069
H 8.59082 12.0592 8.65862 -0.828174 -0.108826 -1.174483
H 7.5661 5.7176 10.1196 0.319047 -0.102416 -0.582132
H 10.7702 9.25405 11.1686 -0.534719 -0.340182 0.294504
H 8.10981 3.48182 8.92143 -0.591543 0.88011 0.135844
H 1.84287 0.03247 5.62357 -0.742179 0.044009 -0.43971
H 10.8628 11.8177 1.11569 0.296336 0.450929 -0.105719
H 1.53578 6.4836 7.90065 1.599171 -0.068494 2.362804
H 9.93182 5.7248 9.9142 0.277368 0.491838 0.120195
H 3.2686 4.59171 4.59665 0.538665 0.04312 -0.661866
H 3.22169 10.5933 8.41461 0.531765 0.232602 1.78346
H 10.3965 3.59806 0.43427 -0.371533 -0.357565 0.800851
H 11.8179 3.37859 5.60721 -1.10436 -0.391557 -0.152335
H 6.94012 4.63348 6.54636 -0.243685 -0.856899 -0.750678
H 4.77455 8.39904 11.1278 0.786853 0.238838 -0.44148
H 5.76747 3.55183 4.60348 -1.235564 0.72674 -0.488246
H 9.13609 1.7539 9.61193 -0.844484 0.564805 -0.251715
H 7.6647 6.57529 5.75228 0.51706 0.360521 -0.967017
H 11.8001 8.37259 2.1265 0.24282 0.377885 0.809715
H 10.9734 8.41743 3.51769 0.124878 0.374337 1.033064
H 0.51696 0.26912 7.60803 -0.156506 0.239269 0.572977
H 5.97878 3.68697 2.06539 0.059699 -0.299596 -0.316971
H 11.84 4.45019 4.27371 -0.658097 -0.218 -0.783186
H 11.9389 6.81908 1.23845 -0.115178 -0.448095 -0.830177
H 11.6847 11.3454 8.61158 -0.260317 0.61616 -1.086291
H 9.49753 8.65203 10.5371 -0.216573 0.347871 -0.464857
H 0.83304 11.3909 4.10224 0.118464 0.519402 0.457161
H 6.11352 1.56975 1.12553 0.0854 0.052175 0.235088
H 1.7062 2.74545 9.85455 -0.084517 0.149778 -0.20529
H 7.75071 5.51288 8.4849 0.108548 0.575458 0.838171
H 0.84673 5.68765 4.08772 -1.224899 0.038254 -0.413092
H 11.5637 11.4836 4.66258 0.897644 0.174135 0.023567
H 1.63783 9.50386 6.95018 -1.201582 -0.432128 0.149396
H 10.4051 3.52966 4.61082 -0.31907 0.424104 0.100647
H 0.97004 9.89288 1.63814 0.564217 0.150459 -0.389708
H 2.47557 3.3465 8.62741 -0.283071 -0.140487 -0.059838
H 9.57271 8.18128 1.98347 1.199726 -0.550236 0.540255
H 6.28715 1.15463 2.61955 0.212712 0.735796 -0.182118
H 6.08751 9.55456 9.21616 0.279119 -0.334654 -0.482093
H 4.82831 7.30515 3.35066 -1.354517 1.547756 0.587754
H 2.41911 4.98154 9.4957 -0.455015 -0.126416 0.409001
H 10.3247 10.7585 2.11082 -1.246149 -0.920998 0.159131
H 4.13284 9.35974 6.28758 -0.06893 -0.968797 0.007819
H 12.0783 6.76289 10.3058 0.017713 -0.354561 -0.438307
H 7.00598 0.45786 6.94999 -0.586513 0.138668 -0.747137
H 8.81281 8.4929 0.73075 0.144803 0.441142 -1.543374
H 2.39734 6.20185 0.31671 0.018279 -0.77802 0.48766
H 6.90507 7.45566 2.23464 1.056922 1.325847 -0.981961
H 1.09961 10.7061 10.4152 -0.910516 -0.580644 1.010636
H 5.36878 0.99658 10.6572 0.943444 0.817368 -0.227731
H 4.24565 4.18449 3.35475 -0.381499 0.389886 -0.916015
H 8.31666 9.43366 2.85686 -0.385822 0.405791 -0.768365
H 6.94565 0.12001 12.2796 1.000059 -0.518188 -0.267579
H 0.37452 8.12452 10.239 0.110581 0.947926 -0.224464
H 4.47366 1.64095 9.6838 -0.334041 0.29136 -0.628965
H 8.97907 9.7155 4.13409 0.520735 0.238985 1.012635
H 2.75952 1.33207 2.45362 -0.808222 -1.999228 0.078174
H 2.55374 6.47862 10.1008 0.205297 -0.655859 -0.340683
H 4.99738 2.95755 11.1877 -0.667744 0.718337 0.700717
H 7.30314 3.46213 4.30656 1.165855 0.509952 -1.041727
H 4.11713 2.13051 2.31118 -1.534051 -0.282461 -0.30187
H 6.76424 0.21555 4.67779 -0.109681 -0.255079 -0.49783
H 5.13365 4.53079 1.05358 0.098858 -0.361413 -0.411384
H 3.96408 6.08865 8.3135 -0.250554 0.027979 0.344793
H 11.1223 4.98941 9.43145 0.643915 0.161208 0.129312
H 1.33915 8.37961 1.07349 0.701118 0.097223 -0.064608
H 1.40866 7.11422 11.8779 1.969733 0.105722 1.275097
H 11.5034 1.67379 11.9544 0.707797 0.931837 0.375442
H 11.0204 0.07088 6.3946 0.114844 -0.36586 0.819465
H 2.40942 10.6244 6.17228 -0.462614 -0.023844 -0.204721
H 6.51456 10.3751 10.4356 -0.838167 -0.372516 -0.011925
H 9.26049 10.8593 11.629 -1.793727 0.357791 -0.535979
H 11.8734 11.3007 3.10856 0.439103 -0.054727 -0.047928
H 6.22943 6.0779 2.33363 -0.085797 1.165541 1.268262
H 1.75201 6.09217 5.82282 -0.184611 -0.288313 -0.2775
H 6.03605 6.34411 11.8981 -0.288978 -0.215383 -0.503843
O 10.6463 12.2021 5.5476 -1.475649 1.357437 -0.95888
O 6.76192 9.36357 7.79981 -0.121496 0.299887 -0.052114
O 4.68675 10.6813 3.91431 0.085613 1.720794 -1.126901
O 1.81984 4.37812 0.84531 -1.466962 2.294317 -1.442409
O 11.199 0.77259 11.8591 -0.046315 -2.350249 -0.566533
O 1.97867 11.9556 4.75372 2.817096 1.002192 1.252182
O 6.34452 6.9955 2.83304 -1.015088 -2.840401 -0.182314
O 3.99601 7.75122 3.82953 1.552235 -3.762186 0.577837
O 3.59595 3.41344 7.67448 0.265477 0.889368 0.830517
O 10.1554 8.64972 5.11185 0.157188 0.185317 -0.242302
O 6.75975 12.1601 3.77649 0.134665 1.241171 0.868795
O 8.68291 8.27928 1.64024 -1.403179 -0.288872 0.687313
O 3.10593 2.17384 2.25895 2.574852 2.485433 -0.082283
O 6.61459 3.28249 4.92221 0.17979 -0.918163 2.195266
O 8.47064 10.1835 3.463 0.243423 -0.218347 -0.08147
O 8.08109 11.8328 7.82835 0.38762 -0.337599 1.440484
O 8.20622 6.92092 4.97946 0.532455 -1.159873 2.499504
O 9.89292 8.87444 11.4042 1.383863 0.616127 1.303372
O 8.97014 4.37574 3.96506 0.096351 -1.672058 -0.109594
O 12.2833 11.0711 4.02029 -1.769992 -0.512593 -0.624771
O 12.2894 5.42412 3.65118 2.231176 -1.192314 0.733481
O 9.673 0.97033 9.79781 1.401787 -1.01522 0.207605
O 4.37959 6.06465 7.41829 0.585606 1.702919 -0.889327
O 11.0795 3.3209 12.219 -0.176993 0.179939 -0.179539
O 4.60603 11.0469 1.10095 1.070305 0.345704 1.736099
O 11.1275 7.91497 2.71568 -0.295671 -0.735233 -1.261413
O 2.47516 9.94481 6.86507 1.653256 0.745351 -0.065102
O 10.9252 5.75781 9.99145 -1.352124 -1.140963 -0.389885
O 8.2291 5.74461 9.35128 -0.557451 -0.168715 0.337709
O 4.15877 4.2784 4.29775 -0.080903 -0.367165 1.418018
O 3.52075 10.842 9.36258 -0.646459 -1.072246 -2.367466
O 6.84028 5.38689 7.12152 1.906282 0.535379 0.126346
O 9.07592 8.39991 9.12309 -2.18292 -0.668677 0.399568
O 11.379 3.46501 4.673 1.480148 0.016889 0.539535
O 4.86792 8.73769 6.07094 0.179996 0.153748 0.492036
O 0.73414 8.95276 1.57082 -0.936556 -0.204729 0.201565
O 5.7435 9.86282 10.0793 0.940221 0.565328 0.970026
O 6.58156 5.59649 11.5819 -0.536103 -1.799651 -0.372544
O 0.35858 10.3242 10.9659 0.164172 0.099276 -2.625955
O 12.1776 3.37359 7.09678 -1.614439 2.031721 -0.920548
O 8.45222 11.3961 11.3427 1.24495 -0.938123 0.786315
O 2.5943 0.56316 10.1182 -0.652776 1.305312 0.652038
O 6.12944 1.95525 2.04996 -0.350457 -0.350838 0.707065
O 11.4319 12.1838 8.13213 -1.055528 -0.961196 2.213341
O 5.66212 4.59099 1.85666 -0.031737 0.490439 0.855516
O 6.09565 0.53839 12.38257 -1.685818 -0.978524 0.25115
O 0.51365 7.22701 10.5339 0.129402 -0.148936 0.442055
O 1.66357 3.47096 9.20785 -0.017843 -0.236646 0.586107
O 1.04734 6.40997 7.11669 0.164735 -2.385722 -1.944151
O 3.69713 1.63418 5.44616 1.595551 -0.176276 0.30052
O 7.87063 2.60586 9.19778 -0.532275 -1.027824 0.244906
O 10.8973 11.5028 2.02757 0.436003 0.640438 -0.164216
O 2.21222 7.1322 0.17608 -2.44166 0.79061 -1.536043
O 4.66108 3.69367 11.8059 -0.506661 -1.035029 -0.662069
O 2.82122 5.86569 9.38531 -0.025508 0.899323 0.178831
O 2.02027 5.81588 4.87884 0.306502 0.476739 0.242716
O 11.7408 6.21521 0.48915 -0.31408 -0.506619 1.770867
O 1.22833 0.76454 7.16237 2.095506 0.517843 0.084753
O 6.43102 0.82799 6.19621 0.246741 -1.673213 0.964538
O 9.50147 5.15232 1.54717 0.54251 0.492161 -0.958383
O 5.38981 1.73835 9.98089 -0.574251 -1.02448 1.201509
O 4.52716 7.56053 11.5313 0.915726 0.241065 -0.465845
Cl 1.6822 11.945 1.1874 -0.216877 -0.285892 -0.217251
Cl 11.9134 8.88236 7.79883 -0.088229 0.161589 0.003421
190
energy=-1023.98800008 config_type=nep2xyz pbc="T T T" virial="-7.363315115556164 3.72251693256982 1.6693735124974087 3.72251693256982 -15.136152195495054 -0.9198744173661237 1.6693735124974087 -0.9198744173661237 -12.576059782812171" Lattice="12.4 0.0 0.0 0.0 12.4 0.0 0.0 0.0 12.4" volume=1906.6240000000003 Properties=species:S:1:pos:R:3:force:R:3
H 10.5935 0.13062 7.56386 0.829974 0.481937 0.161558
H 2.52683 4.31303 5.29267 0.573178 -0.123898 0.848286
H 4.37234 7.68701 5.85754 -1.334618 0.234397 1.145796
H 8.77643 5.19218 4.6833 -0.138708 -0.750571 0.600318
H 1.39353 5.27946 11.5536 -1.175398 -0.314037 -0.894032
H 4.20414 6.04054 7.58073 -0.165999 0.671509 0.127216
H 8.94676 7.14567 3.26381 -0.110536 0.203888 -0.937203
H 11.7872 11.7623 8.39139 0.842944 0.721233 -0.136113
H 1.97705 5.86959 0.47245 -0.269468 0.263442 0.322426
H 9.57034 1.65271 6.20808 0.52543 0.22237 1.284519
H 12.0105 7.1074 8.37884 1.037799 -0.765459 -0.256223
H 3.0272 2.25694 0.64442 0.353847 2.426542 -0.090372
H 9.92446 1.01229 0.12285 -0.539665 0.363411 1.399845
H 11.9519 0.15236 3.39499 1.429493 0.077512 0.378993
H 6.5745 8.51587 5.81705 -0.354049 -0.189982 -0.176702
H 10.9883 5.02911 10.742 1.673787 -0.186248 -0.502018
H 11.2647 3.77838 0.5287 -0.138715 0.932069 -1.771162
H 10.9244 8.30671 7.3692 0.166153 0.759855 -0.531413
H 9.01071 10.5089 1.1635 -0.372028 0.019491 0.144181
H 6.14478 0.44975 1.11771 0.089033 0.414504 0.005446
H 12.3697 3.75302 9.75136 -0.033981 -0.401016 0.154365
H 1.94416 9.63051 8.70292 0.437298 1.126025 -0.756982
H 11.4191 7.56966 0.64237 -0.068371 -0.974671 0.894857
H 11.8543 4.37131 6.90957 -0.421078 -0.251889 0.058693
H 5.50202 11.5492 1.63169 -0.133926 -0.261236 0.383305
H 9.09637 9.3453 2.19064 0.154344 0.259675 -0.154462
H 8.05768 11.0801 5.08148 -2.386054 1.97948 0.160203
H 9.30389 11.3519 11.4378 -0.546453 1.498822 -0.001021
H 9.83326 10.579 8.7315 -1.143267 -1.151578 0.390827
H 2.828 3.89293 0.29646 0.800874 -1.492165 0.226293
H 6.60169 9.64921 7.79816 0.247232 -0.952133 -0.310692
H 8.6454 10.2145 3.94394 -0.29711 0.080304 -0.490816
H 4.10788 11.8426 12.3549 0.674838 -0.235299 -0.36326
H 6.02811 3.56494 3.56168 -1.073479 -0.678953 1.026271
H 0.37474 2.32492 1.40485 0.900683 -1.378854 -0.161721
H 1.34502 1.51341 6.27781 -0.241624 -0.782282 -0.772766
H 11.6218 9.43423 11.7329 -0.140726 -0.072226 1.098678
H 10.5777 2.54558 7.08955 -0.202573 -0.259474 -0.049863
H 9.90535 11.8395 3.40698 0.218865 0.221067 -0.089084
H 0.97345 6.48911 7.65402 -1.150695 0.300431 0.409018
H 1.01698 9.30893 4.06109 0.270627 -0.627005 0.184208
H 2.73421 12.2173 11.8774 -0.788645 -0.033535 -0.462162
H 5.242 6.7231 11.934 -0.093061 -1.862889 -1.071212
H 6.35558 10.9283 8.50318 -0.585378 1.128799 0.561385
H 9.75016 1.37318 8.7551 -1.415286 0.622677 0.514973
H 11.1414 9.73921 1.56283 0.720692 -0.294578 0.033454
H 0.91994 0.53282 4.20549 0.037019 0.59335 0.593367
H 4.55299 8.12344 12.0506 0.15486 -0.507575 0.446749
H 5.65955 0.1114 7.29112 -0.365845 -0.758351 -0.233955
H 8.71107 3.55324 4.56225 0.303119 -0.385425 0.817484
H 0.21563 6.39349 1.96888 0.897247 0.192004 0.514722
H 5.22635 4.39794 10.9743 -0.031112 0.982188 0.026556
H 3.02515 11.6967 9.7991 -0.358657 0.131023 -1.447235
H 0.5931 1.41509 8.66901 -0.26282 0.118759 -0.254583
H 10.2763 2.22551 1.15287 -0.232501 -0.442137 -0.172023
H 10.2987 6.76769 1.32789 -1.530701 0.179911 1.346213
H 3.01362 8.80405 10.6269 0.106457 0.02453 1.559389
H 0.16444 9.67792 10.6193 0.03747 -0.012451 -0.611622
H 10.8585 1.69468 9.93589 0.867275 0.798145 0.780635
H 11.5219 4.02738 2.05896 -0.321397 -0.862151 -0.534761
H 0.3871 5.29999 9.58366 0.058358 0.42799 -0.925541
H 1.18424 1.02289 2.10689 -0.917385 0.682646 -0.716116
H 10.5638 5.9658 12.1399 1.05859 -0.650837 -0.321465
H 5.65243 0.74352 8.60954 0.33632 0.135178 0.957171
H 1.41772 8.21707 8.77364 0.324583 0.328282 1.101345
H 0.97266 10.6547 3.399 0.880774 -1.026966 -0.631326
H 10.7445 11.5459 11.0931 -0.888218 1.40561 -0.11279
H 1.47952 6.51385 2.97382 -0.385232 -0.079256 0.160125
H 6.88141 2.68708 2.00993 -0.528828 1.350619 0.752761
H 8.12122 1.9047 1.43136 1.118627 -0.260127 -0.242249
H 10.0603 0.75959 2.55471 0.159966 -0.49871 0.13582
H 4.36967 5.23816 8.95631 -0.076833 0.356612 0.922557
H 9.19579 1.15994 4.5002 0.370853 -0.44384 -0.892045
H 7.42556 4.21533 3.21248 -1.713944 -0.125227 -0.613106
H 4.04631 5.31659 11.3972 0.223453 -0.081458 -0.792243
H 7.91063 9.81691 11.6667 -0.564088 -1.418761 -0.608637
H 8.15445 5.39711 7.11794 -0.323149 -0.293532 0.519427
H 6.72837 8.59036 10.3283 0.194522 0.183054 0.261228
H 2.97138 6.9718 6.04366 -0.072806 0.206224 0.218534
H 3.7725 12.0368 8.47439 -0.751563 -0.43225 0.146196
H 10.5537 8.24955 5.13178 0.017478 0.048678 -0.600689
H 7.83437 9.37297 6.00992 -0.580021 -1.932711 0.781329
H 0.20049 9.73381 6.35695 0.293364 -0.396314 0.139136
H 3.47977 4.12632 6.55237 0.745479 1.387577 2.024539
H 1.73623 0.43151 8.28643 -0.766322 0.129759 -0.491025
H 6.62147 2.47862 12.2644 0.298608 0.208355 0.537228
H 6.60622 8.01498 11.8232 0.267348 0.578262 -0.957264
H 3.75508 9.67776 2.24405 0.148885 -0.000924 0.625817
H 8.19654 9.93651 8.81538 -0.465164 0.269312 0.003625
H 3.79155 10.4708 3.5949 0.439727 -0.382234 -0.794593
H 6.03123 4.63512 7.93107 1.275388 0.328387 0.538698
H 3.34345 9.87848 11.7526 -0.118312 -1.004815 -0.249427
H 8.32718 6.78807 6.4338 -0.46636 0.277737 -0.033633
H 10.9306 7.39056 3.83731 -1.009198 0.6488 1.09899
H 10.5307 4.94463 3.71233 0.10526 -0.337972 0.120879
H 2.3774 10.3017 6.31127 -0.145344 -0.002932 -0.148161
H 4.35894 2.77885 5.04896 -0.090765 0.724517 -0.170143
H 4.98441 9.0391 4.17649 0.207161 -0.436227 0.219291
H 0.29404 9.16957 1.68048 -1.072145 0.380888 -0.096679
H 7.57905 1.85338 9.17559 1.743867 -0.705576 0.181847
H 5.29517 1.65109 4.62927 0.319291 0.102779 -0.312927
H 7.00679 3.47495 8.24009 0.102367 0.818124 0.448802
H 4.0479 11.8258 5.52844 0.723641 -0.56325 0.009075
H 12.0486 5.34639 4.02964 0.213313 -0.025091 0.482182
H 5.11499 2.69091 12.252 -0.613181 0.373981 -0.083391
H 7.72395 5.28562 9.57662 0.409438 0.742801 1.027863
H 0.90228 0.74341 0.01097 -0.034644 0.212358 -0.076032
H 2.70561 12.3798 5.35593 -0.760715 -0.094079 -0.111408
H 6.46438 2.3066 10.1342 -0.37397 -0.327823 -1.019515
H 7.75797 6.64987 10.5989 0.389411 -1.234167 -0.694242
H 0.82736 11.7193 11.8447 -0.458237 -1.007861 -0.048356
H 7.72515 1.61922 4.9236 0.792646 -0.362058 0.215932
H 9.45491 5.67659 10.9162 -0.610984 -0.962319 -0.507089
H 6.02279 5.85737 2.63489 0.452197 -0.901359 0.420941
H 12.2567 1.3071 10.7149 -0.910073 0.998199 -0.691524
H 7.80327 7.02053 2.17374 -0.105415 -0.119808 0.224397
H 5.49333 7.14624 2.14113 -0.277995 0.731551 -0.969951
H 9.47428 0.71758 10.1686 -0.687909 0.709649 -0.290721
H 2.26082 2.28967 5.47675 1.070407 1.141892 -0.452275
H 2.48424 8.77874 6.66208 -0.452198 0.444486 -0.261072
H 9.54939 8.91028 8.51502 -0.311981 0.43235 0.474185
H 7.25447 11.0794 12.2879 -0.413629 0.380252 0.135287
H 11.3106 10.5676 6.65491 -0.070159 -0.479899 -0.005869
H 5.66849 7.63236 4.08904 -0.058914 0.538133 0.527403
H 10.5281 4.99881 7.23019 -0.982463 0.878766 -0.037851
H 9.84386 7.13492 7.27772 0.113013 0.373866 0.960516
O 1.68909 1.54527 5.32722 -0.969001 -0.951634 1.703373
O 6.71586 10.0479 8.67662 0.364802 -0.519193 -0.092058
O 9.32754 10.2938 2.07134 0.253531 -0.808188 0.035283
O 2.1573 5.30343 12.1056 1.493862 0.097895 0.857798
O 9.24353 1.5538 9.6138 1.126956 -1.250884 -1.122731
O 8.80611 5.97911 6.6841 0.21664 0.275242 -0.728239
O 5.38243 8.32911 4.76054 -0.148778 -0.569717 -0.831902
O 8.09906 10.6654 12.0734 0.493081 0.599937 0.747704
O 3.41888 11.5526 11.7168 0.38358 0.418882 0.596868
O 10.9456 4.15111 7.20096 1.689233 -0.447889 -0.152832
O 8.69182 1.8113 5.01089 -1.55173 0.696137 -0.127625
O 7.27957 8.38179 11.107 -0.589724 -0.863321 0.453233
O 0.92226 0.2137 11.5406 0.203362 0.772677 0.101437
O 8.17299 5.75204 10.3659 -1.194007 1.116764 -0.505681
O 7.01529 4.47539 8.17691 -1.360395 -0.565111 -0.834343
O 10.2082 1.63623 7.00505 -0.334621 -0.332814 -0.420845
O 1.15237 6.69717 2.08577 -0.24251 -0.14631 -0.8141
O 0.917 0.91288 7.89795 0.94839 -0.295113 0.793852
O 3.09506 3.70149 5.82027 -1.406736 -0.733883 -2.431935
O 11.6172 9.68517 6.35928 -0.388817 0.007846 -0.034578
O 1.04016 1.56026 1.26106 -0.087899 0.579602 0.861794
O 9.91281 12.1369 11.2142 2.026162 -2.671143 0.221091
O 3.49608 3.15485 0.54237 -1.162209 -1.127432 -0.116303
O 9.65538 1.45462 1.00024 0.959694 -0.372333 -0.878166
O 10.877 11.758 8.11686 -1.82227 -1.358458 0.03401
O 7.16876 1.9825 1.43811 -0.917809 -1.769381 -0.972388
O 1.82691 9.52446 6.56302 0.570542 -0.196713 0.233487
O 11.7289 2.05764 10.2697 0.848544 -1.338952 0.122745
O 2.85612 11.7657 8.80517 1.043343 0.196447 1.414607
O 1.3343 9.70623 3.24099 -1.107833 1.886927 0.261285
O 0.07881 4.61294 10.1834 -0.314852 0.134541 0.941489
O 5.36796 12.2921 8.20845 0.384947 0.669352 -0.963616
O 0.49681 6.66372 8.51355 -0.014559 0.362989 -0.366975
O 10.3235 0.32499 3.41991 -0.601848 0.102842 -0.351226
O 7.32171 8.58117 6.45285 1.459659 1.909173 -0.705993
O 8.77024 7.08529 2.28896 0.528486 0.291989 0.331411
O 9.1828 9.77063 9.01512 2.206715 0.969494 -0.903943
O 10.2714 7.80564 7.89341 0.208243 -0.686418 -0.358402
O 11.8798 9.27083 1.09792 0.220763 -0.220637 0.288597
O 10.3081 5.30265 11.3796 -1.356625 0.919563 1.254817
O 3.14211 11.5029 5.39453 -0.006722 0.660265 -0.149877
O 0.57546 0.06512 3.43905 -1.306159 -0.901171 -1.028232
O 4.37097 9.97425 2.9438 -0.879526 0.800696 0.290216
O 4.82992 5.30277 10.7879 -0.405187 -1.031019 0.705884
O 3.61529 7.50241 6.56502 1.328296 -0.554185 -1.376802
O 5.62845 12.0691 0.83062 0.253675 -0.17875 -0.120996
O 10.1678 7.781 4.36066 1.291807 -0.499856 -0.343065
O 5.9097 2.84359 11.7104 0.093722 -0.117032 -0.87466
O 11.6316 9.81685 10.8562 0.360277 0.388447 -0.750439
O 8.73914 10.5053 4.84937 2.424649 -1.792629 0.544092
O 11.3996 3.31006 1.32493 0.752835 0.545946 2.523601
O 3.30916 8.88002 11.6046 -0.148755 0.994301 -1.365239
O 6.17921 6.81463 2.72189 -0.364743 -0.210915 0.226294
O 5.11181 2.59972 4.46116 -0.050513 -0.867031 0.47806
O 4.32914 5.17499 7.99779 0.292984 -0.953155 -1.089681
O 11.4288 5.06184 3.34403 -0.30102 -0.069933 -0.74456
O 5.27162 7.49618 0.06506 -0.047469 2.157404 0.92929
O 11.1546 6.62892 0.93636 0.902637 1.24981 -1.930433
O 8.89989 4.39792 4.13364 0.037694 1.113689 -1.096334
O 6.4717 4.03391 2.85636 2.742676 1.582706 -0.405834
O 6.63798 1.98948 9.18462 -1.583594 0.912889 0.978745
O 1.80967 8.93923 9.3389 -0.662302 -1.166986 0.1172
Cl 6.06465 12.1754 5.12598 0.361352 0.075574 0.163351
Cl 0.95546 6.31446 5.42183 0.132269 -0.292409 -0.002119
190
energy=-1023.78192128 config_type=nep2xyz pbc="T T T" virial="-2.9910585574572557 0.5370565266786526 -4.671035158039545 0.5370565266786526 -1.1380409873550388 5.62446817069115 -4.671035158039545 5.62446817069115 0.43442910620276737" Lattice="12.4 0.0 0.0 0.0 12.4 0.0 0.0 0.0 12.4" volume=1906.6240000000003 Properties=species:S:1:pos:R:3:force:R:3
H 0.98704 2.71899 6.76906 0.108303 -0.837739 -0.348625
H 11.1074 2.5947 5.59126 -0.080862 0.103632 0.119297
H 2.87944 6.06046 7.36749 -0.028403 -0.423364 0.549752
H 8.36736 2.16422 5.97937 1.200748 0.958475 -1.00339
H 12.39441 4.20747 11.8808 0.352234 -0.035002 0.135569
H 2.4378 4.00387 8.28718 -0.883137 -0.656463 -0.499676
H 12.014 8.91109 4.21896 0.345406 0.758261 0.761571
H 10.7848 10.4023 8.97377 -1.790214 0.813069 -1.172952
H 0.60396 3.81814 1.00222 -0.121927 -0.056542 -0.212762
H 0.30851 9.95427 6.14829 -1.483091 0.854105 -1.842606
H 9.96622 5.84859 7.27224 0.584252 -0.599879 0.038442
H 1.73226 5.13863 0.34167 0.398951 -0.086853 -0.704897
H 9.7825 3.3166 11.664 -0.112306 1.078259 -1.140515
H 0.70009 12.287 1.26138 -0.605309 -0.726339 0.234418
H 8.76284 7.57268 6.14129 -0.264174 -1.820809 -0.985573
H 0.99931 7.86197 9.83372 1.2327 2.31733 -0.007906
H 9.69391 7.03028 1.15993 0.217184 -0.299656 -0.017692
H 6.79486 5.69001 8.38568 -1.03343 0.837807 -0.779774
H 9.61779 9.78878 7.10295 -0.476557 -0.408084 -1.049474
H 7.60228 10.6095 11.138 0.172548 -0.377109 -0.991895
H 0.67882 3.72269 9.57634 1.096897 -0.037015 -1.141046
H 4.1851 8.91195 10.9775 0.22647 0.266501 0.070141
H 9.61866 7.60856 10.5883 0.963452 0.002351 -0.467866
H 0.87806 1.60143 5.51969 0.102651 -0.20691 0.512803
H 7.67158 10.7177 0.2734 -0.590031 0.754044 0.334018
H 8.5562 10.2033 6.08374 -1.021124 0.57494 -0.375813
H 6.09909 11.0521 4.43961 -0.106398 -0.213447 0.452143
H 7.82014 0.20493 11.2154 0.068245 -0.400427 0.665785
H 9.63529 11.4743 8.40133 0.30866 -0.158988 -0.102304
H 2.92814 6.0963 0.45659 0.16303 0.411322 0.69677
H 6.08112 8.38845 8.01037 0.42198 -1.506077 -0.813144
H 5.89568 9.78892 3.60837 0.419152 -1.354013 -0.87898
H 4.17293 1.04803 5.49015 -0.624649 -0.05924 0.90412
H 6.48209 3.19708 3.72549 -0.333816 -0.439349 0.548915
H 11.1542 4.94444 1.06998 -0.290149 0.50415 0.360413
H 0.8491 11.6504 5.11302 -0.017822 0.965732 -0.408774
H 12.0652 10.007 2.41391 0.313251 0.097217 1.115195
H 11.0187 3.11258 8.22541 0.074313 0.466139 -0.349243
H 8.44011 3.34075 2.44468 -1.042116 -0.163142 0.36653
H 10.5209 4.62211 6.5898 0.294354 0.661851 1.153587
H 3.50175 12.1675 2.47033 -0.226454 -0.135623 0.177487
H 2.85724 0.32743 6.03211 -0.608529 0.414705 -0.501505
H 4.9018 7.85622 2.43292 1.210542 0.594809 -0.152172
H 5.56698 9.8512 7.91264 -0.91676 0.463033 -0.723881
H 9.94099 1.02737 8.39027 -1.155893 0.031664 0.24984
H 2.22789 10.3992 1.99712 0.415261 0.438192 0.779156
H 2.10998 0.28461 0.81341 1.431876 -0.259211 -0.008221
H 6.03074 8.80591 1.82101 -0.122541 -0.454333 0.290145
H 5.21735 3.24958 5.27041 -0.544727 0.765295 -0.055788
H 7.24253 12.3574 6.06923 -0.111356 0.068964 -0.075745
H 2.67872 8.00441 1.48308 -0.020422 1.226784 -0.738597
H 11.3878 2.18575 9.41086 0.303526 -0.12521 0.562866
H 3.81835 11.2145 6.53145 1.406584 -1.309067 0.384474
H 11.7973 12.097 10.634 -0.196242 -1.397113 -0.294796
H 8.46323 7.46089 0.36165 -0.282579 -0.170412 -0.358542
H 10.938 7.98468 11.3048 0.309626 0.563918 0.67936
H 5.99279 11.7476 11.4078 -1.080495 0.120565 0.004192
H 11.0548 11.2604 2.67478 -0.279672 0.345181 0.663848
H 10.1675 4.50683 9.62631 0.727809 -0.279167 -0.712521
H 1.34437 5.06939 4.60321 -1.036319 -0.542528 -0.279295
H 0.14451 5.26229 9.82097 0.767666 -1.519359 0.002954
H 9.85026 4.58367 1.87753 -0.073877 -0.346232 -0.167566
H 12.0987 7.12258 9.88598 -0.231915 0.062344 -0.06488
H 5.94166 1.98114 5.52709 1.139957 -0.633815 0.638047
H 4.0604 10.8911 11.2248 -0.946863 -0.529304 -0.299384
H 4.1555 11.1619 3.46835 -1.714466 0.488057 0.146963
H 8.70342 1.49734 11.3726 0.510457 0.510189 0.525256
H 2.83019 7.02774 2.50796 0.401779 -0.784822 0.656451
H 7.07014 6.88703 3.26637 0.772878 -0.346031 0.469775
H 8.43596 6.58028 2.67157 -0.863899 -0.282982 1.023434
H 9.68886 2.69249 0.66874 -0.051071 -0.681737 -0.689171
H 4.32947 5.77262 9.72811 -1.076074 -0.434219 -1.957241
H 9.60766 2.3441 2.81429 -0.215643 0.122048 -0.384965
H 6.89329 4.66413 3.37481 0.24816 -0.064259 -0.069593
H 2.39548 2.45556 8.62497 0.026495 0.036218 -0.382017
H 11.6311 9.6988 0.88125 -0.720167 0.084793 -0.623418
H 8.21608 1.32225 7.21709 -0.651573 0.206446 -0.431573
H 8.37508 9.40557 1.96521 -0.132577 0.326034 -0.035345
H 1.82126 6.14594 8.49869 0.754921 -0.410151 0.337707
H 4.65871 10.0505 5.89778 0.194421 -0.019807 -0.827646
H 10.7416 5.73495 2.99128 -0.068782 0.643836 -0.49167
H 1.67013 8.51764 6.55894 0.128803 0.324664 0.099732
H 0.7971 9.97005 9.68824 0.493238 -0.198893 0.10046
H 10.0693 1.92517 4.75996 -0.372194 -1.526278 -1.031217
H 11.6093 10.5664 11.1844 0.022621 0.118627 -0.067297
H 4.10783 1.33335 8.02848 0.441365 0.335702 -0.529583
H 8.55647 10.9015 2.27972 0.741533 0.991093 0.551434
H 4.16536 0.37637 0.08491 1.123299 -0.666457 -1.997941
H 8.766 9.95117 9.27989 -0.612079 -0.283325 1.004466
H 3.97566 1.52968 1.05259 0.366503 1.273728 0.173419
H 3.81149 5.62178 11.2348 -0.273003 -0.571992 -0.648077
H 5.10047 0.24181 10.2917 -0.512318 -1.37478 1.53718
H 8.54411 6.25312 5.09889 -0.157704 1.082192 0.47476
H 11.5497 7.0991 3.71482 -0.299813 -0.752641 0.036413
H 8.03491 11.7442 5.00562 0.909213 0.164762 -1.031582
H 2.6285 9.97385 10.7571 0.98562 0.516663 0.152807
H 3.9985 3.88865 1.15139 0.778308 -0.755949 -0.551234
H 5.4742 5.40088 6.23241 -0.255273 -0.048265 -0.170662
H 2.60093 10.0686 0.53405 0.11897 0.124889 -0.417786
H 6.44876 2.08155 10.9978 0.530551 -0.32543 0.302426
H 5.14296 3.3291 1.96887 1.811982 0.168236 2.529927
H 6.3326 3.88972 10.1653 -0.447838 0.518579 -0.086846
H 4.73144 7.22294 10.7631 0.19001 -0.051226 -0.882323
H 11.7622 5.45644 4.12684 0.372076 -0.207031 0.669478
H 4.53258 2.0201 9.48448 0.607242 0.80068 -0.185211
H 7.76108 4.18495 9.81144 0.535584 0.438553 -0.303999
H 0.3705 1.59079 11.3206 -1.076921 -0.407385 0.068002
H 5.18802 8.61741 9.65001 -0.114667 -0.495377 0.923148
H 5.45116 2.82316 12.0338 0.362583 0.073847 -1.09467
H 7.68863 8.11697 10.6616 -0.296176 2.233177 -0.758744
H 11.1918 1.73245 11.4687 -1.365489 0.950243 1.420792
H 11.1895 10.3259 5.51566 -0.988171 0.116664 0.619246
H 7.36686 6.64667 10.5339 0.330606 -0.36337 0.218315
H 1.58124 2.2892 1.98692 -0.446965 -3.048287 -0.129591
H 9.47688 5.52495 10.5132 -0.000599 0.716089 0.198034
H 0.7756 7.87745 3.90767 0.276735 0.35686 0.335041
H 1.45391 3.50676 3.06055 -0.023533 -0.775716 -1.817098
H 8.70178 0.65307 9.27407 -0.98761 0.73735 2.171002
H 1.8796 0.0401 4.21245 1.307136 -0.637836 -1.635096
H 1.74714 9.36193 8.59244 -0.141891 0.071538 0.347799
H 7.21426 9.73902 9.18333 0.478295 -0.307625 0.872463
H 0.26556 8.93641 0.11009 2.078769 -0.416838 -0.023373
H 2.49415 9.80786 6.71534 0.661668 0.003708 -0.097272
H 4.23116 5.41625 5.26982 -0.516652 0.530913 -0.040513
H 0.78174 3.70717 5.11843 -0.864097 -0.644695 0.028039
H 7.16045 6.52021 7.08215 0.030359 -0.176154 -0.036606
O 1.34567 0.11081 4.97915 -1.329806 -0.471891 2.010056
O 5.97674 9.2036 8.48843 -0.481631 0.426271 0.633349
O 9.17655 9.49567 6.21413 1.378062 -0.880456 0.803233
O 0.09398 4.46033 0.43078 -0.204802 0.105212 -0.030819
O 9.09108 0.45809 8.44221 1.728898 -0.158331 -2.339808
O 7.69971 1.68015 6.43139 -0.722328 -1.184917 1.651349
O 5.03484 4.94331 5.48142 0.96568 -0.365771 0.480512
O 11.7547 9.12404 0.09014 -1.575856 0.112241 -0.434571
O 3.70233 0.71093 6.30821 0.923585 -0.200666 -0.342872
O 0.50604 2.40392 5.95416 -0.118832 0.858336 0.411765
O 12.1245 10.3221 5.32661 2.308494 -1.09659 1.298963
O 7.90538 10.27 1.99518 -0.450306 -1.52544 -0.719369
O 11.8883 1.37163 10.9394 2.683933 -0.918743 -1.434633
O 8.01294 7.27406 10.9137 -0.162902 -2.172461 0.620011
O 6.87277 4.5249 9.62289 0.166953 -0.237282 0.168854
O 10.7005 2.39164 8.76674 -0.275184 -0.367347 -0.34087
O 3.26998 7.26787 1.68052 -0.30058 0.233038 0.524209
O 11.6896 11.1076 10.3708 0.477895 0.80366 0.317429
O 10.1772 2.69425 5.29299 0.557993 1.351735 1.078526
O 1.6246 9.42491 6.94693 -0.541687 -0.855972 -0.224159
O 10.3516 5.36476 1.55776 0.814563 -0.246872 0.053002
O 7.97832 1.09528 10.8733 -0.711669 0.180301 -1.298497
O 2.66981 5.26588 0.04491 -0.193081 -0.43365 -0.052369
O 9.84248 2.46607 12.0865 0.08661 -0.380862 1.654606
O 9.99762 10.5253 8.30637 1.716742 -0.585937 2.028181
O 7.87866 6.33843 3.48402 -0.275241 0.716084 -1.728833
O 1.59585 9.385 9.57744 -0.675397 0.987633 0.012402
O 9.48284 4.60112 10.2807 -0.487519 -0.492655 0.739964
O 4.16598 10.2631 6.70288 -1.143792 1.814628 0.190729
O 3.23483 11.6178 3.24593 1.861701 -0.491116 -0.465624
O 0.07235 4.28819 10.0289 -1.616738 1.529802 1.420323
O 5.36093 2.36832 4.88178 -0.342055 -0.197365 -0.514996
O 10.6807 5.16938 7.41319 -0.910459 -0.329806 -1.375483
O 9.32356 3.03861 2.17729 0.725473 -0.090385 0.09224
O 8.58068 6.5617 6.04286 0.352929 1.564821 0.891934
O 12.343 8.26399 3.57582 -0.205641 -1.033855 -0.75709
O 7.94714 9.74124 9.87004 0.923759 0.523896 -1.417287
O 6.42595 6.39687 7.73342 0.698548 -0.641947 0.610196
O 1.93494 9.90793 1.22813 -0.327245 -0.872788 -0.155668
O 0.66708 6.99238 9.81288 -1.193144 -2.817277 -0.24429
O 4.89054 8.25953 10.5812 0.015921 0.515904 -0.097251
O 1.20807 0.57117 0.84242 -1.127478 1.27629 -0.157103
O 3.85511 0.59258 0.94029 -1.079055 -0.520213 1.867608
O 1.90256 3.15331 8.14484 0.722791 0.535667 0.884119
O 2.69233 5.71075 8.27251 -0.579634 0.913325 -0.687805
O 7.30364 11.183 11.8733 0.514668 -0.536157 0.876877
O 11.0725 6.13336 3.88304 0.224564 0.184204 -0.359276
O 4.06506 1.34893 8.98974 -0.912405 -1.031078 0.900842
O 11.425 10.6199 2.05515 0.252799 -0.012462 -0.816143
O 5.42634 10.3811 4.17458 -0.76024 1.430571 0.711215
O 8.88715 7.55839 1.22398 -0.116102 0.625714 0.341353
O 5.04347 12.0208 11.1062 0.908224 1.058518 -1.463889
O 1.67251 3.19799 2.10302 0.089181 3.590628 1.816555
O 4.79008 3.27607 1.11955 -2.819934 0.585628 -2.188569
O 4.56636 5.81808 10.6277 0.770428 0.826038 2.660188
O 0.60729 4.39765 4.42343 1.864537 1.689454 -0.246381
O 5.83534 8.20994 2.56886 -0.960042 -0.301298 -0.363067
O 10.6023 7.73096 10.4422 -1.188775 -0.480924 -0.309477
O 7.28881 11.5196 5.55942 -0.322932 0.239294 0.710129
O 6.83594 3.75527 3.02409 0.29112 0.391486 -0.561837
O 5.70106 2.69668 11.0635 -0.855535 0.035213 0.623546
O 3.40128 10.0945 11.4005 -0.017462 -0.093393 -0.224034
Cl 9.64997 0.1981 3.47211 -0.059404 -0.09864 0.143295
Cl 2.55259 6.89711 5.07216 -0.363561 0.059321 -0.164137
190
energy=-1025.32420433 config_type=nep2xyz pbc="T T T" virial="-5.136012106120976 -1.5028776590792605 2.640323635879592 -1.5028776590792605 -3.288432932488783 -2.018371003255327 2.640323635879592 -2.018371003255327 -8.00204704582317" Lattice="12.4 0.0 0.0 0.0 12.4 0.0 0.0 0.0 12.4" volume=1906.6240000000003 Properties=species:S:1:pos:R:3:force:R:3
H 0.57786 1.8603 7.04531 -0.218844 0.40229 -0.683515
H 11.0746 2.59464 5.62392 0.024698 -0.156683 0.312928
H 3.10946 5.76384 8.6937 -0.048732 0.004549 -0.181241
H 9.52749 2.50649 7.26804 -0.242903 -1.156358 0.243492
H 0.77601 3.7195 1.91035 -0.24257 -0.095043 -0.620943
H 0.41969 2.24016 9.56493 -0.06878 -0.217494 -0.057145
H 1.65601 8.57945 2.71296 0.400665 0.757256 0.111326
H 11.1611 9.03691 7.02766 0.365128 -0.528089 0.267293
H 0.12176 2.09813 0.96852 -0.991078 -0.661171 -0.533628
H 0.8797 10.4228 5.48164 -0.208434 -0.465801 0.18763
H 10.2756 9.45553 3.57445 -0.006363 -0.287688 -0.029109
H 4.117 6.56605 2.2725 -0.728356 0.075824 -0.40541
H 9.11574 4.28491 9.77064 -0.002451 1.484704 -0.946631
H 11.5043 0.73725 0.35763 1.109694 0.340317 -0.548509
H 8.18891 9.15029 3.2292 -0.408219 0.795553 0.496162
H 12.38465 6.63319 10.869 0.652218 -0.121759 -0.261176
H 9.60334 4.86046 0.84913 -0.294345 0.796315 -1.026642
H 8.5522 6.13524 5.8192 0.206995 0.171293 0.186861
H 10.4719 10.5721 5.32884 -0.044229 0.585614 -0.570244
H 4.43828 0.52274 11.8799 0.166843 0.134844 0.584706
H 11.8739 3.35749 11.5707 0.334341 0.209143 0.264532
H 6.21191 8.98069 11.7147 -0.118658 0.097705 0.33762
H 1.68215 7.71022 11.8881 0.373892 -0.338827 -0.077556
H 1.058 1.7828 5.49198 0.147908 -0.076125 0.423569
H 3.94568 11.6797 11.1512 0.14427 -0.318736 0.46772
H 9.74874 11.6472 4.30976 0.792559 -0.842326 0.05366
H 5.39178 10.7128 5.05697 -0.430895 1.086531 -0.375867
H 7.63867 1.16879 12.3029 0.296457 0.523481 -0.379534
H 11.0237 10.5867 7.42588 -0.090522 -0.011032 -0.155718
H 2.52839 6.66989 1.96039 0.899336 0.249661 0.274124
H 6.82488 7.26732 7.24605 0.191757 -0.094826 -0.489872
H 6.6224 9.82401 4.88244 -0.683197 -0.024445 0.289964
H 3.65817 1.19347 7.81567 0.296899 0.305667 -0.276929
H 5.72838 3.72931 4.48754 0.416913 0.328296 -0.330009
H 11.5843 3.86212 1.8907 0.717584 -0.552835 -1.132054
H 1.79502 0.02764 4.76408 0.474643 -0.057025 -0.312653
H 1.8779 10.698 1.901 0.858798 -0.481077 1.192232
H 11.6597 0.45773 8.52057 0.243793 0.26647 0.055677
H 7.77047 3.39009 3.63038 -2.745735 1.047937 -0.02573
H 10.442 7.84962 3.42101 0.550574 -0.149316 0.49119
H 6.02211 0.19302 3.98948 -1.004886 0.065005 0.724036
H 2.68549 0.46434 6.85187 0.11539 0.12297 0.126581
H 6.03009 7.23304 3.33808 0.259517 -0.569855 0.444914
H 7.13649 8.66428 7.78403 0.119437 0.249816 0.137767
H 7.99774 10.9863 10.8098 -0.344894 -0.470827 1.101684
H 5.19894 11.0157 1.28485 -0.271984 -0.620909 0.961542
H 0.9753 0.50995 0.54975 -1.318241 0.250643 0.068191
H 7.04202 6.52556 2.38627 0.278933 0.216798 -0.747677
H 5.19392 2.85728 7.05621 0.20808 0.33401 0.024685
H 7.55606 1.03628 7.07612 1.313875 0.565197 0.367334
H 3.91182 7.46985 4.32768 0.950916 0.741468 -0.108441
H 10.2224 0.55648 7.96113 -0.963551 0.746625 0.071639
H 5.12397 9.93694 7.13605 -1.366979 -2.235569 1.000939
H 10.9588 11.2376 9.68335 -0.473566 0.428399 -0.421785
H 9.33174 4.68887 11.6712 0.0472 -1.028142 -0.889221
H 1.05532 9.08795 11.753 -0.310186 0.079421 -0.01898
H 3.38418 10.117 9.04634 0.352227 0.578712 -0.299756
H 1.7414 10.4516 3.45293 0.759842 0.030289 -0.665612
H 9.24346 6.01171 7.91157 0.420474 -0.068983 -1.856245
H 1.71777 4.91876 5.67355 0.294856 0.272511 0.27196
H 12.1576 4.31605 10.334 0.055732 1.124681 0.410055
H 9.68289 4.10093 2.90416 -0.932648 -0.755322 1.13559
H 1.13686 5.79594 9.93341 -1.682552 0.883561 0.846508
H 5.65727 1.59546 7.85995 0.749259 -0.606094 -0.36552
H 1.75943 10.571 10.3503 1.276782 0.402685 -1.004507
H 5.61713 0.44286 5.46138 1.466536 0.775089 2.606627
H 8.17528 2.06286 11.0682 0.998971 0.676298 -0.003599
H 4.91694 8.71933 4.12556 0.008655 0.555194 1.117533
H 8.74602 7.68699 0.58943 -1.104051 -1.056997 -0.09509
H 9.65433 8.46488 1.45726 -0.009024 0.688258 -0.195245
H 10.3659 3.32532 10.1599 0.610941 0.514372 0.047245
H 3.0891 6.11253 10.2696 0.224554 0.086232 0.381939
H 8.58786 2.20065 3.36087 0.160382 -1.005613 -0.687358
H 6.26105 4.81087 3.47892 -0.233374 -0.646878 0.00912
H 1.53867 1.33943 8.82296 0.170281 -0.06436 -0.006258
H 9.85968 7.8513 11.1869 0.106 0.197932 1.471927
H 8.94272 2.31232 8.71196 0.360455 -0.985003 -1.029082
H 8.19109 9.68082 0.0629 0.378968 -0.752833 -0.111437
H 3.31099 4.10025 9.93365 -0.117115 0.728765 0.347482
H 4.887 8.40633 7.76148 -0.232159 1.911475 -0.409373
H 10.6567 5.43642 2.94395 -0.097737 -0.674626 -0.181861
H 2.37422 7.89443 6.13558 -0.017379 0.706778 0.252472
H 12.1635 7.28487 8.18665 0.173255 -0.429366 1.323204
H 9.5521 2.99468 5.28998 0.380206 0.184416 -0.308839
H 10.6492 9.71164 10.1196 0.73668 1.392772 0.685144
H 4.12779 2.99771 9.18253 0.577662 -0.519303 -1.13938
H 7.47824 10.8167 0.62211 -0.46715 1.009186 0.546471
H 1.36051 11.3345 12.212 0.54759 0.491663 0.823498
H 8.65517 10.1504 7.22209 1.074354 -0.161218 -0.507604
H 2.69209 11.9704 0.45116 -0.26513 0.312738 -0.048122
H 3.19871 6.66051 0.1448 0.747655 -0.327051 0.437714
H 3.02594 11.6437 8.7882 -0.000507 0.540597 -0.791219
H 6.90954 10.0177 2.8673 -0.571312 0.289568 -0.501975
H 0.13616 6.82117 3.16001 -0.530631 0.204439 -0.098549
H 7.0154 11.9692 7.21829 0.03066 1.09291 -0.272492
H 0.24856 10.4997 10.6967 -1.695628 0.029715 -0.262473
H 3.60881 2.91257 2.32 -0.614368 0.190024 0.301828
H 6.45629 5.07906 6.0776 -0.717288 0.003779 0.104269
H 4.54143 9.95513 2.32684 0.633405 1.117962 -0.489176
H 5.81126 2.20792 11.7635 -0.384441 -0.009509 0.273098
H 5.1385 3.03035 2.55851 0.119851 0.160457 0.045495
H 10.6412 4.75295 6.27495 -0.528519 0.431722 -0.14032
H 3.86874 7.71381 11.5942 0.573847 0.006315 0.22406
H 12.2318 5.98059 4.41136 -0.20856 -0.446412 0.382093
H 4.21254 2.67142 10.8 -0.365364 1.037308 1.013977
H 11.0125 6.26005 6.64367 -0.111245 0.059723 -0.321225
H 10.232 11.6494 11.6399 0.374974 0.323454 -0.242091
H 5.81273 8.04479 10.581 0.104889 -0.238622 -0.057439
H 4.62944 2.59775 0.507 0.227378 -0.437558 -0.169079
H 7.92642 6.00975 0.54884 -0.282039 -0.10418 -0.763509
H 9.6147 0.20492 0.33337 0.426637 0.020309 -0.796529
H 12.1852 11.2267 4.56559 0.681673 -0.222753 0.645184
H 6.71604 7.14451 0.24476 0.370339 -0.757717 0.165579
H 2.56895 4.78669 2.32389 -0.060097 0.171305 0.308308
H 7.87146 6.54616 8.6658 1.528354 -0.168398 -0.705558
H 0.96794 8.09304 1.37825 0.171368 -0.500476 1.064509
H 1.56028 4.46406 3.57196 0.594484 -0.298878 -0.171216
H 7.78421 0.04746 10.4106 -0.209763 0.528758 0.225735
H 3.24695 0.65298 4.29471 -1.118108 0.029922 0.787889
H 0.55405 7.91179 6.98894 0.452302 0.326295 -0.080736
H 7.89857 10.6629 8.4764 -0.127706 0.13343 -1.055171
H 9.45251 7.36941 9.83089 -0.380408 -0.894658 -1.198117
H 2.5229 9.24617 6.94964 -0.598112 -1.087589 -1.244047
H 4.81768 4.99632 6.14408 0.96039 0.068315 0.166836
H 0.64751 3.77222 5.58237 0.287382 0.425481 -0.107978
H 7.46744 6.55458 4.79315 -0.322341 0.281056 -0.88577
O 2.38949 0.82018 4.783 0.706258 -0.130023 -0.088126
O 6.80908 7.78771 8.06573 -0.615183 -0.154283 0.197391
O 10.5299 11.053 4.43437 -0.661782 -0.019682 0.436477
O 12.3693 3.47444 1.33875 -0.515334 0.887316 1.403116
O 8.03752 11.5868 10.0744 0.383748 -0.156851 -2.210587
O 9.09249 1.79696 7.84871 -0.282932 2.063044 0.658055
O 5.66892 4.47716 6.18309 0.036796 -0.442426 -0.273137
O 9.94782 8.05518 10.2681 0.689896 1.089435 -0.421062
O 2.90323 0.57037 7.80326 -0.371365 -0.24693 -0.300348
O 0.40975 2.18009 6.11571 0.101817 -0.15011 0.11288
O 0.74542 11.1509 4.86909 -0.413516 0.434558 -0.91249
O 7.46111 10.2912 12.2211 0.004944 -0.730555 0.035169
O 10.2582 0.17734 11.9583 -0.899411 -0.019804 1.687989
O 7.21613 6.60391 0.9091 -0.225259 0.421331 -0.475622
O 10.297 5.67942 6.31035 0.319593 -0.104365 0.504425
O 10.8561 12.3447 8.34078 1.104143 -1.580368 0.111326
O 4.58041 7.8998 3.74135 -1.126708 -1.016177 -0.618958
O 11.1101 10.5929 10.3963 -0.790485 -2.094299 -0.423118
O 10.2862 3.07453 5.93946 -0.242988 0.101585 -0.247918
O 1.91766 8.767 6.2932 0.593305 0.710241 0.961723
O 10.2118 4.71274 2.40395 1.347239 1.175985 -1.154059
O 7.42897 1.59679 11.428 -1.446096 -0.817894 0.589189
O 3.39089 6.19962 1.71482 -0.710707 0.23098 0.414305
O 9.39815 3.4597 10.1268 -1.464542 -1.801184 0.611555
O 10.7721 9.89052 6.78414 -0.673385 0.95869 -0.041208
O 9.24323 8.49159 0.55519 1.22357 0.623591 0.48551
O 12.0784 7.6337 7.3121 -0.726534 -0.00023 -0.924458
O 8.78917 6.13807 8.72361 -1.628579 -0.103214 2.759548
O 4.48008 9.33036 7.69451 1.077857 0.271221 -0.402715
O 5.2672 0.22171 4.63781 -0.44441 -0.839482 -3.439891
O 11.8552 3.44034 10.6093 0.276826 -1.343068 -0.408735
O 4.94999 2.24829 7.77587 -1.000589 0.700854 0.625505
O 9.89864 8.61821 3.22085 -0.232824 0.175247 -0.545728
O 8.65187 3.0977 3.69027 2.493822 -0.583072 0.84569
O 7.61959 9.91814 3.50794 0.863509 -0.958938 0.277975
O 1.16877 7.82081 2.36575 -0.225657 -0.773832 -1.685371
O 7.78306 10.4229 7.49135 -0.746268 0.212228 2.143174
O 7.64595 6.48618 5.74299 0.145847 -0.647709 1.1076
O 5.31054 10.5643 2.16131 -0.525394 -0.436161 -0.553014
O 0.15248 5.98455 10.1589 1.216567 -0.620853 -0.970567
O 5.72159 8.1413 11.541 0.245752 0.602186 -0.31967
O 0.04274 1.17849 0.44356 0.318025 0.400378 0.553664
O 1.70652 11.9208 0.6389 0.544009 -1.405753 -1.174097
O 0.59728 1.56276 8.87642 -0.215786 0.217222 -0.080148
O 2.84913 5.44315 9.5817 -0.345101 0.116458 -0.259038
O 4.20638 11.9841 12.0526 -0.370701 -0.018052 -0.911878
O 11.7887 6.37442 3.64751 0.309287 0.584717 -0.312237
O 3.62511 3.14536 9.99472 0.105988 -1.304703 -0.038844
O 2.33056 10.2183 2.67283 -1.52161 0.593162 -0.057316
O 5.72565 9.8692 5.35463 0.923549 -0.830053 -0.343251
O 9.20963 5.27627 0.001 0.462266 0.302689 2.135112
O 2.97632 10.9227 9.43084 0.230401 -1.087035 0.888174
O 2.02108 4.10232 2.76174 -0.166419 -0.089473 0.192798
O 4.45336 2.58937 2.00254 0.055065 -0.280209 -0.661501
O 3.25658 6.96585 11.6179 -0.686079 0.212359 -0.838192
O 0.93054 4.64672 5.18486 -0.461942 -0.441426 -0.049688
O 6.80293 6.61076 3.33033 -0.681577 -0.250362 0.820194
O 0.89787 8.20097 12.1697 -0.397247 -0.535538 0.493025
O 6.75178 0.52983 7.05654 -1.105717 -1.72696 -0.035641
O 6.09231 3.82106 3.56698 0.068837 0.98785 0.50531
O 4.82385 2.28772 11.9306 0.663598 -0.193567 -0.551975
O 1.14038 10.3963 11.0649 0.167704 0.363309 1.367198
Cl 8.12613 0.47934 1.89351 -0.002921 0.035895 -0.066678
Cl 3.38619 6.25164 6.52784 -0.271377 -0.215788 0.055615
190
energy=-1022.52087122 config_type=nep2xyz pbc="T T T" virial="-20.19207588095245 -2.0095648470456613 6.078032816333299 -2.0095648470456613 -9.799788135393095 -1.614263634920435 6.078032816333299 -1.614263634920435 -18.6134057774146" Lattice="12.4 0.0 0.0 0.0 12.4 0.0 0.0 0.0 12.4" volume=1906.6240000000003 Properties=species:S:1:pos:R:3:force:R:3
H 11.6665 8.3895 5.32351 0.733516 0.22266 0.577593
H 9.33261 5.66658 3.97604 -0.402491 -1.540976 -0.548497
H 4.37641 7.15345 2.37879 0.37994 0.065561 -0.611892
H 12.3051 2.68998 7.16396 -0.032177 -0.749997 0.582002
H 3.50001 3.89344 1.02806 2.216248 0.067464 0.520208
H 2.11352 10.5719 8.93818 -0.359748 0.231486 0.168295
H 3.3561 5.89579 4.02653 -0.313276 0.425845 0.166636
H 3.50311 10.2688 1.72165 1.501886 0.029813 -0.804943
H 1.18328 3.57063 12.2403 -0.669291 -0.772198 -1.32117
H 8.56094 11.5771 3.82084 0.451076 -0.322913 0.312276
H 10.1394 8.68634 7.91942 0.531712 0.830721 -0.467629
H 3.17657 7.50057 9.96154 -0.064797 0.179323 0.266587
H 10.8569 3.3553 10.8426 -0.193421 -0.198252 -0.609551
H 2.29245 0.4253 12.069 0.201798 0.389702 -0.556132
H 4.49913 8.32335 4.22093 -1.060569 0.50201 0.841998
H 0.14893 4.1859 6.72724 -0.833596 -0.618574 0.277658
H 6.68429 2.99699 11.8917 1.255959 0.908445 0.306307
H 5.92828 7.15931 11.7342 0.220584 0.467006 -0.716473
H 6.34945 11.4882 4.00611 -0.646128 -0.653367 -0.083276
H 5.13782 11.1893 12.2662 -0.169594 0.531837 -0.527125
H 1.03751 4.15976 1.22395 1.254963 -0.337506 -0.436398
H 8.03801 0.13295 10.9571 -1.116103 -0.434338 -0.70809
H 1.42618 2.07843 8.55215 -0.594508 -0.958357 -0.858528
H 10.3771 7.72103 5.05329 -2.133046 -1.42856 0.871174
H 10.4891 0.8826 10.1736 -0.98919 0.903895 0.547811
H 5.37988 10.3897 4.69196 0.043049 -0.518076 -0.226038
H 4.4771 12.2404 4.94782 -0.38489 0.86315 -0.191826
H 9.3746 1.22631 12.2995 -0.760621 0.541667 -1.207141
H 4.96061 10.4197 2.1531 0.172907 0.070771 0.558483
H 4.88826 7.55588 6.32657 -0.233772 0.07245 0.478863
H 7.27329 9.57036 5.45933 -0.408933 -0.950041 -2.720573
H 2.33542 0.31605 5.95845 -1.048038 -0.102811 0.042868
H 4.61183 1.49181 6.34231 1.225773 0.796657 1.185464
H 8.88462 5.81528 0.68968 2.598706 2.233611 -1.236274
H 0.0858 5.38335 2.54165 -0.699651 0.463932 0.414039
H 9.24145 0.40591 7.11521 -1.053676 0.344806 -0.277818
H 1.31257 6.2108 7.09266 0.169088 -1.33801 -0.652299
H 6.48984 11.3228 7.4964 -1.482906 0.319045 0.755958
H 8.11733 4.61758 0.50955 -0.993376 0.513094 1.43515
H 9.69873 10.2724 7.60127 0.353818 -1.300519 0.251375
H 4.05471 1.14572 4.28185 -0.040537 1.02893 -1.813147
H 4.70884 2.85886 7.11006 0.301828 0.452419 -0.118513
H 9.50481 6.08558 10.9442 0.309931 -0.315875 0.808676
H 8.02138 9.38063 6.75331 -0.513415 0.613267 -0.020336
H 10.4941 1.67364 1.89303 -1.136642 0.085367 -0.14654
H 12.2951 10.4691 12.0641 0.802583 0.341121 0.709805
H 3.58014 0.04994 11.3694 1.002333 -0.385144 -0.164866
H 7.88635 1.99726 6.25226 -0.033577 1.733359 -0.624372
H 6.61684 5.97631 7.04807 -0.708673 0.195728 0.37108
H 8.96488 4.89014 2.65564 -0.44416 0.097495 -1.420576
H 7.95464 7.06632 4.97425 0.362199 0.334868 -0.459785
H 6.26508 11.8732 8.92169 -0.066378 0.20267 -0.255984
H 7.39026 6.27626 10.4293 -0.01972 -0.991002 -1.291435
H 8.84554 9.19587 9.90787 1.035784 -0.080706 -1.833356
H 7.47919 4.21876 11.0305 0.002039 -0.756289 1.094251
H 1.124 0.30128 7.03338 -0.037075 1.251953 1.802506
H 12.0002 0.0025 2.035 -1.221366 -0.376129 0.875858
H 2.34586 4.89916 7.16736 -0.98919 0.661443 -0.258463
H 10.5821 3.46453 8.55525 0.296528 0.464286 -0.641017
H 4.34311 4.09597 4.39203 0.866552 -1.165793 0.160304
H 0.66217 10.3061 8.2737 1.435122 0.984256 2.427732
H 11.035 4.64271 11.6824 -0.066844 0.067774 -0.082971
H 11.4174 3.38294 5.49919 -0.152946 -0.49781 -0.250538
H 7.44316 4.68625 6.84819 0.157898 -1.75008 -1.316602
H 3.90158 8.93305 9.6106 -0.371015 0.501748 -0.007402
H 6.70686 3.29705 5.06452 -0.223201 0.150456 0.299321
H 8.5822 2.18965 11.2553 0.449946 -1.278259 0.631367
H 8.61831 6.58723 6.24302 -0.03608 -0.576177 0.921235
H 11.8125 7.43062 1.89532 0.624933 0.35741 -1.117394
H 11.3917 7.35067 3.25754 -0.369921 0.44583 1.557517
H 0.11789 1.22143 8.95899 0.306768 0.786995 -1.651518
H 6.52506 6.08096 1.64694 -1.690821 -0.089489 -0.789682
H 11.9989 3.65367 3.89906 -1.721557 -0.201235 0.295911
H 10.6289 6.97975 11.2791 1.842652 1.636256 -0.497852
H 11.2554 11.9542 10.1627 0.738951 0.847297 -0.084108
H 7.55873 8.85762 10.6806 0.584741 0.272778 0.072581
H 0.19113 12.3365 5.50865 -0.242667 0.219864 -0.316348
H 8.25627 2.12423 1.89211 -0.061491 0.070312 0.309022
H 2.9524 1.53305 9.84105 0.509948 -0.57973 0.429202
H 7.70309 5.44375 9.01945 -0.639719 0.371745 -0.698419
H 1.3198 4.8899 3.32559 1.853708 0.374947 0.795847
H 10.9154 0.06932 6.10514 0.231126 -0.248282 -0.563573
H 1.88054 9.34988 6.78935 -0.055439 0.252186 -0.122557
H 10.4426 3.974 4.19788 -1.065491 0.493242 -0.970214
H 1.79729 9.08026 1.17256 0.319866 2.45434 -0.692218
H 3.7162 1.7552 8.34817 0.065072 -0.304246 0.748482
H 9.62808 8.10907 1.01103 0.204871 0.853202 -0.175976
H 7.52415 1.1209 2.77206 0.28943 -2.039958 1.494477
H 4.46023 10.7857 8.76646 -0.335186 -0.239428 1.349744
H 2.90281 7.83017 2.39381 1.07611 0.021308 0.328315
H 3.47803 3.87332 8.5827 0.640821 0.743004 -0.547123
H 10.5075 11.9454 2.58822 -0.429306 -1.565227 -0.046315
H 3.72133 9.01868 5.54968 -0.046525 0.044547 -0.399077
H 12.3995 7.7911 9.58216 -0.196274 -0.159427 0.879812
H 6.92991 0.94177 6.76146 -0.78034 0.021592 0.602137
H 9.18787 9.4219 0.2793 -0.853542 0.179991 -1.439554
H 1.94992 5.75554 12.1835 0.335612 0.150454 -0.776892
H 8.2396 8.76274 3.16149 1.338737 0.780463 -0.238719
H 0.75117 10.526 10.5794 -1.573481 0.294692 0.805829
H 6.44996 1.81962 0.98534 2.125366 -0.32172 2.702635
H 5.3175 3.35761 3.47082 0.036936 -0.213804 -0.697416
H 9.73625 9.99822 2.40642 0.852732 0.246158 1.8993
H 6.03687 11.9819 11.0086 -0.817717 -0.695738 1.037896
H 12.3402 8.83337 10.8034 -0.601806 -1.913785 -0.199235
H 5.63888 1.04123 12.3837 -0.709276 -0.959135 -0.726063
H 10.3358 9.98356 4.01812 -0.313543 -0.300582 -1.117571
H 2.80517 0.50557 2.49289 1.099625 0.721018 -0.529382
H 4.28073 5.22202 7.80749 -0.922925 -1.323605 0.183164
H 4.99592 3.26718 0.97344 -0.324345 -0.155673 -0.283753
H 8.17905 3.80768 4.83908 -0.734143 -0.595346 0.674649
H 3.90744 1.25249 1.56964 -0.673972 -0.3247 1.366352
H 7.87689 0.30581 4.83023 0.320405 -0.837635 -0.713365
H 5.00302 5.5919 1.18312 1.066161 -0.321413 0.373443
H 4.72334 7.28681 7.95329 -0.041212 0.350379 -0.74024
H 9.30108 3.84055 9.42301 0.622498 -0.374734 -0.549411
H 1.83775 7.60483 0.49745 -0.059718 1.308997 1.132656
H 1.24042 6.86332 11.276 1.060592 -0.348197 0.101346
H 10.2725 2.7777 0.79452 -0.578699 -0.170307 0.442743
H 10.3645 12.33715 8.10432 0.463542 0.43543 0.254442
H 2.54809 10.7673 6.4821 -0.693219 0.275816 -0.064159
H 4.51149 10.7175 10.3841 -0.316437 0.616175 -0.301199
H 7.60474 10.9459 10.7989 -0.077448 1.168845 -0.888192
H 11.2922 0.1888 4.28994 0.704598 -0.14322 0.972008
H 6.88541 8.22596 2.76499 0.63864 0.000918 1.468379
H 2.46107 5.11905 5.12394 0.180294 0.570422 -0.085167
H 5.42855 7.48083 10.2954 -1.695054 0.300545 -0.945119
O 10.0474 12.2616 7.18976 0.505117 -0.670485 0.239523
O 7.31204 9.91189 6.31287 0.889585 0.50366 2.798304
O 5.46835 10.9973 3.93628 0.462908 0.856369 0.302152
O 1.70983 4.00083 0.49038 -0.419544 1.177505 1.872449
O 9.76172 2.2054 1.43343 2.344331 0.21024 -0.831609
O 1.44789 12.3188 6.232 1.576344 -0.653372 -1.928676
O 7.5179 8.29408 3.54305 -2.233581 -0.738662 -1.196455
O 3.7845 7.73309 2.88435 -1.288284 -0.529144 0.137412
O 5.10847 1.9781 7.13496 -1.50103 -0.99741 -1.087449
O 10.9619 8.33382 4.67226 1.354726 1.575523 -1.40712
O 7.83354 12.2032 3.95541 -0.667119 1.196729 0.778482
O 9.76604 9.08226 0.94017 0.62389 -0.972807 1.625212
O 3.5881 1.1269 2.50795 -0.470967 -0.390814 -0.986377
O 7.58344 3.36531 5.5212 0.8347 1.324981 -1.178567
O 9.86883 10.5004 3.30899 -0.777835 -0.567104 -1.14097
O 5.78339 11.7692 8.07548 1.760096 -0.984179 -0.839701
O 8.82182 6.81279 5.3387 -0.171893 0.172636 -0.336275
O 8.36117 9.4508 10.6674 -1.999679 -0.419767 2.072556
O 9.27095 4.74653 3.552 0.420315 1.56166 2.477688
O 11.5785 0.0182 5.26748 -0.463362 0.158535 -0.788631
O 0.51088 4.59961 2.93186 -1.321633 -0.918169 -0.885722
O 8.99812 1.26242 11.3561 0.258414 0.723121 0.832148
O 5.00184 6.9033 7.08657 0.241745 -0.458635 0.406238
O 11.2852 3.70035 11.6316 0.261168 -0.037027 0.954921
O 4.4433 10.1703 1.37576 -1.339839 0.362586 0.069812
O 11.3019 6.84771 2.45076 0.027665 -0.720449 -0.844902
O 2.70748 9.83065 6.59371 0.719372 -0.786728 0.159546
O 9.92003 3.12462 9.15411 -0.918302 0.058111 1.098533
O 7.8448 5.4764 9.98175 0.512758 0.659854 2.045007
O 5.08385 3.39537 4.3984 -0.80228 1.172401 0.257505
O 1.15913 10.7883 9.06726 -0.452836 -1.218544 -2.607044
O 7.29435 5.39952 7.44154 0.389686 1.531061 0.900529
O 9.45072 9.36858 7.93965 -0.639223 0.483482 0.231251
O 11.1242 3.30422 4.39819 3.218937 -0.162725 0.689879
O 4.55659 8.67024 5.15896 1.114209 -0.342418 0.022362
O 1.58823 8.19002 1.31664 -0.349003 -3.803458 -0.403835
O 3.95986 10.4765 9.59672 0.210606 -0.277631 -1.576447
O 6.21153 7.48773 10.8347 1.790105 -0.572323 2.234299
O 12.2722 10.3869 11.1134 0.279754 -0.672163 -1.530936
O 11.8182 3.44929 6.76008 0.81418 2.106738 -0.8418
O 7.30583 11.8911 10.5537 1.919965 -0.346388 0.725984
O 2.94507 0.76756 11.411 -1.686968 0.478589 0.689692
O 7.37674 1.88732 2.26566 -0.384643 2.106083 -1.343825
O 11.2808 0.48964 9.81976 0.240261 -2.019567 -0.33212
O 5.58801 6.37492 1.39971 1.057224 0.383876 0.039725
O 5.07608 11.7812 11.4632 0.944163 -0.414431 0.849242
O 12.248 7.77458 10.5673 0.527832 2.125935 -0.576919
O 3.02124 2.02438 9.00438 -0.271316 1.170573 -0.851762
O 1.47535 5.28175 6.72983 0.598983 0.40584 0.658623
O 4.01067 0.71498 5.11869 -0.043004 -2.234977 1.953121
O 7.52874 3.59888 11.8524 -0.79671 -0.201429 -1.947158
O 11.1435 0.2465 2.55047 2.234985 2.006853 -0.213426
O 2.15213 6.54343 11.6083 -1.766991 0.174031 0.389337
O 4.49286 4.03773 1.28838 -2.586034 0.14266 -0.322732
O 3.68685 4.40045 7.76005 0.297914 0.559266 0.190987
O 2.89655 5.06777 4.24342 -0.127632 -0.38521 -0.01737
O 10.1764 6.25354 11.6657 -2.184572 -1.390576 -0.466537
O 0.56586 1.68238 8.145 0.441579 -0.420808 2.219073
O 7.84259 1.08093 6.50751 0.813302 -2.175345 0.117648
O 8.23767 5.39932 1.18956 -1.691571 -2.669623 0.166196
O 5.78922 1.91365 0.33352 -1.902167 0.925961 -2.247456
O 3.9279 7.94399 9.55223 0.599158 -1.285176 -0.442797
Cl 1.29568 11.4181 1.34247 -0.039347 0.176547 0.120778
Cl 0.18671 8.2052 7.23391 -0.131217 -0.038732 0.343021
190
energy=-1023.34657458 config_type=nep2xyz pbc="T T T" virial="-4.26898652622394 4.492924698593514 2.5107422372754744 4.492924698593514 -11.481073759195741 5.8690651095201565 2.5107422372754744 5.8690651095201565 -17.716046559438592" Lattice="12.4 0.0 0.0 0.0 12.4 0.0 0.0 0.0 12.4" volume=1906.6240000000003 Properties=species:S:1:pos:R:3:force:R:3
H 11.1099 11.929 4.9224 0.065698 -0.886749 0.31404
H 9.00514 4.68255 4.40023 0.223297 -0.312954 -0.084122
H 6.19972 8.05546 1.86471 -0.569381 1.271541 0.026165
H 10.9566 2.7854 8.16405 0.341842 -0.128257 1.599974
H 3.66724 3.49036 0.55762 0.228992 0.212648 -0.033743
H 1.46743 0.85921 7.83174 -0.114549 -0.112452 0.399077
H 3.53379 6.49789 2.96689 -0.294032 0.664264 -0.59101
H 5.74609 11.8117 12.38887 -0.110644 0.41927 0.241468
H 1.72163 2.69303 0.0046 0.167998 0.71741 -0.337803
H 7.82036 10.3546 5.83196 -0.10429 -1.205824 0.310393
H 10.0353 8.01411 7.18705 0.385631 -0.384305 -0.248993
H 1.35901 9.0929 1.97231 -0.41224 0.704529 -0.248062
H 10.3052 2.55951 0.26061 1.430912 0.598284 -0.127805
H 0.0466 1.47345 0.10983 -1.521587 0.527115 0.91054
H 5.28891 9.2832 5.53626 0.286647 -0.749756 -1.389709
H 10.5044 3.686 6.03951 -0.524407 -0.200758 0.528387
H 8.03137 2.73361 11.6901 -0.188867 0.487598 -0.087422
H 6.40656 6.40942 11.3382 0.660622 1.225139 -1.819025
H 6.66844 11.6785 4.56962 -1.997712 -0.117566 -0.742812
H 4.63688 12.0672 10.3156 -0.094445 -0.083252 0.764302
H 1.49365 4.02281 11.6386 0.083982 0.085682 0.028814
H 8.40495 12.0271 10.2892 1.317585 0.703035 0.326394
H 12.0129 5.16092 10.3198 -0.211219 -0.147656 0.900651
H 10.7809 11.7161 6.45979 -0.315021 -0.154805 -0.103651
H 12.2545 10.7708 9.37768 -0.144234 -0.43187 -0.531924
H 5.38475 10.7861 4.01125 0.553686 0.94763 0.72901
H 4.52415 0.44846 4.58434 0.028249 0.31707 0.404874
H 10.3888 0.08087 10.6284 -0.392742 0.497534 0.199454
H 6.33055 11.9127 10.9592 0.418487 0.302461 0.209012
H 4.92595 8.08848 7.69739 2.164157 0.749519 0.043237
H 7.25315 8.66813 7.60218 -0.740767 0.385136 -0.626552
H 3.05269 0.96461 4.58315 -0.53018 0.021776 0.357577
H 3.61884 0.25232 8.15332 -0.378809 0.413987 0.026073
H 9.4459 5.59249 1.08908 -0.745487 0.394396 0.571449
H 1.34491 4.69392 1.28979 0.217901 -0.515867 -1.107713
H 9.34482 0.78789 7.25638 0.497986 -0.331278 0.202709
H 3.44767 6.96739 6.29367 0.011872 0.052044 0.550715
H 5.3635 11.5642 8.4967 1.314666 0.156722 -0.47539
H 8.70914 4.30904 0.76102 -0.738817 0.563674 0.665815
H 10.2231 9.33397 7.96627 0.597915 0.429013 -0.045967
H 4.58354 2.58266 4.06042 -1.013285 -1.870773 1.538523
H 3.41853 1.08746 6.81082 0.12922 -0.068682 -0.180171
H 11.3237 7.10291 0.01035 -0.197795 0.174861 0.431862
H 6.29663 9.96397 7.63856 0.246978 -0.857671 -0.902392
H 8.81596 0.86978 2.55713 -1.753737 0.324751 1.121904
H 1.95373 9.81735 11.7369 -0.123902 -0.147269 0.303974
H 1.31976 0.57952 0.14333 -0.134605 0.05978 0.248621
H 7.6946 1.702 5.61431 -0.282241 -0.243927 -1.221843
H 7.17626 4.64183 7.26725 -0.539992 -1.059479 0.207712
H 9.01191 4.59955 2.81796 0.329087 -0.787357 0.246525
H 8.23518 6.40056 5.44755 -0.195182 0.548078 -0.460903
H 6.97119 11.5214 8.53502 -0.214173 0.438525 0.360946
H 7.76544 5.50008 9.7936 0.382283 0.207947 0.260655
H 8.72375 8.71983 9.47041 -0.262926 -0.212771 0.765169
H 8.58039 4.11856 11.0922 0.264341 -1.299039 0.420246
H 12.1987 3.72896 10.1283 -0.233184 -1.357781 -0.772464
H 0.11916 12.2149 11.2983 0.332346 0.21329 0.28096
H 2.09163 6.27897 6.68798 1.030116 0.44973 -1.658371
H 11.0952 6.48602 8.61791 -0.63234 -0.517967 0.446404
H 3.83803 4.65907 3.63125 0.544655 -0.623222 0.509102
H 0.31011 12.1867 8.148 0.058049 0.526077 -0.393611
H 11.3374 3.25257 1.73406 0.594705 0.988305 1.019894
H 9.15816 3.14514 6.66006 -2.132624 -0.555869 -0.665257
H 6.90588 3.08918 7.23423 0.413737 -1.030986 -0.651336
H 0.87083 8.65489 3.39839 0.223194 -0.384277 -0.151477
H 6.73301 2.45872 3.58245 -0.567463 0.20259 0.102315
H 9.8355 1.49498 10.096 -0.242731 -2.000509 1.450294
H 9.46176 5.66467 5.91818 1.964864 0.554258 0.865434
H 11.8168 8.10304 5.25189 0.118148 -0.738343 0.29298
H 11.5479 9.65106 5.08508 1.104518 -0.634329 -0.420798
H 11.4694 3.36957 11.9433 0.187729 0.52955 0.432989
H 6.84369 5.86603 0.83286 -0.78751 0.491456 -0.125786
H 12.2933 4.42856 2.65658 -1.045131 -1.000139 -0.527866
H 11.4746 6.09833 1.30697 -0.290947 1.194738 -1.124978
H 0.61006 10.0214 8.17239 -0.308006 0.058481 0.520129
H 7.57325 8.05107 10.4224 1.658604 1.750853 -0.417458
H 12.0849 1.86376 8.80509 -0.993395 0.73038 0.340955
H 7.31096 11.1299 1.58539 1.776973 -0.250695 -0.080366
H 4.09126 2.29542 8.83812 -0.218094 0.362752 -0.051377
H 8.14465 4.30716 9.01745 -0.84265 -2.095471 -2.062037
H 1.58814 5.38844 2.55637 1.516681 0.600575 1.68829
H 0.88879 0.69736 5.95926 0.770598 -0.426579 -1.58877
H 1.44244 9.62096 5.2614 0.702835 0.308326 0.628096
H 10.7179 3.88705 3.3226 -0.014284 -0.012404 -0.566621
H 4.24479 8.08586 2.60717 -0.456021 -0.565106 -0.368618
H 5.0912 3.42378 8.51688 1.068013 0.531228 -1.08151
H 9.82709 9.83318 1.38515 -0.893908 0.883896 -0.548587
H 6.15011 11.6541 2.46703 -0.132239 0.433408 0.845372
H 2.97137 9.01486 8.07058 -0.208587 0.134024 0.349856
H 5.81334 9.66393 2.06469 0.633646 -0.087299 -0.635919
H 4.06451 4.77239 9.72857 -0.030629 -0.108853 -0.261251
H 11.9095 10.7051 11.4745 0.046173 2.130152 -1.199312
H 4.04112 9.67774 4.95889 -1.408519 0.100871 -0.379554
H 10.8586 8.13256 10.6569 -0.078157 0.139969 0.248911
H 7.26526 0.71863 6.71255 -1.569625 -2.696409 0.434677
H 8.72118 9.97718 0.25538 -0.1553 -0.639291 -0.790892
H 4.03594 7.09749 0.4194 0.014235 0.322762 0.344492
H 8.79352 8.17686 3.63972 1.55429 0.101108 -0.455831
H 1.97801 9.43291 10.2373 0.026253 -0.097275 -0.180371
H 5.97371 1.54259 11.3551 -0.159532 -1.435523 0.339275
H 4.76238 3.16013 2.66577 0.119304 0.446384 0.033693
H 11.1792 8.7273 3.28627 -0.679256 0.106115 -0.467526
H 3.59654 11.0458 9.65561 -0.340923 -0.49218 -0.020236
H 12.3395 8.25912 10.9987 -0.736565 0.612391 0.591268
H 5.65169 2.76178 10.4753 0.105574 -0.063913 0.69462
H 10.8116 7.93506 1.95314 -0.558887 0.722163 0.435642
H 0.24954 11.8369 2.732 -0.842424 0.207179 -0.531593
H 3.76774 6.02063 10.7221 0.710933 -0.346742 -1.049755
H 5.12437 2.93199 0.32724 -0.125017 0.37239 -0.105311
H 8.21917 2.80028 3.85679 -0.280371 -0.515991 -0.331213
H 11.191 0.2454 2.65838 0.090945 -0.116291 -0.032031
H 8.92025 11.289 5.36184 2.410793 -0.119393 -0.455774
H 5.50766 5.28478 0.64282 -2.018227 -2.715977 0.232434
H 4.23179 6.92675 8.68404 0.110266 0.540407 -0.955592
H 9.99575 5.79939 9.63917 0.511017 0.150988 -0.788804
H 2.4806 7.8425 2.35913 0.982066 -0.392137 0.813743
H 3.14503 7.5863 11.571 -0.149878 0.540908 0.654562
H 9.56647 0.2951 1.35491 0.117252 0.433185 1.05686
H 10.7585 0.72853 8.08764 -2.150132 -1.172927 -1.336724
H 1.80475 11.0935 5.23803 0.18872 0.856499 0.202708
H 2.35417 10.1495 7.25317 -0.099853 0.093528 -0.032642
H 7.78413 10.5563 10.116 0.933634 -2.235847 0.504884
H 0.74941 0.48562 4.35293 -0.178254 0.172323 0.457738
H 7.36917 8.36715 3.7704 -1.718029 0.374149 -0.337957
H 3.01846 5.76092 4.64493 0.174537 -0.664332 -0.758789
H 5.73637 6.54482 10.0423 -1.657018 -0.275091 -1.294525
O 10.046 0.1717 7.5862 1.354167 1.582549 1.339943
O 6.41321 9.02232 7.21263 0.466671 0.820292 1.069624
O 5.72004 11.7409 4.0875 1.705711 -0.9959 0.484454
O 2.07435 3.63109 12.3257 -0.251849 -0.445251 0.535012
O 9.6746 0.83514 2.18888 1.454651 -0.738985 -2.513308
O 11.3148 2.48637 9.08048 0.533996 -0.392288 -1.805869
O 8.12305 8.20615 4.31532 0.198104 -0.505052 0.953313
O 5.75978 8.75158 2.41304 0.457943 -1.607561 -0.219397
O 3.13096 1.0071 7.74355 0.266907 0.000754 -0.121445
O 10.8931 11.2341 5.59466 0.225608 0.437601 -0.965902
O 8.01695 11.2457 5.58356 -2.490864 1.151839 -0.113091
O 9.26181 10.4895 0.84315 0.952547 -0.100664 1.475302
O 11.9875 0.0158 3.17493 0.712568 -0.02995 0.887469
O 7.56071 2.04584 3.8563 0.944078 0.289344 0.22402
O 10.4793 8.65164 2.58227 0.613954 -0.599411 -0.156167
O 6.20851 11.5834 7.92184 -0.892662 -0.528032 -0.285046
O 8.56325 5.5208 5.6713 -1.984375 -0.594311 -0.212906
O 8.31923 8.80641 10.3744 -1.332997 -1.336537 -0.653581
O 9.3469 4.08374 3.66009 -0.935001 0.991315 0.153059
O 1.39932 0.49429 5.10128 -1.188964 0.13909 0.978565
O 0.93802 5.34169 1.88184 -1.560044 -0.328911 -0.399511
O 9.60676 0.69058 10.7113 0.938091 1.46265 -1.32865
O 4.17014 7.57496 7.90821 -2.316082 -1.105835 0.633153
O 11.2659 2.86361 0.37703 -2.050784 -1.073976 -0.043677
O 5.6504 12.3328 11.5613 0.125572 -0.820219 -0.292125
O 12.1386 8.87408 4.7498 -0.790062 2.083041 0.206607
O 2.15689 10.2511 5.57355 -0.812682 -1.002109 -0.670856
O 10.875 6.24467 9.5493 0.400124 0.304584 0.114211
O 8.51026 4.85245 9.6695 0.192654 2.464326 2.057549
O 4.90649 3.35002 3.63087 0.903093 1.464822 -1.86285
O 0.47736 0.7426 7.91092 0.442056 -0.726757 -0.135968
O 6.81376 3.8676 7.77969 0.283895 1.998274 0.135475
O 9.57266 8.6778 7.7084 -0.999272 0.178265 0.449853
O 11.5505 3.68107 2.73096 0.968419 0.161336 -0.648868
O 4.81718 9.20072 4.64557 0.615393 0.762648 2.546163
O 3.52695 7.4277 2.30807 0.174049 -0.189783 0.945466
O 2.42176 9.83402 8.19052 0.571155 -0.537628 -0.111162
O 6.59975 6.79629 10.3397 0.813521 -1.406917 3.459024
O 1.99546 9.05412 11.1296 0.051032 0.135324 -0.351436
O 10.0471 3.33564 6.82818 2.867811 0.611686 0.250379
O 7.64548 11.4821 10.072 -1.996519 1.18122 -0.479934
O 0.88187 1.33564 12.0989 1.852633 -1.175862 -0.810767
O 6.37717 11.246 1.61585 -1.442064 -0.195641 -1.076057
O 12.15 10.405 8.45516 0.206979 0.412362 0.18437
O 5.9136 6.1084 0.5308 3.549552 1.802629 0.025311
O 4.2038 11.7645 9.49101 -0.225126 0.252593 -0.517242
O 11.4396 8.49283 11.3581 1.149128 -0.613859 -1.012708
O 4.51276 3.10907 9.19507 -0.80602 -0.813718 0.876022
O 2.66838 6.53785 5.90152 -1.118846 -0.48154 1.082031
O 3.93032 1.16953 4.93206 0.838578 -0.257904 -0.253255
O 8.72908 3.40773 11.8156 -0.056007 0.557529 -0.064684
O 11.9523 11.556 10.8836 -0.593828 -2.56587 0.759649
O 3.51985 6.8352 12.0572 -0.655191 -0.632218 -1.336976
O 4.57064 3.45935 0.95483 0.116643 -0.11262 -0.021397
O 4.08883 5.74498 9.77411 -0.398763 0.524507 1.538151
O 3.20139 5.39484 3.68568 -0.792677 1.458819 0.318896
O 10.8812 6.74794 0.82298 0.584394 -1.743156 0.924656
O 12.3161 4.35453 10.8438 0.049016 1.301643 -0.307691
O 7.72556 1.49869 6.55247 1.582301 2.970059 0.730479
O 8.64706 5.09747 1.44073 1.088669 -0.476697 -1.725612
O 6.0958 2.4873 11.3267 0.161678 1.555293 -0.695657
O 1.29089 8.32486 2.56742 -0.339027 -0.153715 0.006854
Cl 1.41841 10.9727 1.24608 0.31237 0.137691 -0.409995
Cl 11.4175 6.44446 6.26843 -0.058469 -0.194551 0.249786
190
energy=-1024.20888074 config_type=nep2xyz pbc="T T T" virial="-8.807691336896621 -3.2434858351862066 1.7287198652238975 -3.2434858351862066 -1.8219461189354103 1.343105424929303 1.7287198652238975 1.343105424929303 -14.993361562576439" Lattice="12.4 0.0 0.0 0.0 12.4 0.0 0.0 0.0 12.4" volume=1906.6240000000003 Properties=species:S:1:pos:R:3:force:R:3
H 9.65117 2.78641 8.83819 0.024006 -0.587645 0.296928
H 9.64987 8.31615 7.82567 1.349337 1.197365 -1.25374
H 0.46426 4.74849 6.9161 0.420943 1.836857 0.194237
H 7.11197 3.19071 3.40969 0.080827 0.811624 2.636207
H 1.91916 10.243 1.85839 0.29375 0.034981 -0.587567
H 4.99464 10.2949 4.19788 -1.418324 0.399676 0.059263
H 8.64536 3.39388 1.70316 0.713941 -0.401486 -1.395527
H 3.03186 8.73538 9.90704 1.227056 0.430339 -0.095928
H 1.7578 11.5349 1.03204 0.130123 0.246629 -0.558823
H 5.16281 2.35509 8.52955 -0.051928 0.451603 -0.362057
H 4.55183 4.59624 7.06263 -0.49467 -0.172587 -0.998426
H 2.95998 6.64496 4.18885 0.227487 0.231808 -0.553265
H 11.8682 2.15731 9.18783 1.032623 -1.013057 0.171881
H 2.88887 11.4757 3.28334 -0.157536 -0.041907 -0.841144
H 5.51239 3.82707 5.28601 0.501355 -0.3902 0.02194
H 0.37796 6.12516 9.56037 -0.085805 -0.103472 -0.301655
H 8.86092 10.7521 4.4688 -0.01096 0.32609 0.694554
H 8.24268 6.41733 8.96068 -0.556319 -0.56975 -0.81527
H 11.3164 2.33971 4.57065 0.193958 0.065157 -0.167645
H 5.08051 0.7623 2.30001 -0.032131 0.451157 -0.729055
H 4.96111 5.47673 1.39612 -0.193711 0.094962 0.174142
H 2.43375 8.02855 1.07141 -0.37308 0.197298 -0.233712
H 1.82367 3.4226 0.41814 0.035129 0.939809 0.887859
H 6.34974 2.06357 11.2461 -0.465275 0.218362 -0.474955
H 6.71561 7.52435 2.39105 0.114593 -0.166358 0.639777
H 10.2352 2.77441 5.57527 -0.151868 0.039814 0.208332
H 9.98481 8.27331 3.48265 -1.230252 0.580084 0.198203
H 7.58259 10.4997 11.0734 -0.617211 -0.114009 -1.08724
H 9.95472 2.16635 10.3029 -1.065512 -0.806877 1.620544
H 3.66478 6.2576 5.44301 1.392726 -2.522768 1.690626
H 6.95597 11.4422 9.09572 -0.165947 0.118205 -0.250406
H 11.1955 7.95389 2.60262 0.093029 -0.750523 0.077036
H 6.34333 8.33732 3.62358 -0.268689 0.67188 0.588385
H 9.76862 7.58693 9.89756 0.107496 -0.216788 -0.13762
H 3.09218 6.01877 9.53609 1.605035 0.269475 0.135122
H 2.22114 2.76094 10.4365 -0.203007 -0.003053 1.74853
H 3.06416 12.1332 7.41951 0.503953 0.667137 -0.78896
H 4.67837 0.9059 7.95284 0.187188 0.396974 0.137731
H 10.7861 9.16023 6.42269 0.518322 -0.074148 0.080823
H 3.51763 3.96352 5.95938 0.067467 -0.192211 0.662233
H 8.17616 0.42568 7.5836 -0.232806 0.099608 -0.257142
H 5.28731 8.06203 9.27657 0.892218 -2.135584 -0.095633
H 3.61859 8.93618 5.92129 0.013252 -0.220629 0.313634
H 5.75645 11.4717 10.295 1.271725 -1.325556 -0.95063
H 11.4332 5.06151 11.1941 0.199207 -0.592977 1.647291
H 0.37527 11.9889 4.7494 0.302414 -0.731469 1.095557
H 2.57919 11.2492 4.73775 0.253473 -0.213889 0.095776
H 4.20333 11.5342 6.70207 0.38541 -0.700767 -0.636563
H 1.77665 2.67863 6.17464 -0.897881 0.005237 0.825523
H 6.5795 2.34655 2.40379 -0.711541 -1.424729 -0.885962
H 6.6891 8.87755 0.36001 -0.279627 -0.252417 0.134483
H 5.27931 8.36463 0.82364 1.273819 -0.560814 -0.267289
H 0.59145 11.4491 8.63455 0.732044 0.306454 -0.847233
H 6.90625 0.0185 4.58245 0.36451 -0.433847 -0.124656
H 0.46913 2.65998 8.26504 0.708278 -0.103948 -0.298873
H 2.00939 4.58226 1.58024 1.126133 1.469337 -0.151989
H 8.63453 6.93911 11.6503 -1.263539 -0.616474 -0.127754
H 8.85941 6.27345 5.33741 -0.003426 -0.498275 0.136426
H 4.02216 6.22152 10.7549 0.273357 -0.005603 -0.767562
H 10.9477 10.3099 2.75392 0.318271 0.598312 -0.748885
H 6.10196 4.42915 1.80195 0.832179 -0.893195 1.631437
H 4.23182 2.94234 11.6718 -1.080228 -0.238266 -0.381455
H 1.09256 6.78862 8.17225 -0.398194 -1.078796 1.244091
H 3.06036 1.65236 6.35052 -0.379891 -0.393806 0.252643
H 1.92355 8.71764 12.1389 0.054488 0.055237 0.494542
H 8.82433 11.5487 8.12955 -0.218564 0.019188 -0.122139
H 8.38938 9.22756 11.7844 -0.448427 1.364806 -0.308212
H 5.51636 9.62551 9.46555 -1.275429 -1.234832 -0.257793
H 7.42265 10.9598 0.87604 -0.434261 0.766259 0.896827
H 8.81456 10.6417 3.01538 0.777773 -0.973245 1.047757
H 11.478 8.88367 4.76097 0.095117 -0.184048 1.003502
H 6.14696 10.4973 3.15127 0.240519 0.255605 -0.421075
H 6.58601 12.1543 1.65701 0.213235 -0.191729 -0.732417
H 10.4914 6.53268 8.94811 -0.595911 0.72495 0.341786
H 8.13171 0.70896 5.05326 1.250827 2.280023 0.785914
H 11.642 6.46923 0.76567 0.195896 0.366916 0.769495
H 10.5408 4.79254 5.09057 0.465979 -0.870108 -0.592662
H 6.86333 9.98327 5.31892 0.42478 -1.229219 2.198022
H 12.028 3.68058 6.1911 0.461308 -0.342472 0.30397
H 0.92863 0.47706 8.26538 -0.171008 0.751023 -0.049541
H 10.6923 4.33207 0.6463 -1.098738 -0.809512 0.495311
H 6.9184 3.2829 5.75998 0.25576 -0.172336 0.373302
H 0.8786 11.5011 6.28741 -0.043341 0.443595 0.205687
H 9.10723 9.07364 6.49511 -2.51452 0.299509 -1.484294
H 2.85961 12.1867 11.4048 -0.561964 -0.142674 -0.054621
H 11.5984 0.26753 3.11233 0.153667 -0.228414 -0.328847
H 3.95752 9.26152 7.43531 0.192515 -0.482613 0.276219
H 1.74631 2.73873 2.62711 -0.436771 -0.335559 0.272784
H 9.96593 0.37993 11.9211 0.530417 -0.290907 0.1513
H 2.38872 2.26762 4.031 -1.203583 -0.331408 -0.380857
H 4.95675 4.6253 9.008 -0.837507 -0.101934 -0.364287
H 9.90233 7.38715 12.1895 0.777888 0.852571 0.323923
H 10.9464 6.27151 4.51744 -0.825872 -0.892753 0.642188
H 12.2802 4.28495 0.8525 -0.483691 0.67428 -0.171234
H 1.45573 6.87371 5.87587 0.833656 -0.448359 0.4045
H 11.7595 10.5954 10.6776 -0.223398 0.231431 0.159009
H 6.61329 6.68341 7.84566 -0.172468 0.13935 -0.204254
H 5.62611 1.48377 4.51836 -0.432566 0.380265 -0.078821
H 0.4874 1.18048 3.59126 -0.869461 -0.225791 -0.045468
H 5.00213 0.42216 10.425 -0.139676 1.745719 -0.880317
H 6.3699 8.07419 7.03697 0.23742 0.250106 -0.329206
H 6.29843 4.33656 8.6364 0.467995 -0.390797 -1.056794
H 10.9706 10.9621 0.42459 0.229914 -0.094637 0.6062
H 0.3347 7.77158 6.05879 -0.585542 0.299996 0.784646
H 0.0301 10.4213 2.14814 -1.397284 0.935629 -0.334531
H 7.19397 6.67164 6.05963 0.199492 0.370841 -0.155587
H 5.3272 3.62891 0.09872 0.221001 1.047318 0.569551
H 9.81342 10.5933 11.8657 -0.208149 0.382311 -0.049392
H 5.09167 0.01414 11.9213 0.033339 0.107157 0.263309
H 7.37384 10.4734 6.74852 -0.107704 -0.336623 -0.152403
H 1.79365 7.85432 9.79446 0.20166 0.864796 0.975327
H 5.08027 1.56016 0.83395 0.151422 -0.389026 0.486015
H 7.32291 5.70881 9.84433 -0.678886 -0.450488 1.244493
H 8.06839 4.64143 11.9943 0.373682 -0.156275 0.119952
H 1.29039 12.035 11.0319 0.629043 -0.100282 0.292599
H 9.25794 2.51165 0.48189 0.234177 -0.828949 -0.081611
H 6.85431 5.48363 12.36097 -0.445489 0.11509 0.406347
H 11.3514 4.43491 9.7171 -0.194325 1.65152 1.689049
H 1.94016 1.69871 11.5293 0.501815 0.406661 0.18327
H 0.62064 9.95345 9.99624 1.270863 -1.24834 0.382306
H 8.62093 1.0572 11.6982 -0.125744 0.358026 -0.405413
H 0.13794 7.77989 0.98066 0.671156 0.302232 -0.374833
H 12.1882 10.1667 5.41424 0.590189 -0.3156 0.92319
H 4.65078 0.18556 4.28714 0.351271 0.850538 -0.570128
H 6.68223 1.32383 9.84403 -0.073272 0.506152 0.792792
H 7.65364 6.7885 4.3082 -0.690033 -0.150153 1.20183
O 2.29645 2.63004 11.436 -0.218872 -0.569716 -1.893764
O 6.44007 10.9022 9.73231 -0.742807 0.217865 1.331438
O 10.9855 3.12884 5.04985 -0.202935 -0.475905 0.013054
O 1.82748 11.2114 1.93866 -0.199653 -0.381518 0.761515
O 11.3516 5.29838 10.2762 -0.019878 -1.110306 -3.497116
O 10.3802 5.73098 5.13572 0.069138 2.187362 -0.1069
O 5.28044 0.85043 3.85266 -0.491576 -1.145959 1.223581
O 11.6501 7.41706 1.09356 -0.706092 -0.40379 -0.434599
O 4.809 8.84857 9.36944 0.14432 3.550382 0.071189
O 6.9393 1.43935 10.7884 1.171969 -0.843577 -0.566177
O 5.29763 0.72307 1.3197 -0.291359 0.573848 -0.252989
O 7.18869 9.62902 6.27052 -0.280037 1.445556 -1.869661
O 2.16039 8.66047 10.297 -1.571178 -1.215455 -0.576709
O 7.37452 5.90503 8.90578 1.757039 0.778005 0.464624
O 5.4117 4.08284 8.31326 0.304796 0.639366 1.770954
O 5.03333 1.4187 8.72246 0.104891 -0.98924 0.631504
O 6.2189 8.07135 0.65135 -1.051805 0.723664 0.251153
O 1.92951 12.2878 11.7345 -0.102036 0.216325 -0.419893
O 9.83835 9.07712 7.07163 0.733948 -1.390889 2.860144
O 0.79201 11.2356 5.34367 -0.555131 0.777556 -1.267218
O 5.15413 2.88149 11.91 0.253875 -0.637501 0.196027
O 8.09904 10.2091 11.8342 0.838605 -1.738896 1.215166
O 3.2948 6.99067 5.02273 -1.78519 2.629108 -1.20939
O 0.45076 1.9547 8.94927 -1.513471 1.205146 0.067508
O 10.3115 2.51763 9.50918 1.208362 1.405866 -1.848221
O 7.14203 11.3537 1.75691 0.67369 -1.071241 -0.046435
O 12.3019 10.5494 9.86675 -0.7687 0.942031 -0.38809
O 4.08411 6.11166 9.777 -2.017895 -0.584793 0.597354
O 1.14396 11.9747 7.96358 -0.393482 -0.990116 0.612885
O 7.96312 11.8967 7.83956 0.670568 -0.200822 0.457048
O 5.69736 4.90038 1.09829 -0.616051 0.940552 -1.909445
O 2.65491 2.41182 5.92146 1.337856 0.488056 -1.211054
O 4.05705 4.74277 6.20215 0.600357 0.147435 -0.094959
O 11.777 9.23609 5.68178 -0.660988 -0.064494 -1.963222
O 6.23102 3.16491 5.09058 -0.741264 0.307939 -0.299364
O 9.25686 3.37755 0.90456 -0.772759 1.673648 1.243499
O 9.56075 1.26817 11.8708 -0.662862 -0.329313 -0.293425
O 7.86519 6.35361 5.24535 0.604457 0.05271 -1.271563
O 12.0157 0.69004 3.86972 0.767749 0.539567 0.412421
O 1.21039 6.31846 9.08128 0.770554 1.142659 -1.138019
O 10.6226 11.1375 11.9329 0.097247 -0.04478 -0.563413
O 3.33326 11.2329 4.10754 0.332343 0.299722 0.818149
O 1.61131 2.14697 3.41565 1.528648 0.641754 0.058572
O 7.81417 12.2525 4.91106 -1.475168 -1.945448 -0.746277
O 0.3535 3.81966 6.87002 -0.595228 -1.637965 -0.445465
O 6.79096 7.51875 3.38257 0.266061 -0.495173 -1.709561
O 11.5026 4.82927 0.52189 1.530414 0.131413 -0.343489
O 11.4757 10.7232 2.01579 0.832507 -1.065321 1.28307
O 3.84643 0.01773 6.83956 -1.489374 -0.281147 1.46306
O 10.8649 7.92833 3.54397 1.217375 0.00735 -0.161488
O 9.29768 10.2057 3.80133 -0.971244 0.827543 -2.059682
O 9.18914 7.73406 11.632 0.450011 -0.193032 -0.148748
O 7.61615 5.46449 11.7536 0.451581 0.188154 -0.74875
O 6.38761 7.10369 6.97045 -0.485839 -0.146969 0.228961
O 5.86909 10.0181 3.94822 1.25648 -0.540127 0.100424
O 0.7175 6.9888 6.50196 0.256926 0.086323 -0.73634
O 3.61538 9.61959 6.61079 -0.02764 0.614722 -0.394744
O 1.52006 3.82809 1.29697 -1.118816 -2.247425 -0.960919
O 7.04712 3.16172 2.47832 0.57398 0.498288 -1.357347
O 9.82579 7.26899 8.9604 -0.012486 -0.276746 -0.043814
O 4.69765 12.1896 11.0637 -0.871431 -1.11344 0.844784
O 1.80896 8.72342 0.7255 -0.219976 0.044935 -0.454769
Cl 3.28436 6.48227 1.68442 0.146652 -0.457864 0.295704
Cl 8.65858 2.32079 6.88628 -0.091128 0.205746 -0.047541
190
energy=-1024.6106542 config_type=nep2xyz pbc="T T T" virial="-5.333555610283743 -5.514093712792979 -1.1406233331624678 -5.514093712792979 -1.645668291997877 0.5773149408101368 -1.1406233331624678 0.5773149408101368 -11.958022319637879" Lattice="12.4 0.0 0.0 0.0 12.4 0.0 0.0 0.0 12.4" volume=1906.6240000000003 Properties=species:S:1:pos:R:3:force:R:3
H 1.2879 10.3258 9.86402 -0.592153 0.257877 0.124068
H 3.31838 4.93524 5.86206 -1.787566 -1.546313 -0.754762
H 3.61267 8.35977 5.16384 -0.965758 -0.797414 0.142906
H 6.98987 4.02284 7.71163 0.307719 -0.394951 0.41106
H 11.5057 6.49287 1.38889 0.884672 0.142138 -0.361052
H 3.33705 6.82359 6.944 -0.016893 0.304514 -0.653385
H 6.3696 1.88047 0.74944 -1.416933 0.004926 0.132623
H 0.23536 10.5638 11.5755 0.435182 0.311189 -0.41588
H 11.1527 6.87644 2.87051 -0.270614 -0.379924 -1.049403
H 0.13654 0.21067 7.19447 -0.787121 -0.303717 1.939007
H 1.32641 3.37699 9.67134 0.501601 -2.066149 0.624797
H 1.22891 9.2709 1.02673 0.182318 0.142296 0.594706
H 12.3436 1.59649 1.31002 -0.576718 -0.401456 -0.73541
H 2.11127 12.36593 2.18417 -1.29453 -0.034427 -0.356592
H 6.86907 9.01195 3.77406 0.190261 -0.089352 0.408342
H 9.6211 4.19593 9.28236 -0.234086 0.268032 0.227105
H 10.1039 2.71847 4.87144 -1.233274 1.053854 0.224209
H 10.2215 6.81407 6.24394 0.887695 0.187815 -0.57561
H 8.16379 4.32103 4.56665 0.201358 -0.460794 -0.296233
H 6.31195 10.372 0.95075 -0.235153 0.248338 -0.002908
H 12.3269 5.52959 9.3861 -0.0222 0.178983 0.207918
H 2.29214 5.49606 9.87832 -0.032537 -0.838888 0.076859
H 10.7119 3.57735 1.36679 0.610389 -0.909645 -0.098772
H 8.94999 2.55705 7.91841 -3.038388 1.161972 -0.910087
H 6.77644 10.9879 11.9716 0.201615 0.315427 -0.025962
H 6.68222 5.08062 4.39205 1.018882 -0.580046 0.544792
H 9.07303 12.0104 2.08832 0.39703 -0.766957 0.566242
H 10.1561 10.5644 9.1554 -0.81497 0.663504 0.628486
H 0.37656 11.5687 9.51037 -0.140322 0.216451 -0.704904
H 1.56823 8.912 2.5317 -0.184621 0.089284 0.066196
H 6.57135 11.246 5.72889 0.241518 -0.053347 -0.418537
H 9.67289 10.6805 1.49655 0.044667 -0.316369 -0.520444
H 4.76468 9.5559 12.2112 2.249511 1.113697 0.422832
H 8.7542 3.96331 0.7589 0.416989 0.54802 0.103751
H 1.05855 5.70792 0.56499 -0.184077 0.120375 0.009051
H 0.83884 1.31675 9.23071 0.894962 -0.365151 -0.090463
H 0.29186 7.63318 9.90937 0.832659 0.707207 0.857232
H 11.2558 12.245 8.10361 -0.562954 -0.098385 0.014631
H 10.8086 11.2963 3.31978 -0.481901 0.022392 -0.158652
H 1.3284 4.21577 8.41719 0.185804 -0.166935 -1.481062
H 0.01273 12.0713 5.03655 0.814488 0.931998 0.179453
H 3.32453 9.33744 0.10584 -0.775852 -0.218536 0.435347
H 3.80414 9.03698 10.2492 1.083426 -0.302954 -1.141256
H 6.54843 11.8626 7.10348 -0.539173 1.48733 1.254584
H 10.4992 1.76889 9.75846 -0.6096 0.179932 -1.221589
H 0.04566 11.7629 1.0845 0.373278 -0.081702 0.479154
H 3.11434 0.14414 3.37954 -0.126311 -0.058432 -0.434678
H 3.30555 9.31463 8.66647 0.679468 -0.770731 0.286054
H 6.44789 1.6068 7.97936 -0.869986 -0.977004 0.170058
H 7.69597 3.53859 6.5095 0.094201 -0.375244 -0.16701
H 3.99639 6.32453 11.349 0.134213 -0.827273 -0.134308
H 5.32437 6.28544 0.155 0.330951 0.413468 -0.325106
H 3.23499 11.4799 7.63052 -0.194263 0.07774 -0.031299
H 4.62463 3.73399 10.7744 -0.252336 -0.426002 0.004325
H 11.5308 2.09192 12.3913 -0.440516 -0.819428 -1.19768
H 10.3633 4.85049 2.13193 -0.700302 -0.568157 -0.17929
H 6.97562 5.45303 0.59178 1.223733 -1.773232 -0.681958
H 0.77487 8.44624 11.2221 -0.045418 -0.35799 -0.724225
H 1.1721 7.12109 1.24087 -0.187327 -0.003249 -0.380053
H 9.65301 3.25962 3.51309 -0.241256 0.450073 -0.19063
H 11.5118 6.49677 8.46467 0.188419 -0.087864 1.068981
H 2.49354 3.35241 0.04732 -0.250849 0.352663 -0.06234
H 10.4273 5.35044 9.96653 -1.200148 -0.105285 -0.284591
H 5.07775 0.67076 8.25728 0.863529 0.243991 -0.119471
H 2.23167 6.95411 10.0414 -1.940162 2.824698 0.570056
H 1.49996 0.31682 5.42476 -0.509525 0.078915 -0.254084
H 9.00889 11.4186 10.0658 0.303826 -0.040112 -0.31357
H 4.37737 7.62991 12.0912 -0.125093 -0.180347 0.45347
H 7.78938 1.62384 1.90221 0.034145 -0.459036 0.514329
H 8.2531 1.89313 3.43677 0.009252 -0.275913 -0.250267
H 11.9578 10.3873 3.76511 0.735383 -2.000859 0.10168
H 3.41409 6.32237 8.40761 0.01721 -0.511026 -0.142105
H 5.24064 0.03108 4.09174 0.18586 -0.015987 0.420014
H 8.62757 4.42744 11.6523 -0.163057 -0.037946 0.01999
H 5.52017 4.52298 9.77521 0.216541 0.053772 -0.439038
H 9.2412 8.93602 12.2826 0.474548 0.215398 0.405588
H 8.19649 6.19943 5.39538 0.59918 -0.060325 0.26778
H 6.43947 9.7191 7.53647 -0.706336 -0.464502 0.137947
H 1.95668 7.96416 5.10058 1.64725 0.277086 0.66054
H 3.25954 0.55308 7.11856 0.068332 0.146968 -0.974282
H 8.2179 8.06168 2.19669 0.058164 0.137055 -0.445362
H 8.11654 9.873 3.35655 0.112115 -0.216914 0.276836
H 11.8741 3.42708 6.03444 -0.19441 -0.392766 -0.196061
H 2.90866 3.37922 5.72142 -0.228556 0.832727 -0.408514
H 2.76766 1.93022 10.6712 -0.697487 -0.795839 -0.783455
H 4.01671 1.02982 1.49872 -0.565937 -1.476908 0.565907
H 5.06768 8.82732 8.79068 -0.472315 0.524462 0.033381
H 4.0103 10.5451 2.09761 -0.944671 0.482423 0.010003
H 8.79738 11.2666 7.10874 1.233615 0.424534 0.439851
H 5.33386 10.8966 2.73057 0.41447 0.516693 0.611752
H 5.22233 5.31006 7.72398 1.451231 0.424687 0.631323
H 7.23617 6.96192 0.80339 0.541443 0.121822 0.210026
H 8.60628 7.69033 5.06102 0.32913 -0.253724 0.392615
H 9.28415 7.13695 1.66037 1.086754 -0.62233 -0.164243
H 12.3981 5.64523 6.2804 0.209472 -1.105089 -0.504379
H 1.42726 9.96326 7.77085 -0.169603 0.020745 -0.163238
H 2.71148 4.08998 1.85757 -1.050096 -0.105022 -0.802767
H 4.93336 8.91152 3.44813 -0.250706 -0.181084 0.287242
H 12.3667 12.1293 2.67701 0.331001 -0.208107 -1.307497
H 7.46784 0.32157 9.72237 -0.245011 -0.185627 0.329645
H 3.01303 3.74945 3.38938 0.633338 0.543998 -1.278304
H 6.5635 6.00011 8.34118 0.244223 0.438404 -0.177231
H 11.3508 10.232 6.89759 -0.424527 -0.075477 -0.485223
H 1.26427 4.66375 5.63979 -0.426002 0.441304 0.579777
H 4.18765 2.47372 1.75648 0.082391 0.805156 0.266044
H 8.65443 7.38559 7.82807 0.322924 -0.24565 -0.620632
H 1.09328 3.09737 0.62338 -0.452195 0.534451 0.045598
H 12.0875 8.79135 6.98855 -0.783024 0.564232 -0.124623
H 7.56626 0.78021 11.1816 0.107978 0.291243 0.690744
H 6.82709 8.2891 8.14032 -0.509524 0.148758 0.246906
H 11.5516 9.89546 0.10213 1.220374 -0.06698 0.093196
H 6.70571 0.18849 3.51904 -0.671287 -0.918951 0.784309
H 8.55442 6.59344 9.17088 0.035432 -0.104823 -0.147088
H 4.71717 5.06465 2.89094 -0.177163 0.320795 0.306742
H 3.88757 1.72975 11.8345 -0.683179 0.886652 -0.628734
H 7.56131 2.63837 0.16223 0.801526 2.917887 -0.874516
H 5.91433 5.98325 2.57694 0.890859 0.387959 -1.40928
H 10.6391 0.57863 10.7402 -0.244346 -0.688611 -0.259536
H 2.31138 0.77767 8.90968 0.222554 -0.681142 -0.490952
H 2.44364 9.11503 6.8239 0.184904 1.198642 1.23443
H 9.76251 0.0084 6.83288 0.071887 0.376382 -0.011673
H 9.96155 9.96004 11.2905 -0.244739 0.029391 0.436796
H 11.9944 1.80528 5.73717 -0.591427 1.072339 0.197341
H 4.9716 7.38639 3.82146 0.089938 -0.032997 0.228048
H 10.3682 2.24002 7.39667 -0.107206 0.408534 0.353683
H 11.7 7.37205 5.77605 -0.875038 -0.380928 0.132489
O 1.80779 1.48921 9.31976 -1.338684 1.41402 0.812756
O 6.94595 11.1459 6.62463 0.571147 -1.511738 -0.557631
O 7.45725 4.83649 4.99047 -1.677325 1.275259 -0.109032
O 10.78 6.46232 2.04057 -0.444889 0.157608 1.765231
O 10.7441 1.51929 10.6435 0.83882 0.518025 1.709868
O 8.86535 6.92807 5.63025 -1.234039 0.505276 -0.464309
O 5.03349 8.29011 4.21574 -0.107102 0.47048 -0.68518
O 9.99862 9.55118 12.2138 -0.377465 0.031777 -0.272885
O 4.00593 9.13798 11.853 -1.37875 -0.616767 -0.421917
O 9.7824 2.27429 8.19276 3.79194 -1.325684 0.86912
O 6.08061 11.9295 4.01268 0.816967 0.923096 -1.261321
O 6.05003 8.87259 7.93577 1.032795 0.300468 -0.124425
O 0.13274 10.1866 0.07931 -1.681073 -0.518281 0.623294
O 8.09948 7.24352 8.5949 -0.342141 -0.049537 0.546219
O 6.14969 5.15827 8.12863 -2.186401 -0.117494 -0.425465
O 12.1713 0.11434 8.17958 1.390943 0.500281 -1.837496
O 4.38728 6.63111 12.2056 -0.960206 0.576436 -0.405952
O 3.38205 2.36938 11.26 1.50025 0.168471 1.541265
O 2.6464 4.28621 5.41175 3.137575 0.144218 0.600276
O 11.3474 2.55949 5.93203 0.729265 -0.805561 -0.220071
O 1.80252 3.79195 0.61099 0.402404 -0.205631 -0.758289
O 9.81872 10.8567 10.0288 0.862756 -0.539565 -0.085225
O 1.92453 8.8872 1.63052 0.296649 -0.028399 -1.192528
O 12.0718 2.35506 0.72395 0.617066 0.881686 1.487162
O 0.83869 11.1127 10.2269 0.77378 -0.55512 0.321541
O 7.93022 1.2113 2.8002 0.067209 0.132658 -0.044445
O 2.38643 9.82995 7.62611 0.174807 -1.32299 -1.472796
O 0.58838 6.56156 0.67779 0.590603 -0.229078 0.108452
O 3.37791 0.00862 7.89856 0.325223 -0.402251 1.000407
O 0.52144 0.39431 5.54238 -0.331536 -0.875132 0.166891
O 11.7417 6.32637 9.43134 0.158356 -0.068864 -1.654692
O 6.07146 0.71583 8.257 0.336392 0.825368 -0.234954
O 1.10589 4.21742 9.33418 -0.67116 2.381975 0.471609
O 11.679 11.2862 3.78031 -0.522516 1.86651 0.70829
O 7.8451 9.04404 3.80285 -0.11178 0.16256 -0.595649
O 7.2044 1.79503 0.29586 0.032486 -3.194226 0.313047
O 9.72612 11.6054 7.36299 -1.742653 -0.8244 -1.03957
O 11.2188 6.86402 6.4792 0.533573 0.489782 0.383276
O 0.33081 0.01599 1.76741 -0.073253 0.460378 0.540444
O 9.49493 4.989 9.85024 0.796662 -0.152468 0.151025
O 11.9785 9.68197 7.36563 1.115788 -0.483216 0.894491
O 3.01323 12.206 2.45347 1.110629 -0.283527 -0.05002
O 4.91142 10.2275 2.16922 0.621709 -0.938317 -0.130775
O 5.2366 4.47325 10.6909 0.006861 0.276417 0.62002
O 2.80421 7.99605 5.68108 -0.736778 0.767198 -0.650943
O 6.77998 10.1973 0.12282 -0.138354 -0.589789 -0.264797
O 8.52278 7.64272 1.35466 -0.980785 1.108582 0.565027
O 4.63527 1.73142 1.3233 0.675745 0.61459 -0.629681
O 1.03556 8.21518 10.3004 -0.739046 -0.267505 -0.065634
O 9.54018 11.1627 2.32609 -0.908462 0.956217 -0.111433
O 9.26992 3.14693 4.41293 1.724721 -1.475215 -0.233799
O 6.53367 6.26673 0.76871 -1.580659 0.73517 0.569417
O 5.33074 5.74783 3.2806 -0.756511 -0.712428 1.085329
O 3.42207 3.97757 2.50089 0.990321 -0.49317 2.629623
O 3.59642 6.05176 7.46411 0.319566 -0.16153 0.46806
O 0.38388 4.74083 6.10683 -0.956496 0.345957 0.643299
O 4.03104 8.8198 9.27435 -1.098657 0.890053 0.193902
O 10.0052 3.91758 1.92807 0.253876 1.194258 0.330001
O 7.57556 3.24981 7.43206 -0.737413 0.18877 -0.576411
O 8.11095 4.19975 0.05349 0.125613 0.085307 -0.178349
O 7.8051 0.04515 10.6 -0.409865 -0.217552 -0.994753
O 2.85752 6.27737 9.96267 2.097226 -1.955206 -0.057249
Cl 3.57289 0.93787 5.03202 -0.21941 0.526444 0.571184
Cl 0.15541 8.44783 3.98962 -0.055374 -0.489935 0.518559
190
energy=-1022.82428647 config_type=nep2xyz pbc="T T T" virial="-10.31895864479725 -6.413345064332954 -3.8341647130550656 -6.413345064332954 -11.82783401026796 0.7254249680878347 -3.8341647130550656 0.7254249680878347 -19.21602056701088" Lattice="12.4 0.0 0.0 0.0 12.4 0.0 0.0 0.0 12.4" volume=1906.6240000000003 Properties=species:S:1:pos:R:3:force:R:3
H 11.0716 11.2595 4.02742 0.691769 0.809174 -1.284493
H 9.50445 4.64873 3.95665 -0.024423 0.359325 0.138179
H 6.01715 7.18514 2.19348 0.153931 0.554284 1.12329
H 12.3852 2.28357 7.43416 -0.835037 -0.833358 1.002337
H 3.90458 3.91003 0.43872 0.209932 -0.224055 -0.033521
H 3.19946 1.34811 8.19692 -0.53159 0.114939 -0.037878
H 3.37944 6.43334 3.99902 -0.294793 -0.273679 0.892361
H 5.59114 12.3834 11.8696 1.069006 0.290017 -1.310265
H 1.84347 3.83825 11.9101 0.17278 -0.05861 -0.012955
H 8.08255 11.751 4.38513 -0.128954 0.684028 -0.317453
H 10.3735 8.13181 8.45498 -0.755454 -0.080359 0.784773
H 1.86769 9.44712 0.76382 0.42347 -0.985718 0.441167
H 12.1111 1.15289 0.23382 0.243454 -0.667612 -0.288329
H 2.63536 2.19775 10.3342 -0.117263 -0.227993 -1.32551
H 3.95157 9.05623 5.9267 -0.082557 0.07057 -0.186655
H 0.63549 3.81761 6.50632 1.644551 1.496268 0.245387
H 7.67 2.96384 11.0262 -0.541917 -0.158456 0.336522
H 5.90401 6.21988 12.0215 0.335088 0.32745 -0.061247
H 5.9354 11.4444 3.83706 -0.227903 -0.727224 0.284554
H 4.32187 11.852 10.3692 -0.618735 -0.65087 -0.619941
H 0.7483 4.93614 12.3511 -0.523877 0.237135 0.2668
H 8.15778 11.452 9.99891 -1.201594 -0.798483 -0.412219
H 11.0018 3.76969 10.0501 1.184748 -0.986705 0.312969
H 10.3214 11.4244 5.29319 0.017708 -0.980194 -0.466731
H 10.6407 11.5487 9.92289 -1.185945 2.540223 0.241138
H 4.48413 10.6945 3.82186 0.238318 -0.540397 0.775031
H 4.62715 0.48449 4.57117 0.122076 0.131036 -0.241474
H 9.3832 0.26269 11.4078 0.211576 -0.064057 1.092045
H 6.42489 12.03 10.4105 -0.65766 -0.120952 0.875524
H 5.50976 7.73497 7.05412 -0.839751 0.03284 -0.348693
H 7.73328 7.82271 6.12232 -0.764554 0.368165 0.327073
H 3.24138 0.89378 4.95388 -2.017023 -0.125352 0.199983
H 5.20267 1.15858 7.64409 0.452991 0.156175 0.316247
H 10.3197 5.26457 0.7102 -0.885939 -0.02318 0.255026
H 1.71129 4.59138 1.59506 -0.705284 0.222423 1.348183
H 9.73174 1.22395 6.609 -0.752107 -0.288524 -0.260314
H 1.03561 5.89826 6.43138 -1.802878 1.462852 -0.047239
H 6.79495 12.1361 6.78881 0.360499 -0.080574 -0.554043
H 9.23858 4.32013 0.08134 -0.229881 0.123983 0.299478
H 10.3201 9.33456 9.43395 -0.14528 -0.000538 0.134001
H 4.54185 2.83432 3.98301 0.323866 0.233712 -0.123805
H 4.52316 1.80567 6.4076 -0.153075 0.257358 1.858355
H 11.924 6.72157 0.35844 0.142478 0.498842 0.128087
H 7.72951 7.89237 7.71387 -0.682593 -0.327539 -0.971876
H 8.27687 0.74867 2.87851 -0.569997 -0.897776 -0.290593
H 1.40231 10.3076 11.5287 -0.051167 1.995948 0.861891
H 2.67119 1.44403 11.6197 0.144314 0.441082 0.114949
H 7.99604 2.3335 5.59259 0.340058 -0.139431 1.0083
H 7.07766 5.7484 6.85817 0.653734 1.309343 -0.46211
H 9.41139 4.22477 2.3518 0.765899 -0.132655 1.875816
H 8.71076 6.5632 4.9423 -0.734251 0.590434 -0.543083
H 6.61865 11.7554 8.27741 0.280565 0.748744 -0.28187
H 7.31709 6.04344 10.3268 -0.346883 -0.43465 -0.288713
H 8.4759 8.3791 10.1675 0.154362 -0.316418 -0.686859
H 8.59805 4.12079 10.5637 -0.20268 -1.545664 0.542554
H 11.674 2.31148 9.27099 0.528114 0.249782 0.526851
H 10.9887 11.5318 0.94316 0.28076 -0.014242 -0.071178
H 2.3209 5.63826 7.30167 -0.92979 -0.507642 -0.653094
H 11.8705 5.8618 9.70888 -0.423705 -0.362214 -0.042183
H 3.97901 4.71256 4.1654 0.249862 0.22438 0.878986
H 2.82934 0.16374 9.10686 -0.436953 -0.075345 0.181229
H 11.8152 2.5207 0.83415 -0.107759 0.456061 0.470364
H 11.5114 4.0098 6.47303 -0.23298 0.371475 0.093904
H 7.36794 4.16976 7.03225 -1.38044 1.862116 0.145727
H 1.06302 9.07667 1.96007 0.892512 -0.708254 -0.293165
H 6.85764 2.75478 3.76617 -1.359539 0.725814 -0.120824
H 9.50252 1.28882 10.2643 -0.258631 0.066034 0.137141
H 10.0404 6.24678 5.57422 -1.145157 -1.086945 -0.171469
H 12.2396 8.32569 5.38498 -0.270459 -0.615405 0.314848
H 11.7192 9.55399 4.60954 0.183633 -0.341367 0.079834
H 11.7249 2.43292 11.1306 -0.727446 0.81077 -0.644459
H 7.42484 5.33711 1.25826 0.210419 0.708552 -0.25227
H 0.33753 3.2758 2.80631 -0.077507 -0.057872 -0.202252
H 12.3748 5.76389 1.69 -0.16864 0.622002 -1.331979
H 12.1082 10.9586 10.1454 -2.080887 -0.226011 -0.405615
H 6.90989 8.12117 10.5085 -0.372034 -0.864607 0.204521
H 0.76885 1.192 8.30535 -0.563162 0.397362 0.368557
H 6.74081 0.06562 1.56341 0.730902 0.010879 0.122525
H 4.72873 3.30146 8.32962 0.55434 1.302239 1.568909
H 7.59629 5.00307 9.09077 0.536783 1.804567 1.259246
H 2.2175 4.95539 3.09654 -2.30668 -0.545598 -0.90343
H 0.82043 1.37427 5.70206 -0.001607 0.03211 0.017488
H 0.59613 10.0152 5.98098 -0.242772 0.09613 -0.743705
H 11.2168 3.20332 2.98434 -1.803021 0.865141 0.784574
H 3.19596 8.3126 4.14227 -0.304239 2.465434 1.552489
H 5.652 4.55336 8.67486 0.228984 0.052036 -0.544362
H 10.2242 8.96357 12.2318 -1.552964 -0.060459 0.47117
H 5.35318 11.8571 1.60259 0.392103 1.02719 -0.092861
H 2.46833 8.18933 8.58756 0.211047 -0.370617 0.08839
H 4.87836 7.68746 3.11507 0.282357 0.343826 0.204815
H 3.94918 5.46358 9.09593 0.219787 -0.738636 -0.693569
H 9.69081 10.6821 0.68075 0.079561 0.123316 0.033706
H 2.57557 9.76656 5.57404 0.782155 0.35314 -0.079104
H 11.2228 8.00541 10.6274 -0.272906 0.013761 0.087303
H 7.57719 1.83535 7.04584 1.066723 0.241977 -0.486493
H 8.55021 9.0416 12.102 1.532482 -0.162851 0.978523
H 2.28274 6.12774 11.8447 0.240149 0.48932 -0.051786
H 8.82195 8.50603 3.96487 -0.123048 0.028157 -0.35632
H 1.89974 9.53935 10.2526 -0.433066 -0.142924 0.405562
H 5.73431 1.92548 11.1989 -0.012868 -0.379724 -0.401143
H 5.14016 3.72407 2.82489 -0.467556 -0.101254 -1.108574
H 9.85193 8.69261 1.95526 0.063816 -0.254674 1.427731
H 3.65906 10.5845 9.53821 0.125585 0.067908 -0.001151
H 12.3635 8.70452 11.4199 0.248345 -0.129631 -0.054183
H 5.58325 3.46387 10.7233 0.318548 -1.25798 0.575601
H 10.6962 8.02382 3.15913 1.516085 -1.2546 0.151181
H 0.3161 12.2163 2.4121 -0.519249 0.60563 1.299314
H 2.90091 6.26529 9.79514 -0.206722 0.570792 -0.052373
H 5.31959 3.21355 0.43421 -0.4938 -0.212436 -0.696432
H 8.38487 2.8704 3.63947 0.539837 0.438299 -0.051834
H 12.0125 1.18814 2.90988 0.731227 -1.229096 0.857544
H 7.65317 10.587 5.10707 -0.21153 -0.990458 0.463556
H 5.97633 4.90827 1.10841 -0.68354 0.161559 0.101688
H 4.02252 7.23693 7.59692 1.665408 1.513086 -1.82991
H 10.3446 5.88958 9.91273 -1.43617 0.933916 -0.290074
H 2.76602 7.78354 2.65229 -0.920947 1.002848 -0.922759
H 2.29273 7.72244 11.3985 0.392722 -0.922481 0.489688
H 9.05188 12.0505 2.02482 -1.216028 -0.098966 0.309586
H 10.8439 0.51032 7.26416 1.330616 -0.158975 0.854329
H 1.40823 11.4654 6.05658 -0.601064 -1.795026 0.695568
H 2.08238 9.48977 7.88077 -0.453301 0.783529 -0.672781
H 7.3111 10.0887 10.2975 0.367196 -0.105877 -0.113198
H 0.72816 0.36404 4.51767 0.349521 0.602671 -0.362826
H 7.24055 8.0708 4.00915 0.373313 0.265105 -0.040398
H 2.84716 5.3941 5.41516 -0.531254 -0.081693 0.085584
H 4.77723 6.81521 11.1072 0.611505 -0.206342 0.040835
O 10.1188 0.3304 6.68681 -0.502681 -0.000362 -0.750185
O 7.15888 7.65879 6.93574 1.598388 0.247975 0.711091
O 5.05699 11.3482 3.41522 0.033904 1.133829 -0.465513
O 1.68877 4.67831 12.3972 0.899971 -0.93194 -0.593998
O 8.15453 12.2313 2.51071 1.579483 1.188386 0.158366
O 12.2459 1.60292 8.19583 1.150818 0.111588 -1.445509
O 8.04857 8.29203 4.54522 -0.694223 -0.328204 0.559946
O 5.84604 7.75106 2.99941 0.391906 -0.829052 -1.239791
O 4.62967 1.93843 7.44925 -0.29004 -0.333075 -2.055304
O 10.4687 10.7497 4.55227 -0.621065 0.85657 2.06568
O 7.444 11.5218 5.08575 -0.022027 0.007877 -0.224488
O 9.35274 9.17717 0.33067 0.30102 -0.422031 -1.381864
O 12.3258 0.25881 3.24698 -0.52012 0.081746 -2.020778
O 7.65539 2.27972 3.91421 0.995903 -0.985245 0.35196
O 10.0223 8.63038 2.95499 -1.46873 1.256182 -2.026965
O 6.60907 0.1264 7.65392 -0.497629 -0.604004 0.59936
O 9.20578 5.78242 5.20537 1.759664 0.295883 0.467372
O 7.70067 8.62418 10.7035 0.001656 0.58506 0.772999
O 9.6834 3.91917 3.3177 -0.737822 0.088786 -2.103095
O 1.35772 0.7417 5.21184 0.241037 -0.599919 0.586537
O 1.36382 4.7252 2.56409 2.770807 0.284016 -0.075657
O 9.51707 0.3384 10.4674 -0.227118 0.084733 -0.952717
O 4.52545 7.80191 6.86631 -0.831179 -1.63884 2.177215
O 11.7562 2.0219 0.00107 0.06326 -0.15075 -0.114549
O 5.68483 0.16155 10.8545 -1.093676 0.315178 1.311021
O 0.1202 8.96055 4.71699 -0.578846 0.491859 -0.543338
O 1.29738 10.506 6.42787 1.230123 2.069097 0.42556
O 11.1017 5.34063 9.99962 1.191516 -0.371184 0.233985
O 8.01583 5.57397 9.83355 -0.048489 -1.147554 -1.300955
O 4.9639 3.70856 3.76579 -0.345263 -0.646574 1.062719
O 2.4231 0.9877 8.70581 0.443655 0.246529 -0.180343
O 6.73343 4.96325 7.25527 1.05867 -3.638556 0.541591
O 9.90585 8.43926 9.29507 1.260644 0.069797 -1.004389
O 11.9369 2.75116 2.56921 1.698281 -0.566668 -0.831935
O 3.49991 9.5912 5.21973 -0.664657 -0.457156 0.010668
O 3.26475 7.66813 3.45535 0.994021 -3.387485 -0.589347
O 2.37977 9.13452 8.72175 0.266961 -0.180054 0.444357
O 5.74173 6.59884 11.1282 -0.873664 0.201751 -0.137642
O 1.49229 9.45081 11.1621 0.395808 -2.042725 -1.734553
O 12.2287 3.40441 6.27668 -1.201409 -1.62484 -0.501956
O 7.28741 10.9548 9.82657 1.616185 1.468491 -0.243321
O 2.86291 2.32689 11.2502 -0.278757 -0.112523 1.245948
O 5.86452 0.18839 1.15957 -1.329802 -0.998937 -0.295323
O 11.1415 10.7691 9.93472 3.252842 -2.653382 0.124357
O 6.52908 5.71357 1.15671 0.366019 -0.746498 0.045785
O 3.45908 11.4114 9.99624 0.764286 0.588226 0.538507
O 11.6213 8.06162 11.5155 -0.024227 0.097159 0.251119
O 4.91357 4.06038 9.06039 -0.518216 -1.466859 -0.906006
O 1.78335 5.33734 6.48982 2.844013 -0.850538 1.579479
O 4.12025 1.24309 4.9393 1.748216 0.309638 -0.383513
O 8.61685 3.17106 10.954 1.023591 1.781712 -0.604511
O 10.0245 11.596 0.89516 -0.425015 0.289934 -0.175517
O 2.80306 6.866 11.4338 -0.357876 0.651869 -0.525504
O 4.6594 3.68852 1.00041 0.285795 0.42875 0.905141
O 3.23156 6.09953 8.87798 -0.366266 0.292905 0.081703
O 3.38332 5.46839 4.57586 0.699261 0.549624 -2.156109
O 12.046 5.83728 0.74402 -0.636582 -0.796874 1.059083
O 11.5118 2.88408 10.1432 -0.392103 -0.059527 0.10717
O 8.29815 2.32695 6.56193 -1.539643 0.156288 -0.346692
O 9.35472 4.99111 0.79938 0.949905 -0.554209 -0.474684
O 6.00173 2.84292 11.4088 -0.178986 1.22931 -0.758044
O 1.80682 8.70239 1.41474 -1.353527 1.251877 0.454068
Cl 0.67796 11.5668 0.56368 0.090715 0.415655 -0.020736
Cl 11.3943 6.94511 6.93455 0.418211 0.00325 0.07678
190
energy=-1023.65707623 config_type=nep2xyz pbc="T T T" virial="-10.590152555421664 6.392757699140087 -1.5420769544233663 6.392757699140087 -18.723613632357452 0.44043871280530933 -1.5420769544233663 0.44043871280530933 -9.774226481962877" Lattice="12.4 0.0 0.0 0.0 12.4 0.0 0.0 0.0 12.4" volume=1906.6240000000003 Properties=species:S:1:pos:R:3:force:R:3
H 10.4636 2.83047 8.6376 -0.232469 -0.338185 0.59485
H 9.85027 7.9867 7.55225 0.366431 1.664527 -0.571864
H 1.03475 4.91147 6.2148 0.091276 0.314677 -0.119126
H 7.6527 3.12522 3.57527 -0.496074 -0.60482 -0.775586
H 1.45353 10.0035 1.39829 0.366279 1.036088 0.095959
H 4.9932 10.1314 4.04518 0.566753 -0.521824 0.245161
H 8.94391 3.44723 1.45967 -0.665117 -0.077522 1.357457
H 2.43033 8.90145 9.62491 0.327648 0.147521 0.493957
H 1.9975 11.5124 1.32212 0.178271 0.074479 -0.659766
H 4.46065 2.68445 8.97484 0.288981 0.542108 0.041493
H 5.27765 4.45402 7.35936 -0.213498 0.358625 0.367812
H 3.97615 6.79435 4.34388 -0.144268 0.125072 -0.236933
H 0.12038 2.59994 8.89572 0.700931 0.333481 0.49569
H 2.62721 10.8463 3.38386 -0.980878 -0.046156 -0.970017
H 6.26159 3.79348 5.61753 0.539981 -0.310427 0.323997
H 0.63288 6.04248 9.20716 -1.096547 -0.546397 0.662621
H 8.56877 11.1852 4.09983 0.087744 -0.085855 -0.3498
H 8.16311 6.168 9.37405 -0.637412 -0.197689 -0.786808
H 11.2721 2.38766 4.59164 0.390673 -0.010295 -0.709132
H 5.4848 1.06742 2.51042 0.110524 -0.094769 -0.181324
H 4.85743 5.02955 1.67469 -0.830218 0.865339 0.136217
H 2.11155 7.78158 1.0173 0.318992 -0.366083 0.404547
H 2.02313 3.41907 0.6802 -0.08994 0.405402 -0.218568
H 6.46108 2.6463 10.8455 -0.354118 -0.082026 -0.181352
H 6.16994 7.31636 1.57545 0.015296 0.386746 -0.503096
H 10.2679 2.3439 5.71873 0.413895 0.656348 0.335109
H 9.63112 9.01888 3.62427 0.466856 -0.782204 0.579154
H 7.5414 10.1063 10.6789 0.880753 -0.270401 1.708277
H 10.6037 2.40641 10.2013 -0.711027 0.300428 -0.203305
H 4.1876 6.01316 5.67259 0.715721 1.178745 -0.237367
H 6.51006 9.96762 9.03182 -0.199145 0.039168 -0.190493
H 10.6149 7.78331 3.25072 -0.436736 0.250012 0.197053
H 6.1117 8.11299 2.95827 -0.211373 -0.288264 -0.613921
H 10.3312 6.07812 8.80372 -0.137468 0.050826 -0.386745
H 2.60754 5.82233 10.3037 -0.243179 0.116328 -0.378407
H 2.27927 2.48824 10.3308 -0.439168 0.387306 -1.611725
H 2.67225 12.2363 7.47889 0.179131 -0.25652 -0.558029
H 3.9818 1.378 8.2463 -0.134452 -0.225907 -0.535668
H 10.9928 9.23439 6.12402 -1.647538 -0.439416 2.259774
H 4.40704 3.78208 6.3352 -1.028937 -0.862595 -0.35931
H 8.44948 12.0866 7.8077 0.218975 1.50697 -0.073759
H 4.05001 7.70633 9.29181 -0.740015 1.228105 -0.154796
H 4.33151 8.84852 5.94676 -0.105334 1.732223 1.385996
H 5.76599 10.953 10.0258 -0.124144 -1.081445 0.341188
H 11.1789 5.7912 10.7697 0.32097 0.162493 0.345647
H 0.01275 0.15067 4.79966 -0.171573 0.357252 0.221333
H 2.59899 11.3309 4.86165 -0.468356 0.179347 0.581498
H 3.77063 11.3232 6.76241 0.344819 -0.680981 0.012925
H 2.17525 2.54351 5.75426 1.30182 -0.140731 0.437058
H 7.0515 2.30948 2.24176 0.040647 -0.417773 0.486213
H 6.48772 8.50266 11.817 -0.053154 0.010036 0.178962
H 5.04068 8.15276 12.1666 -0.668541 0.095753 -0.070247
H 1.20307 11.7535 9.01047 -0.154121 -0.520729 0.23814
H 6.61031 0.20143 4.55664 0.278012 0.31538 0.665781
H 1.1356 3.1765 7.81883 0.231786 -1.302612 2.243847
H 1.96083 4.77137 1.61758 -0.319561 -1.221704 -0.440993
H 8.2663 6.98996 12.36517 -0.344202 -0.735327 -0.01091
H 7.40536 5.31596 4.94112 -0.433764 0.524338 0.257105
H 3.19513 5.48889 11.7085 0.024226 0.130375 -0.118165
H 10.121 11.6825 2.19235 0.903629 0.148344 -0.179432
H 6.05303 4.18992 2.07562 0.432134 -0.103135 -0.701552
H 4.07347 2.63258 11.6339 0.55536 0.01295 0.204752
H 1.4906 6.50527 8.01673 0.624799 -0.108452 0.724075
H 3.35288 1.45897 6.09646 -0.316586 -1.558616 0.532204
H 1.64991 8.4526 12.0667 0.065537 0.141169 0.300652
H 9.03951 10.6649 7.79598 -0.702283 0.251791 0.000781
H 8.46872 9.19008 11.7434 -0.578954 1.0005 -0.231677
H 4.69154 9.08806 9.55126 -0.526216 0.466024 -0.478926
H 7.19431 10.6901 0.73327 -0.030438 0.111322 -0.023851
H 8.4162 10.6466 2.65454 -0.175836 0.079121 0.259479
H 11.3215 9.15906 4.63843 -0.232813 -0.213946 0.182474
H 6.17858 10.3647 3.12626 0.401015 -0.468277 -0.135282
H 6.69579 11.9762 1.59805 0.219838 -1.006351 -0.345393
H 9.4797 6.09446 7.32486 0.257648 -0.384987 1.253287
H 7.83584 0.44262 5.65544 -0.708854 -0.105817 -0.638664
H 11.6521 6.44555 1.04499 -0.408576 -0.458639 0.259103
H 10.3516 4.76191 5.42754 0.114762 -0.445104 -0.251959
H 7.22373 9.13846 5.19707 0.662984 0.637057 2.074735
H 12.3819 3.71441 6.13948 -0.066788 -0.149215 -0.492329
H 1.08938 0.80522 8.69508 0.072202 1.408127 -0.196519
H 10.7462 4.57122 0.44624 -0.081989 -0.244973 -0.037628
H 7.72441 3.01316 5.77036 -0.671636 0.351433 0.076981
H 0.42972 12.3562 6.38105 -0.041945 0.159566 0.116069
H 9.11101 8.95719 6.52605 -0.364754 0.147887 0.032696
H 3.67538 12.1512 11.7528 0.019508 0.188342 0.258041
H 11.4576 0.70891 2.59852 0.010442 0.281366 0.22321
H 4.22768 8.95259 7.44757 -0.331903 -0.005886 1.165698
H 1.88657 2.85349 2.57706 0.069435 0.13181 -0.201343
H 9.86012 0.96753 11.1319 -0.922292 0.474562 -0.201736
H 2.63641 2.28063 3.82984 -0.087207 -0.037925 -0.093603
H 4.4995 4.76848 9.90383 0.504217 -0.125547 -1.225498
H 9.57903 7.52213 0.60445 0.492205 -0.03478 0.267499
H 9.89141 6.27911 5.28736 -0.285922 -1.072424 -0.307294
H 12.319 4.56074 0.44591 0.810386 -0.576532 0.315207
H 2.57103 6.82955 5.92566 -0.504555 -0.000816 0.429324
H 12.3735 11.2936 10.6539 1.337633 -0.274214 0.350341
H 6.05657 6.60039 7.89941 0.332318 -0.063042 -0.470787
H 4.5339 1.61643 4.4806 1.206928 -2.663462 -1.208614
H 0.36979 1.49234 3.11596 -1.212915 -0.084249 0.129453
H 4.98869 0.45112 10.0737 0.206318 -0.566576 1.253322
H 6.29765 7.90634 7.09729 0.065508 -0.657281 -0.483021
H 5.95678 4.9961 9.31443 -0.533664 -0.794327 -0.319807
H 10.7109 11.9737 12.0137 0.545578 0.190651 1.286706
H 1.19659 7.54211 6.08427 0.375833 -0.998076 0.360123
H 11.6051 11.36 1.74901 0.432919 -0.141635 0.029728
H 6.27307 6.48698 5.49869 0.761897 -0.274916 0.191709
H 5.03209 3.4879 0.21292 0.223206 -1.232511 -0.729322
H 9.78122 11.0762 11.2679 -0.03999 -0.210704 -0.390043
H 6.04407 0.41032 11.1759 -0.08366 -0.171275 0.088952
H 7.46774 10.1702 6.36584 -0.194091 1.633143 0.370801
H 1.32174 7.90321 9.58646 -0.106831 0.240447 0.673608
H 5.36839 1.64289 1.00534 0.870932 -0.859828 0.375596
H 7.22794 5.75832 10.4965 0.052354 -0.471042 1.832857
H 7.96936 4.56986 12.3721 1.858074 -1.845739 0.771784
H 2.17596 11.9528 11.4362 -0.82455 -0.597141 -0.229168
H 9.47271 2.81997 0.19574 0.220244 -0.278165 -0.73967
H 6.57148 5.1789 0.03955 1.135891 0.316305 -0.090877
H 11.2488 4.63287 9.79328 0.3123 0.8911 -0.249689
H 2.38329 1.68459 11.5719 0.075692 -1.463805 0.773661
H 1.09477 10.1464 10.521 -0.110016 0.504903 -0.071517
H 8.62455 2.0662 10.7581 0.619197 -0.69691 0.303903
H 12.1321 7.87914 1.15363 -0.463648 -0.448311 0.86861
H 11.9415 10.5003 5.49956 0.183202 0.199763 0.220192
H 4.31278 0.07342 3.95162 -0.259299 0.16433 0.332836
H 6.8205 2.12304 9.37341 0.176933 0.212641 0.563941
H 6.69461 6.35814 3.8958 -0.507997 0.61636 -1.707535
O 2.28713 2.58382 11.2713 0.473058 0.894043 1.145088
O 5.92805 9.95343 9.81295 0.805703 1.281545 -0.182533
O 11.0164 2.89929 5.38129 -0.83943 -0.453845 0.545694
O 1.42876 10.9146 1.82023 -0.573117 -1.016827 0.661807
O 11.372 5.64882 9.8277 -0.151709 -1.752217 -0.047898
O 9.58024 5.34257 5.39879 0.072874 1.716727 0.432692
O 5.00432 0.77288 4.05677 -1.222333 2.362904 0.905159
O 11.5171 7.24282 1.61372 0.531076 1.103335 -0.880057
O 3.86095 8.67892 9.13527 1.693749 -2.16167 0.453724
O 7.11804 2.16766 10.3033 0.173845 -0.216674 -0.321053
O 5.97118 1.12534 1.64014 -0.961123 0.873746 -0.400903
O 7.61731 9.26403 6.14126 -1.044751 -2.23315 -2.754259
O 1.57817 8.72744 10.0922 -0.695429 -0.284332 -0.055739
O 7.21224 5.97346 9.57189 0.356114 0.857823 -1.586061
O 5.1077 4.4625 9.1442 0.044549 0.769955 1.208442
O 4.3639 1.72822 9.05129 0.095357 -0.577401 0.456293
O 5.94152 7.89691 12.3405 0.503572 -0.116055 -0.213768
O 2.77669 12.3086 12.1016 0.908137 0.679613 0.389487
O 9.95334 8.90011 7.05075 -0.253252 -1.959733 1.186307
O 0.17649 11.9405 5.54454 -0.053799 -0.80308 -0.448868
O 4.99968 2.66115 12.0058 -0.697964 1.128534 0.540177
O 8.0799 10.1193 11.5403 -0.00202 -0.710586 -0.951477
O 4.19763 6.94575 5.29 -0.93872 -1.465196 -0.194112
O 1.11171 2.65209 8.74049 -0.536333 1.108329 -2.632591
O 11.0054 2.91628 9.44727 0.602128 0.693644 -0.992837
O 6.97899 11.0037 1.63523 -0.058584 0.944767 0.167403
O 0.97236 11.1386 10.6803 -1.732829 -0.275964 -0.688571
O 3.42643 5.81206 10.8246 0.393308 -0.278001 0.489012
O 1.19129 12.364 8.2482 0.137483 -0.783649 -0.29044
O 8.19576 11.1749 7.7662 0.365219 -2.072961 0.529248
O 5.59884 4.55041 1.28228 -0.052177 -0.417238 0.85953
O 3.15579 2.33423 5.777 -0.695609 1.819487 -0.816188
O 5.06287 4.47322 6.40535 0.098814 0.20973 -0.023136
O 11.6995 9.51073 5.51554 2.246186 0.717305 -2.38596
O 7.12772 3.54995 5.1895 0.593204 0.23503 -0.446656
O 9.33779 3.68065 0.61989 0.373125 0.532408 -0.263811
O 9.53148 1.90006 11.2047 0.133088 -0.803371 -0.123986
O 6.99367 6.24701 4.80809 0.502802 -1.018759 1.025326
O 11.7866 1.34894 3.29262 1.989837 0.3273 0.525531
O 1.50527 6.38753 9.01773 0.269111 0.28222 -1.435938
O 10.6106 11.5892 11.1482 -0.619742 0.017742 -0.534439
O 3.16219 11.137 4.1183 1.564437 -0.002851 0.08975
O 2.25516 2.03729 2.97264 -0.185963 -0.273649 0.358285
O 7.45814 12.2834 4.93105 0.696667 -0.442839 0.010398
O 0.93086 3.9505 6.18645 0.056145 -0.477152 0.502853
O 6.1442 7.2222 2.53292 0.443225 0.010761 1.777526
O 11.5532 5.03589 0.11939 -0.660896 0.768999 -0.277771
O 10.9221 12.0427 1.70902 -1.337516 -0.69097 -0.313183
O 3.42178 12.2205 6.81527 -0.57433 1.022178 0.529594
O 10.1593 8.23435 4.00921 0.266043 0.609233 -1.243812
O 9.0527 10.6384 3.41139 -0.20148 0.196841 -0.205806
O 8.83198 7.7645 0.05032 0.118818 0.579378 -0.256093
O 7.47987 5.28875 12.0359 -2.561904 2.013956 -0.487937
O 6.02471 6.96184 6.98874 0.242069 0.976256 1.578378
O 5.90061 9.77669 3.86322 -0.965589 0.54501 -0.253668
O 1.67338 6.72138 6.37325 -0.063624 1.208449 -0.884417
O 4.28367 9.54622 6.69878 0.309322 -1.383598 -2.810268
O 1.47485 3.92704 1.30196 0.212673 1.171296 0.395329
O 7.73814 2.90528 2.60866 0.355706 1.03897 0.309534
O 9.55499 6.42719 8.26291 -0.327553 0.533695 -1.258134
O 5.30734 12.2581 10.8533 -0.159935 1.045148 -1.735581
O 1.61155 8.52054 0.64996 -0.505818 0.049228 -0.912524
Cl 3.1641 6.2525 2.40402 -0.214254 -0.222713 -0.307966
Cl 8.68104 1.65246 7.18025 0.172421 0.535664 0.036611
190
energy=-1022.95809691 config_type=nep2xyz pbc="T T T" virial="-8.043221776208904 -1.827931925115764 -2.6608991008613647 -1.827931925115764 -7.140483662818345 0.5501229584600211 -2.6608991008613647 0.5501229584600211 -4.337091434315718" Lattice="12.4 0.0 0.0 0.0 12.4 0.0 0.0 0.0 12.4" volume=1906.6240000000003 Properties=species:S:1:pos:R:3:force:R:3
H 9.75849 1.68674 8.22507 0.080109 0.258271 -1.222622
H 11.0125 8.30867 7.68749 -0.294254 -2.432176 0.485392
H 0.5094 3.52802 6.11095 0.518466 -0.461805 0.158143
H 8.58074 1.87489 3.71448 0.038083 -0.053669 0.173762
H 1.28085 9.49641 1.81914 0.189924 0.739041 -0.345627
H 4.38548 8.87789 1.52124 1.039296 0.103509 1.336208
H 8.94696 3.09548 2.11057 -0.039368 0.811181 -0.252948
H 2.1314 10.2932 9.33404 -0.506293 -0.42524 -0.148652
H 2.2589 10.6015 1.35914 1.627611 0.391268 -2.453141
H 6.66389 2.13252 8.32206 -0.127717 1.267337 1.42207
H 5.09028 4.49615 7.4796 -0.391814 0.531073 0.056269
H 3.86988 4.92234 3.82565 0.446407 0.393419 -1.070058
H 0.112 3.07774 9.15034 0.573293 0.158625 -0.020497
H 3.98171 9.63495 3.61994 0.953011 -0.08781 0.665967
H 6.08871 3.68781 6.55475 0.730822 -1.018021 -0.669752
H 12.35334 6.49254 8.77982 0.757952 -0.097162 -0.525493
H 9.31991 0.0335 3.10076 -0.989297 -1.180203 0.244312
H 8.5932 6.57671 8.45971 -1.600538 -1.137896 0.838616
H 0.07639 3.49367 3.33609 -0.290641 0.680498 0.018228
H 5.19298 1.05828 3.57381 -0.173745 -0.211349 0.121856
H 4.34104 5.78641 2.02699 -0.041594 0.024378 -0.304009
H 1.42979 7.98095 12.3777 -0.380563 1.144932 -0.377672
H 2.14837 4.05919 12.1586 0.658766 -0.921636 -1.214412
H 5.99691 2.29952 11.7236 -0.044908 -0.130934 0.609294
H 7.35593 7.18085 1.55951 -0.629412 -0.153798 0.440378
H 11.2413 2.72851 3.28985 -1.505483 -1.900085 -0.331012
H 9.17135 6.5381 3.40541 -0.975472 -0.120761 1.373641
H 7.21383 10.1388 11.0158 0.661904 -0.69611 0.893657
H 9.83805 1.39055 9.69197 0.052728 -0.761168 1.174414
H 4.23264 4.25167 5.07499 1.104474 -0.532682 1.398994
H 7.92953 11.0607 8.95872 -0.319887 -0.740063 0.073617
H 10.0225 6.88316 2.3334 1.186775 0.399501 -1.586748
H 6.00333 7.68128 2.2099 -0.080162 0.437695 0.222559
H 10.7249 5.41862 8.50219 -0.143051 0.547169 -0.183261
H 2.39562 6.2167 9.77473 0.173694 0.386787 0.314123
H 3.09346 4.47361 10.6388 0.447459 -0.364539 0.091724
H 2.81539 0.254 9.07595 -1.235858 -1.19559 0.428082
H 7.62425 3.18141 8.95169 -0.869661 -0.138018 0.166445
H 11.51 9.1776 6.06154 0.39753 0.293258 -0.057853
H 4.43332 3.07869 6.91835 -0.086359 -0.623366 -0.306781
H 9.93235 12.1453 7.88376 0.534425 0.760464 -0.576018
H 5.5474 7.67277 8.3391 -0.165842 1.032677 -0.33746
H 3.38239 9.92419 6.3103 0.135716 -0.106838 0.287247
H 6.47021 11.0289 9.55554 -0.13115 0.334106 -0.144374
H 11.3242 4.47847 10.5569 0.016368 -0.80083 -0.77923
H 0.83966 12.0422 4.57997 -0.170074 -0.439796 0.294697
H 2.73453 10.253 3.54267 -1.456591 0.676886 -0.504189
H 3.51309 11.5681 7.96136 -0.904465 -1.092149 0.004268
H 2.4177 2.13363 6.39089 0.695709 0.281178 0.137492
H 7.17291 2.25833 3.10061 1.779923 0.452357 0.618552
H 2.56959 11.7738 11.669 -1.210043 0.921047 -0.151001
H 3.7296 10.9707 11.5703 1.196478 -0.568182 0.020751
H 0.51212 12.1545 10.3709 1.408836 -0.229338 -0.686163
H 6.21585 0.58681 6.40428 -0.49533 -0.648351 -0.526442
H 1.23779 2.79251 8.03842 -0.872449 -0.576694 1.0693
H 2.253 5.21942 0.74305 -0.129839 0.502988 -0.030001
H 8.02952 6.50197 12.1942 -0.114398 -0.161274 -0.466814
H 7.27064 4.69478 5.46823 0.507058 -0.951291 1.314213
H 3.38647 6.61657 11.0367 -0.493828 -0.379726 -0.571345
H 9.87826 10.5216 3.40007 -1.1134 1.252234 0.128722
H 5.81839 5.50584 2.30798 -0.857193 0.375984 0.372956
H 4.20654 3.23666 0.3381 -0.098805 0.226138 0.162082
H 1.19221 6.11966 7.79024 -0.998671 0.829095 1.1563
H 3.17641 1.26353 7.45639 0.827822 0.512828 -0.428177
H 0.91014 9.2465 11.4736 0.428816 -0.865962 0.721968
H 10.3319 11.3662 9.21133 1.591936 -0.210712 1.124577
H 7.69514 9.07342 12.17 0.051772 -0.359631 -0.558586
H 6.13061 9.16992 8.43201 0.492977 0.28706 0.377575
H 7.07067 10.9113 1.0903 -0.821304 0.295215 0.87423
H 7.97254 11.379 2.86544 0.817325 0.887066 0.547873
H 11.1457 9.38996 4.42218 -0.422258 0.141778 -0.931373
H 5.31475 9.93959 2.33246 0.514222 -0.606195 -0.492709
H 6.35919 12.1069 1.97603 -0.179134 0.40737 0.10675
H 10.5139 5.83423 7.04031 0.067445 -0.180215 -1.375414
H 7.69394 1.15719 6.53928 -0.172636 -0.102235 -0.083605
H 11.3787 6.37254 0.17887 -0.860132 0.811539 0.209416
H 10.9907 4.74346 4.66974 0.026685 -0.234514 -0.100892
H 8.41736 11.0692 5.25068 0.326848 0.679673 -0.9669
H 12.2606 2.17433 6.34725 -0.38975 -0.582878 0.04384
H 1.08027 1.12296 9.95296 0.922709 -0.99493 -0.271697
H 10.9096 4.0936 0.63712 -0.446581 0.036437 0.115204
H 8.10181 3.34023 5.77479 -1.49327 0.560826 0.669306
H 1.61053 10.9418 5.3889 0.456902 0.022839 0.12145
H 10.5529 9.7092 7.73488 0.509784 0.51927 0.02721
H 11.2785 0.74696 2.51857 0.077822 -0.161141 -0.07703
H 1.01961 11.9976 2.41556 0.409483 -2.11655 -0.874425
H 3.86789 9.35141 7.69855 0.218928 0.223308 -0.344998
H 1.8952 3.65323 1.9885 -0.047864 -0.091341 0.896596
H 8.96423 12.2065 12.3091 0.504671 -0.501809 0.159934
H 2.21642 3.4738 3.65264 0.129698 0.10042 -1.163977
H 4.55592 6.01106 9.03319 -0.453675 -0.301318 -0.083038
H 9.37549 7.2675 0.02552 0.014308 0.254994 -0.026742
H 10.7943 6.26007 4.55073 -0.06378 0.026461 0.111621
H 0.02498 4.41848 0.45703 0.30996 0.15531 -0.258265
H 1.98053 5.26739 5.59376 1.493474 -0.554507 -1.171174
H 11.3406 10.8663 11.1618 0.070508 -0.536303 -0.539081
H 6.04456 8.67182 6.3788 -2.280118 -0.128682 2.293396
H 3.73289 0.47849 5.80205 1.458554 -0.352926 -1.712333
H 1.32408 1.06602 2.65068 -1.081716 -0.364271 0.643256
H 4.92465 0.09694 9.61688 0.437592 -0.786056 0.509285
H 7.16092 9.46531 5.76473 0.639587 -0.353196 -0.066948
H 6.0387 5.80403 8.78703 2.114589 -0.110123 0.392741
H 10.8319 10.3628 1.13929 0.006563 -0.236229 0.461933
H 0.40328 5.54845 5.57169 1.146231 0.422151 0.939113
H 9.85679 8.97702 3.27498 0.725819 0.681868 -0.795084
H 7.26822 7.1284 5.13875 0.347085 -0.360905 0.231623
H 5.11965 3.8651 1.50146 -0.672944 0.94448 0.343107
H 10.2334 9.44649 0.04081 0.366094 1.128895 0.276608
H 6.02855 0.37965 10.7446 -0.851009 -0.962028 -0.453256
H 8.86606 10.767 6.66086 0.213287 0.509741 1.410646
H 1.66339 8.85568 8.85818 -0.218575 0.573457 0.440973
H 5.21567 1.80464 2.13424 0.48039 -0.64576 0.699951
H 8.1611 5.84617 9.77966 -0.10263 0.062725 -0.044675
H 8.38368 4.44779 12.3851 0.412983 -0.800652 0.8731
H 10.1023 1.0667 1.50711 -0.075623 -0.13451 -0.587761
H 9.15389 2.63165 0.70614 0.093878 -0.374219 -0.704103
H 7.12578 4.30177 11.4613 0.554432 0.281887 0.302041
H 10.606 3.44539 9.49039 0.430974 0.382093 0.277359
H 2.39813 3.11054 10.3428 0.484637 0.126563 0.418198
H 12.2012 10.0842 9.97189 -1.001106 1.964908 0.226737
H 8.23569 1.06202 11.8999 0.866843 0.193829 0.489817
H 11.7306 7.87741 12.34503 0.240386 0.400216 0.246714
H 12.3476 10.1989 5.04697 0.18877 0.163656 0.46245
H 3.90626 11.6695 4.72526 0.537282 0.273997 0.039351
H 6.88847 2.15878 10.4584 -0.27986 0.133319 -0.521475
H 7.32395 6.32377 3.86693 -0.51934 0.06589 -0.781472
O 3.0489 3.52442 10.9713 -0.683257 0.037283 -1.072812
O 7.1842 10.4489 9.1833 0.483112 0.193131 -0.116482
O 11.489 3.59963 3.50459 1.642275 1.315482 0.253299
O 1.68538 10.3603 2.04582 -1.713553 -1.075617 2.560498
O 11.3307 4.1339 9.61465 -0.79691 0.340418 0.615419
O 10.9845 5.56467 5.20898 0.444908 0.023107 0.145125
O 4.34134 0.08593 5.08017 -1.067937 0.758151 1.377647
O 11.0008 7.30697 0.279 0.305413 -1.610205 -0.15171
O 5.36381 8.63773 8.17613 -0.427453 -1.170877 -0.034329
O 6.70984 1.75768 11.352 0.309355 -0.301068 0.509166
O 5.72327 1.19989 2.76784 -0.286867 1.033917 -0.897103
O 8.73208 10.366 5.82101 -0.288544 -0.970423 -0.487363
O 1.50275 9.57039 9.51476 0.236242 -0.38044 0.014539
O 7.78885 6.15941 8.93814 1.753695 0.802713 -0.479973
O 5.21631 5.82407 8.32658 -1.647298 0.145413 -0.279214
O 6.70732 2.83368 9.10838 1.293139 -1.027887 -2.308954
O 3.05679 11.1651 12.2189 0.036903 -0.12776 0.11357
O 10.3361 0.99687 2.43798 0.612416 0.215252 0.540929
O 11.3457 9.16755 7.52813 -0.514719 1.587403 -0.284499
O 0.76431 11.3924 5.3331 -0.012909 0.662764 -0.634618
O 4.92768 3.08618 0.96516 0.399287 -1.91215 -1.190576
O 7.4989 9.99918 11.963 -0.452644 1.133832 -0.110016
O 3.48898 4.3964 4.52252 -1.977335 0.007801 0.166117
O 0.92863 2.54251 8.95791 0.626972 0.501918 -0.015906
O 9.70125 2.10691 9.09248 -0.32019 0.957466 0.516999
O 6.71581 11.203 1.99995 0.429663 -1.111064 -1.436891
O 11.6074 10.9011 10.198 0.97373 -1.11419 0.556465
O 3.26956 6.0536 10.2181 -0.093553 0.145139 -0.135528
O 1.41042 0.18443 10.1593 -2.006037 1.068837 0.79302
O 9.72467 11.4383 8.4878 -2.162254 -0.748834 -1.111294
O 4.90228 5.11115 2.453 0.82609 0.495572 -0.146437
O 3.33601 1.97475 6.744 -1.393224 -0.601158 0.54798
O 5.07264 3.82536 6.72323 -0.939453 0.838475 0.899961
O 11.8664 9.29703 5.09302 0.23303 -0.441066 0.643011
O 7.31767 3.87693 6.1129 1.975399 1.224672 -2.108362
O 9.28115 3.44013 1.20669 -0.224868 -0.099021 0.413414
O 9.13626 0.7547 12.2365 -1.360585 0.31164 -0.584833
O 7.62918 6.26641 4.77409 -0.234879 0.135122 0.527737
O 0.67833 0.33551 2.88512 0.423829 2.741425 0.51432
O 0.92405 6.57584 8.66693 0.761628 -0.557397 -0.728123
O 10.6043 10.3513 0.20321 -0.56418 -0.73925 -0.560158
O 3.46957 10.2836 4.16018 0.00756 -1.179568 -0.106511
O 1.64601 3.24597 2.87351 -0.07131 -0.498822 0.396887
O 6.75814 1.25332 6.81036 0.540883 0.654287 0.824445
O 0.72633 2.60268 6.37001 -0.161456 1.171485 -0.766793
O 6.64149 6.93781 2.21486 1.545684 -0.258126 -0.746349
O 11.5394 4.58341 0.07821 -0.069639 0.123987 -0.110929
O 10.425 9.78819 3.0938 0.072006 -2.153628 0.278833
O 3.48103 0.00942 8.43288 1.712048 1.977181 -0.324968
O 9.88155 7.1521 3.23054 -0.093137 -0.078033 0.245516
O 8.72184 11.6958 3.49346 0.056117 0.417936 -0.259882
O 8.3911 7.3817 12.39686 -0.090209 0.127289 0.607143
O 7.91577 4.84487 11.6468 -0.955976 0.325282 -1.088075
O 6.69996 8.6072 5.74061 1.732888 -0.046585 -2.324688
O 5.01429 8.99444 2.31205 -1.440201 0.610017 -1.052556
O 1.26942 5.58497 6.11696 -2.784015 0.108991 0.224965
O 3.23241 9.97968 7.27249 0.068619 0.048078 -0.168717
O 1.74797 4.4103 0.55562 -0.613457 0.569817 1.693272
O 8.1097 2.64072 3.35739 -1.942337 -0.717551 -0.471164
O 10.5279 6.20614 7.91831 0.006606 -0.141068 1.568195
O 5.5036 12.0277 10.2824 -0.1283 1.649112 0.11677
O 0.73488 8.70316 12.2834 0.260696 -0.199569 -0.515541
Cl 3.19022 7.1756 0.61172 0.233758 -0.154267 0.192615
Cl 9.90041 1.43822 6.24689 -0.036696 -0.141587 -0.148024
190
energy=-1025.22771508 config_type=nep2xyz pbc="T T T" virial="-12.750695380618712 1.7586845967589486 2.3805182272722725 1.7586845967589486 -19.63689533277742 1.1647093604170122 2.3805182272722725 1.1647093604170122 -8.165341742456993" Lattice="12.4 0.0 0.0 0.0 12.4 0.0 0.0 0.0 12.4" volume=1906.6240000000003 Properties=species:S:1:pos:R:3:force:R:3
H 0.55331 2.00386 7.01809 0.148022 -0.380515 1.117106
H 11.1485 2.54447 5.85302 -0.207564 0.285132 -0.054627
H 3.18292 6.08184 8.78004 -0.444627 -0.789305 -0.004113
H 9.65962 2.27417 7.08953 -0.213554 0.401635 -0.280253
H 0.80957 3.66645 1.73538 0.169452 0.359147 0.228584
H 0.50271 2.27373 9.40823 0.257657 0.3024 0.657645
H 1.53601 8.73442 2.59636 0.008097 -1.134525 0.42908
H 10.9774 8.99792 7.10181 0.219407 1.129634 0.258383
H 12.1873 2.22377 1.02123 0.19621 -0.115535 -0.452023
H 0.87847 10.4883 5.40906 -0.233007 -0.586279 0.211719
H 10.2182 9.38047 3.50584 0.605593 0.244221 0.496097
H 4.02238 6.84792 2.18386 0.76706 0.194682 0.442735
H 9.19057 4.19087 9.56446 0.060373 -1.023081 1.200479
H 11.6746 0.753 12.37621 -1.070639 0.339607 0.459907
H 8.29494 9.19578 3.28128 -0.98205 1.058037 0.805805
H 0.00831 6.68016 11.0603 -0.091667 0.769248 0.417858
H 9.56943 4.93782 0.80939 0.218012 -0.159228 0.440975
H 8.67213 6.30924 5.84083 0.293483 -0.202211 -0.305951
H 10.4683 10.614 5.32867 -0.354232 -0.663218 0.75376
H 4.5235 0.58257 11.9396 -0.037139 -0.20496 0.094
H 11.9368 3.08456 11.5062 0.255594 0.47614 -0.673543
H 5.91546 9.02672 11.8073 0.601015 0.185305 0.037914
H 1.75581 7.73008 11.8864 -0.271017 0.516497 0.194333
H 1.06437 1.56225 5.59841 0.267111 -0.021611 -0.03543
H 4.15769 11.6945 11.1696 -0.271832 -0.186631 -0.172441
H 9.44577 10.9827 4.13157 -0.171291 0.332461 0.289838
H 5.36407 10.8068 5.06951 -0.03109 -0.554885 0.265839
H 7.75751 1.31981 12.2891 -0.274523 0.535566 -0.534084
H 10.7804 10.6926 7.38963 0.448897 -1.426409 -0.454136
H 2.55232 6.76955 1.94055 0.053529 -0.193728 -0.128353
H 6.99966 7.4059 7.05455 -0.276559 0.1809 0.655783
H 6.53411 9.93189 4.74038 0.75017 -0.492451 -0.022184
H 3.74299 1.25019 7.79472 -0.701101 -0.682043 -0.101757
H 5.92144 3.75782 4.46239 -0.355012 0.683305 0.850983
H 11.6665 4.07947 1.57466 -0.891421 0.1237 0.75236
H 1.99958 0.01464 4.57116 -0.113519 0.004704 0.2734
H 2.15055 10.7998 1.94491 0.116044 0.023018 -1.096092
H 11.6114 0.59011 8.59374 0.458039 -0.69043 -0.145443
H 7.6046 3.39546 3.55467 2.117116 -1.0049 0.580946
H 10.2617 7.76008 3.57994 -0.04095 0.869156 -0.47002
H 5.62862 0.07192 3.68898 -0.79426 0.475523 2.441376
H 2.71276 0.53604 6.9063 -0.372175 -0.028304 -1.049156
H 5.98561 7.16631 3.59914 -0.084623 -0.653559 0.128147
H 7.11133 8.68652 7.96785 -0.059139 -0.455255 -0.240252
H 7.72585 11.0758 10.7972 0.692649 -0.17509 -0.786662
H 5.1642 10.9166 1.21138 0.128785 0.751848 -1.02297
H 0.66476 0.59273 0.79241 0.006935 0.455146 -0.380051
H 6.907 6.8317 2.41413 0.468854 -1.043172 0.753084
H 5.26161 3.10093 7.19791 -0.333897 0.453761 -0.133483
H 7.56258 1.23363 7.15038 -0.014992 -1.159723 0.299133
H 3.95306 7.38717 4.32703 -0.192883 -0.292723 0.346439
H 10.1153 0.57021 8.3695 0.529695 -0.95041 -0.525952
H 4.89249 9.83974 7.16417 1.100818 0.384563 -1.190177
H 10.7696 11.1988 9.60539 0.688975 0.156162 0.373827
H 9.24126 4.65469 11.6307 -0.162062 0.655026 1.302576
H 0.85692 9.10683 11.69 0.619634 -1.499528 0.661402
H 3.6972 10.276 9.03783 0.304176 -0.586011 -0.736127
H 1.79549 10.6784 3.33618 0.172654 -0.691346 0.656255
H 9.51882 5.88234 7.87012 -1.014366 0.470795 0.994747
H 1.74136 4.9262 5.60375 -0.744766 0.066928 -0.404224
H 11.9693 4.46618 10.6839 0.397152 -0.435613 -0.234842
H 9.59589 4.17489 3.02974 0.907991 0.201217 -1.290064
H 1.03087 5.99508 10.1317 0.054119 -0.10555 -0.091516
H 5.69476 1.66946 7.64479 -0.595089 -0.050913 0.081614
H 1.85636 10.5329 10.4114 -1.194645 -0.069501 0.54525
H 6.07664 0.46098 5.23352 -1.495114 -0.318873 -0.886372
H 8.24159 2.31738 11.1248 -0.853295 -0.44961 0.191469
H 4.8982 8.62022 4.34087 -0.312341 -0.326861 -0.565379
H 8.6746 7.5574 0.69212 0.302473 0.63016 -0.287861
H 9.56451 8.51046 1.50657 0.31944 0.088967 -0.277309
H 10.374 3.39573 10.3415 -0.58464 -0.126587 -0.242276
H 3.22595 6.12539 10.3466 -0.484718 -0.326597 0.047698
H 8.75472 2.18804 3.26309 -0.532973 0.651384 0.140953
H 6.30231 4.89606 3.3796 -0.067378 0.621227 0.511573
H 1.54298 1.08205 8.85242 -1.077194 1.1734 -0.095787
H 9.72449 8.1061 11.2309 0.539639 -0.091977 -1.517103
H 9.10553 2.39326 8.58163 0.009449 0.922303 1.167431
H 8.10718 9.45838 0.14259 -0.063372 0.996654 0.102637
H 3.31643 4.12945 9.73523 0.001968 0.66268 0.349671
H 4.91016 8.52374 7.9807 0.093194 0.510091 -0.508441
H 10.7213 5.32255 2.90544 0.369636 0.848652 0.09746
H 2.30407 7.9116 6.39816 0.209925 -0.050877 -0.200543
H 12.159 7.22478 8.27509 -0.660822 0.508103 -0.771201
H 9.9012 3.01873 4.99302 -0.706261 -0.049934 0.155087
H 10.6439 9.80408 10.2519 -0.372897 -1.287286 0.011567
H 4.13053 2.73759 9.26678 -0.713526 0.911235 0.747795
H 7.45473 10.9593 0.53639 0.388455 -1.50005 -0.895488
H 1.33513 11.3232 12.3825 -0.688974 -1.508459 -2.102283
H 8.64621 10.3728 7.01931 -0.65851 -0.0052 1.039408
H 2.57383 12.1665 0.35705 -0.374926 -0.395273 0.066603
H 3.52031 6.45221 0.10986 -0.572524 0.546197 -0.408499
H 2.67455 11.4569 8.78292 1.1166 -0.586811 0.867903
H 6.94528 9.94404 2.85111 0.615522 0.430685 0.650074
H 12.37517 6.92789 3.11733 0.358629 0.196545 -0.201747
H 7.01576 12.0882 7.16953 0.522499 -0.396798 0.170542
H 0.11788 10.6082 10.7256 0.621934 -0.046828 -0.38372
H 3.58024 2.86351 2.21585 -0.580676 0.144036 0.025462
H 6.59049 4.91718 6.18144 0.00797 0.626554 0.117844
H 4.49055 10.1868 2.29678 -0.790942 -0.39687 0.713298
H 5.88786 2.21998 11.7665 1.055348 -0.107185 -0.986823
H 5.07828 3.0781 2.4558 -0.101708 -0.414153 -0.133257
H 10.5361 4.81028 6.24927 -0.386347 -0.050029 -0.196841
H 4.04373 7.66387 11.6872 -0.488967 -0.669002 -0.20965
H 12.2337 5.67904 4.0746 0.330157 0.053182 0.340878
H 4.14474 3.04609 10.858 0.523998 -0.264904 1.118144
H 11.0153 6.31212 6.2699 -0.197488 -0.00894 0.334296
H 10.1827 11.7985 11.4586 0.532638 -0.876605 -0.864144
H 6.00954 7.83477 10.8074 0.573321 -0.129534 -1.296331
H 4.85501 2.314 0.44498 -1.060132 0.478073 0.062658
H 7.67476 5.87056 0.3726 0.00195 0.40644 -0.01422
H 9.47567 0.22725 0.07713 0.007499 0.439176 0.957548
H 12.3031 11.4024 4.5949 -1.208555 -0.042924 -0.119978
H 6.54245 7.11336 0.27474 -0.211937 0.036099 -0.731897
H 2.72042 4.84918 2.55847 -0.284721 -0.063584 0.181093
H 8.14645 6.56992 8.32781 -0.238901 0.070994 0.051095
H 0.9865 8.13327 1.41582 -0.657835 -0.646814 -1.698759
H 1.77666 4.09189 3.66512 0.168366 0.39278 -0.172923
H 7.92579 0.09288 10.3624 0.062499 0.315745 -0.484321
H 3.34679 0.8274 4.68636 -0.337163 0.121472 0.076641
H 0.48427 8.10499 7.19047 -0.887007 -0.208026 -0.318366
H 7.85559 10.8566 8.36709 0.861803 0.423322 1.057083
H 9.43189 7.24033 9.92812 0.79008 0.835943 -0.195643
H 2.28656 9.40747 6.8268 -0.64754 -1.405762 -0.759473
H 5.01354 5.21598 6.31049 0.051819 0.274001 0.010407
H 0.87422 3.64819 5.62003 -0.514935 -0.386842 -0.090886
H 7.33315 6.5781 4.9019 1.148571 -0.348561 0.639383
O 2.37769 0.86827 4.85648 0.899899 -0.114404 -0.087133
O 6.7349 7.76979 7.95507 0.365484 0.221297 -0.503638
O 10.369 10.9247 4.41786 0.341368 0.332985 -1.474499
O 12.3664 3.49643 1.24912 0.606598 -0.242149 -0.428705
O 8.09249 11.5968 10.0149 -0.74319 -0.220151 0.949757
O 9.14429 1.84276 7.81408 -0.570258 -1.426215 -0.511069
O 5.69909 4.52917 6.20369 0.295271 -1.491971 0.027415
O 9.92978 8.0512 10.2366 -0.998146 -0.453457 1.797611
O 3.00539 0.55173 7.81371 0.650667 0.617191 0.743851
O 0.37728 2.06513 6.07925 -0.371729 0.491888 -0.787491
O 0.81408 11.1768 4.74687 1.103532 0.246243 -0.34637
O 7.4803 10.211 12.2481 -0.395771 0.697167 0.96382
O 10.2858 0.21137 11.9492 -0.156841 0.548181 0.018055
O 7.14059 6.59107 0.81622 0.337136 -0.311034 0.974713
O 10.2292 5.736 6.36684 0.772009 0.024499 -0.097069
O 10.9099 12.3332 8.36489 -1.1242 1.077936 0.297703
O 4.56343 7.85906 3.74996 0.377187 1.260172 0.710475
O 11.0931 10.6401 10.374 -0.676216 0.788919 -0.619828
O 10.2708 3.00978 5.90046 1.329597 0.000519 -0.278201
O 1.75291 8.72278 6.31322 0.690929 1.763745 1.081811
O 10.2507 4.65681 2.38097 -1.508345 -1.318443 0.56075
O 7.47967 1.73356 11.4153 1.114699 -0.023468 0.55647
O 3.39645 6.23938 1.78385 -0.996631 0.238827 -0.002043
O 9.36002 3.40983 10.2008 -0.060346 1.555745 -1.236188
O 10.7891 9.92085 6.74134 -0.49185 0.850813 0.684004
O 9.24428 8.37083 0.57844 -0.820217 -0.707647 0.224145
O 11.9903 7.6858 7.40852 1.128802 -0.510444 1.047528
O 8.88517 6.0341 8.66047 1.159232 -0.840469 -0.562373
O 4.40312 9.34893 7.80275 -0.904399 -0.938817 1.460923
O 5.27037 0.21954 4.6563 2.091595 -0.12757 -1.572993
O 11.8633 3.46507 10.5995 0.162189 0.177444 0.83749
O 4.94007 2.33313 7.72582 0.49069 -0.203536 0.653785
O 9.90609 8.55255 3.10156 -0.13925 -1.133921 0.204719
O 8.62333 3.0349 3.76934 -1.594366 0.415274 -0.863111
O 7.6355 9.92195 3.57395 0.493965 -1.370257 -1.625556
O 1.16456 7.82102 2.3155 0.955533 1.258003 1.250728
O 7.7989 10.3827 7.53318 -0.052146 -0.371044 -1.505028
O 7.70445 6.35903 5.81686 -1.343233 0.403417 -0.313726
O 5.33983 10.5649 2.07758 0.462634 -0.247475 0.46761
O 0.0784 6.08058 10.3123 0.020537 -0.741168 -0.458104
O 5.67271 8.09683 11.6481 -0.873922 0.571363 0.938339
O 12.36752 1.28694 0.47 0.767954 -0.893983 0.158658
O 1.67938 11.8611 0.68108 1.439133 2.060061 2.381996
O 0.64911 1.54696 8.79671 0.720465 -1.005472 -0.63702
O 2.86109 5.57873 9.57372 0.735542 0.719339 -0.170602
O 4.21044 12.0497 12.0679 0.134719 0.271147 0.026375
O 11.7346 6.34898 3.58539 -0.355795 0.115624 0.358192
O 3.58518 3.19082 10.0412 0.39446 -1.114957 -2.860621
O 2.34895 10.1974 2.6821 -0.294438 0.43025 0.525771
O 5.72149 9.90167 5.28346 -1.292458 0.777283 -0.09277
O 9.12626 5.2782 0.01376 -0.16267 -0.776635 -1.836776
O 3.02937 10.8224 9.47621 -1.017778 1.302057 -0.007591
O 2.13689 4.07726 2.74491 0.007521 -0.558624 -0.293689
O 4.43846 2.5122 1.94987 0.779635 0.194212 0.279015
O 3.30567 6.98419 11.6775 1.077867 -0.015363 0.487198
O 0.95849 4.50466 5.15076 1.234259 0.5575 0.452346
O 6.75877 6.56537 3.38639 -0.426468 0.939857 -1.00977
O 0.91721 8.16732 12.1709 -0.294869 0.828912 -0.866165
O 6.77513 0.62052 7.09478 -0.043246 1.442249 -0.626826
O 6.14911 3.94187 3.54833 0.526721 -0.989376 -1.395563
O 4.91944 2.25161 11.8365 -0.004082 -0.120945 1.000448
O 1.06983 10.4917 11.0824 0.323061 -0.079629 -0.427307
Cl 8.17423 0.49909 1.90481 -0.14389 -0.047693 -0.455079
Cl 3.40354 6.25584 6.54737 -0.392833 0.011034 -0.038431
190
energy=-1023.01651074 config_type=nep2xyz pbc="T T T" virial="-7.826138125429555 -3.5411934161283707 1.7072756848322528 -3.5411934161283707 -14.09832288576379 0.9775071396950561 1.7072756848322528 0.9775071396950561 1.4563716341233515" Lattice="12.4 0.0 0.0 0.0 12.4 0.0 0.0 0.0 12.4" volume=1906.6240000000003 Properties=species:S:1:pos:R:3:force:R:3
H 9.87667 11.8917 3.67022 0.407114 -0.194833 1.333639
H 10.6636 4.15218 5.42551 -1.084516 0.421763 -0.541617
H 6.09203 7.20314 1.27271 -0.424176 1.354042 0.441912
H 11.5165 3.24787 8.54034 -0.678966 0.414664 -0.532756
H 3.70648 4.15722 0.5658 0.489658 0.368074 0.23643
H 1.76252 1.34263 7.23912 1.662664 0.294426 0.282556
H 3.41483 6.58211 2.82912 -0.640275 1.053528 -1.203634
H 5.83977 11.4693 0.38228 -0.437254 -0.334734 0.078556
H 1.79317 3.2929 0.24286 0.006515 0.797693 -0.480419
H 7.20061 11.399 6.54973 -0.310149 -0.201595 1.050904
H 10.3961 8.65171 8.15885 -0.668592 0.592651 -0.223493
H 2.05019 9.61434 2.6996 -0.293709 -0.768822 0.847658
H 10.537 2.93495 12.1488 0.028652 -0.053474 -0.079434
H 0.3177 1.72901 12.1403 -0.170843 0.485415 0.114419
H 4.84654 9.06533 5.29373 -1.124877 -0.495144 -0.712194
H 10.3309 5.00689 7.33015 0.358181 0.326952 -0.144428
H 7.8027 2.34155 11.9328 0.494759 -0.050094 0.294316
H 7.09682 6.34334 11.5948 -0.352788 -0.376759 2.044946
H 6.15084 11.6516 4.57078 1.613775 0.782355 0.846907
H 4.38191 11.7026 10.3713 -0.684121 -0.250387 -0.940054
H 1.75749 4.81968 11.983 -0.028159 -0.725088 0.518961
H 8.5957 0.0229 10.3172 3.828061 3.060789 0.151246
H 12.1269 5.81744 10.8981 -0.415239 0.623776 -0.561074
H 10.5105 0.016 5.08345 -0.793523 -0.885075 -0.931669
H 0.50461 11.0523 8.63616 0.023826 -0.089413 0.205607
H 5.139 10.6374 4.23452 -0.666533 -0.268892 -0.768499
H 4.01017 0.17594 4.42151 1.275223 -0.540655 -0.257369
H 11.4181 11.8744 10.3062 -0.78568 0.091484 0.121087
H 6.51747 11.8722 11.4767 -0.170729 0.001754 -0.319027
H 4.05045 7.19039 7.59191 -0.70547 0.276717 -0.054859
H 6.24036 7.86288 6.7638 -0.790522 -0.420278 -0.436519
H 2.62667 0.59712 4.72046 -0.007934 0.450484 0.380051
H 3.61396 0.47318 8.18731 0.256406 -2.314869 2.382361
H 9.64343 5.24313 1.39843 -0.290339 -0.969534 0.137539
H 1.51476 4.69682 1.75221 -0.224736 -0.420859 -1.475007
H 9.81501 1.96563 5.56756 -1.61086 0.538334 -0.257455
H 1.81295 6.70852 7.08593 0.121437 0.170297 0.20443
H 5.31274 11.583 8.3329 0.735905 -0.415604 0.08481
H 8.7577 3.93129 0.97674 0.27226 -0.749634 -1.65187
H 10.4566 10.1559 8.4168 0.383462 0.740812 -0.002164
H 4.36662 2.37213 3.57348 0.520459 0.499025 -0.115607
H 3.6705 0.91283 6.79757 0.414094 0.190859 -1.886896
H 11.3902 6.88109 0.76756 -0.863114 -0.178925 0.530323
H 5.76472 9.16795 7.27428 -1.061936 -0.372128 -0.220024
H 10.6501 0.52583 0.4617 0.66946 0.479927 -1.87545
H 1.8158 9.25621 11.654 -1.190678 -0.991627 -0.819691
H 1.16041 0.92603 0.7578 0.058812 0.079708 -1.022962
H 7.63356 2.54281 5.1326 0.283621 -1.029692 0.87949
H 7.11588 4.87694 7.44294 0.438447 -0.479792 0.035773
H 9.49302 4.73661 4.39439 -0.404181 0.396175 0.415809
H 7.47049 6.88165 5.46137 0.233381 0.737976 -0.782881
H 6.8136 11.393 8.78858 0.426568 0.277042 0.80334
H 8.07857 5.40214 10.2693 0.199339 -0.430204 -0.533151
H 9.17971 8.90649 9.97385 -0.85682 0.210313 0.431099
H 8.52918 3.21208 10.9391 0.486771 0.80908 -0.263484
H 0.05448 4.44988 10.0958 0.179584 0.684703 1.172887
H 0.94749 0.10416 10.927 0.553647 -0.738212 0.170337
H 0.45706 6.98658 6.25251 0.286161 -0.401254 0.20834
H 11.112 6.87546 8.74154 0.047584 0.023558 0.166161
H 3.31134 4.93075 4.52652 -0.920249 1.523675 -0.625424
H 0.6056 0.38255 7.58145 -0.312824 0.173421 -0.349008
H 11.1607 3.26358 1.90466 -0.024313 -0.696807 -0.719811
H 9.39628 3.83764 7.77369 1.814545 0.320238 -0.978711
H 7.35756 3.38414 7.16127 0.084898 -2.826591 -2.480776
H 0.96792 9.07317 3.72527 -0.658197 0.224018 0.192175
H 6.70134 2.54187 3.21708 0.352539 0.317005 -0.205005
H 11.1337 0.88266 10.0023 -0.565159 0.378266 -0.072862
H 8.28932 6.71912 6.8054 1.727845 0.512665 0.235451
H 11.4151 8.8108 5.28228 -0.21211 -0.092037 -0.282899
H 11.1782 10.1861 4.57614 -0.608985 1.036871 0.050841
H 11.766 3.94908 12.0556 -0.124421 -0.972313 0.000157
H 7.51214 5.51097 1.32908 -0.613009 0.361021 -0.075251
H 12.37741 3.65689 2.72574 -0.11084 -0.262615 0.13543
H 11.8337 5.91986 1.90824 -0.589094 -0.169669 0.151056
H 0.06656 10.8861 7.14691 0.240425 0.369269 0.775664
H 7.72421 8.31606 10.5069 2.351552 1.582083 0.843377
H 0.33274 2.37054 8.69524 0.566734 -0.410164 -0.572932
H 7.39175 10.3324 1.3449 -0.016671 -0.22899 0.124123
H 4.31037 2.47016 8.74898 1.301508 0.447107 -0.134066
H 8.03874 4.26747 9.16725 -0.413397 -0.006558 -0.461349
H 1.38882 5.26326 3.06847 0.790464 0.861597 2.250594
H 0.7595 0.64363 5.36012 -0.339706 0.443898 0.377239
H 0.84511 9.7105 5.64982 -1.019153 -0.874959 -0.944973
H 10.9271 3.54897 3.48894 0.318697 -0.651915 -0.035419
H 4.55318 7.78751 1.60891 0.141963 1.103978 0.49264
H 5.62863 3.4419 8.48862 -0.844664 -1.198728 0.922806
H 9.1529 9.16283 1.43314 0.163595 0.215606 -0.122424
H 6.27616 10.6644 2.5475 -0.051745 0.337329 -0.927422
H 2.71486 8.69375 8.52197 -0.614961 0.124017 -0.040735
H 5.92464 9.07263 1.54298 -0.329781 0.453951 -0.224641
H 4.73421 4.64518 10.2378 -0.036792 -0.180749 -0.233213
H 1.20063 10.9961 11.2269 0.041023 0.31902 0.374357
H 3.39707 9.15471 4.46942 0.885855 -0.039996 0.138584
H 10.9755 7.57694 11.3299 -0.138752 0.019642 0.244334
H 7.82034 1.12398 5.89942 -0.541336 0.959074 0.150724
H 8.83236 9.71262 12.323 0.049181 -0.548219 0.099387
H 2.93554 6.93753 0.29375 0.036762 -0.412899 -0.277886
H 7.98383 8.12071 3.77083 0.788403 0.204972 0.154772
H 1.51574 8.90714 10.1107 -0.136757 0.305226 -0.829622
H 5.61462 1.31164 12.1648 0.950213 0.786083 0.004532
H 4.72035 3.48748 2.4844 -0.275312 0.208392 -0.927655
H 10.5322 8.7306 2.98877 -1.892871 -0.033826 0.1854
H 2.98042 11.2809 9.75091 0.293531 0.143044 -0.138482
H 12.2285 8.39141 11.6228 0.091365 -0.533294 0.616565
H 5.80762 2.36812 11.0808 0.072354 0.309567 -0.023417
H 10.0783 7.50093 2.35469 -0.69471 -0.021001 -0.020319
H 0.60354 11.4002 1.99116 -0.397885 0.451625 -0.18183
H 4.01373 5.9157 10.9884 0.804186 -0.158717 -1.293637
H 5.00895 3.29768 0.38711 0.580575 -0.241344 -0.183158
H 8.11392 2.96369 2.60593 0.167193 0.516053 -0.42086
H 11.6214 12.29063 2.02732 -0.031885 -0.20408 -0.103073
H 8.49343 11.3558 5.61499 0.613709 -0.33635 -0.191714
H 5.99452 5.20756 0.87137 -0.067207 0.470508 0.133515
H 3.65617 6.38348 8.79256 -0.318954 -0.230748 0.339534
H 10.0493 5.9948 9.37321 0.171097 0.315585 0.695427
H 2.43419 7.66165 2.39962 -1.137666 1.456353 0.774443
H 2.30054 7.51068 11.3775 0.21011 -1.098122 0.000156
H 9.73171 11.8304 1.01915 0.109221 0.325028 -0.042191
H 10.993 1.82004 6.46403 0.516263 -0.180078 0.255717
H 1.48984 11.1008 5.50315 0.051444 -0.477647 0.073928
H 2.04385 9.67546 7.53735 -0.471865 0.024394 0.582899
H 8.38016 10.8358 10.4246 -0.242844 1.170674 -0.186413
H 0.63329 0.09754 3.80791 -0.412272 0.028097 -0.433399
H 6.5286 8.06371 3.79482 -2.92276 0.018777 -1.585258
H 2.39012 6.14977 5.07254 -0.12274 -0.193678 -0.755295
H 6.1958 6.4915 10.3501 0.307188 -0.200413 0.548308
O 10.6327 1.49833 5.63335 1.239275 -0.37578 0.168389
O 5.37626 8.36469 6.82409 1.910704 0.911103 0.925593
O 5.57359 11.4425 3.85159 -0.849962 -0.56573 -0.580123
O 2.06926 4.24178 0.34053 0.34889 -0.661404 -0.454511
O 10.154 0.29776 1.21852 -0.992825 -1.157666 1.704464
O 12.0954 2.86762 9.20697 -0.022129 0.122313 1.00041
O 7.23435 8.07381 4.38191 2.221646 0.016323 0.7815
O 5.52449 8.09941 1.53903 0.461409 -2.74452 -0.466711
O 3.50906 1.23504 7.67917 -0.726744 2.270284 -0.551643
O 10.1361 11.5898 4.58243 0.338823 0.833988 -0.449015
O 7.60814 11.6966 5.73742 -0.370281 0.980056 -0.783036
O 8.86001 9.93082 0.87838 -0.10546 0.862003 -0.217138
O 0.12835 12.1692 2.38546 0.414537 -0.117155 -0.218727
O 7.68588 2.52177 3.32726 -0.718488 -0.695855 0.9892
O 9.63376 8.3253 2.72654 2.659993 -0.3771 0.143504
O 6.21706 11.32 8.04298 -0.90033 -0.303347 -0.873869
O 7.46425 6.59629 6.38031 -1.919233 -1.423781 1.286727
O 8.50672 9.01863 10.7052 -1.302309 -1.38735 -1.057608
O 10.2784 4.21502 4.51482 1.347166 -0.8178 0.052375
O 1.16919 0.16569 4.62739 0.370994 -0.547477 0.447801
O 0.82454 4.87177 2.42216 -0.790986 -0.283632 -0.231349
O 10.6475 0.0999 10.3172 1.488814 -0.125208 0.108666
O 3.23548 6.89892 8.07531 1.429616 0.065675 0.059089
O 11.4531 3.08053 0.06603 -0.214276 0.858233 -0.007873
O 5.63532 11.8758 11.9125 0.442987 0.658583 -0.274221
O 11.76 9.41401 4.59465 0.33401 -1.185607 0.111853
O 1.52059 10.2473 6.02174 1.184755 1.537196 0.806956
O 10.6932 6.7064 9.61014 -0.323774 -0.512185 -0.311556
O 8.58506 4.64082 9.87059 0.762196 0.81508 1.419867
O 5.01437 3.0616 3.29263 -0.245344 -0.956662 1.395298
O 0.83602 1.21671 7.08859 -1.59982 -0.045574 0.116165
O 7.37924 4.00835 7.83992 -1.016865 3.070956 1.266278
O 9.82547 9.44293 8.31142 0.38929 -1.106693 0.123161
O 11.5555 3.01276 2.77059 -0.172514 1.506382 0.559793
O 4.38894 9.18837 4.40775 0.311154 0.089037 0.795995
O 3.1789 7.20646 2.03842 2.044478 -2.622771 0.323104
O 1.98297 9.35714 8.48186 0.969287 -0.262197 -0.441954
O 7.08836 6.72255 10.736 -0.341973 0.696206 -2.436233
O 1.29878 8.60042 11.0026 1.298022 1.69751 1.449897
O 10.3258 4.03427 7.39253 -1.890328 -0.833767 0.843765
O 8.00192 11.7578 10.2922 -4.075741 -4.626136 0.069008
O 1.19396 1.31404 12.2401 -0.110466 -0.039985 1.044689
O 6.41161 10.3685 1.57377 0.064037 0.091703 1.199199
O 12.2712 11.3869 7.97975 -0.27133 -0.620446 -0.572096
O 6.66934 5.94454 0.97192 0.517569 -1.087991 -0.06658
O 3.88166 11.5738 9.50685 0.424879 0.225641 1.274997
O 11.5026 7.88976 12.0942 -0.259939 0.349365 -1.124039
O 5.11367 2.90273 9.16256 -0.142828 0.667901 -0.301049
O 1.3776 6.6586 6.2211 0.145614 0.039613 -0.576716
O 3.56976 0.82195 4.97122 -0.464231 0.364509 -0.147086
O 8.70257 2.71602 11.7552 -0.666098 -0.480001 0.493117
O 0.98839 11.6073 10.5038 -0.394172 0.436921 -0.545657
O 2.8048 6.71007 11.7439 0.145082 0.437132 0.422541
O 4.66814 4.09196 0.84464 -0.828151 0.445649 0.050588
O 4.68338 5.61351 10.2407 -1.017524 0.708243 1.05326
O 2.79358 5.74485 4.22447 0.878625 -1.498128 1.135252
O 10.9983 6.30365 1.54098 1.050308 0.163558 -0.438547
O 0.23869 5.01373 10.9188 0.211229 -1.563141 -0.564595
O 7.74217 2.11956 6.04355 0.302551 -0.060969 -1.260947
O 8.93224 4.56785 1.65581 0.30177 1.805516 1.062455
O 6.01033 2.24933 12.0351 -1.018531 -1.737185 -0.614283
O 1.88489 8.97084 3.46303 0.65178 0.607873 -1.387487
Cl 2.21199 10.5628 0.74056 0.021188 -0.327525 0.079896
Cl 10.8386 6.89233 6.59467 -0.331678 0.393795 -0.131417
190
energy=-1022.56981846 config_type=nep2xyz pbc="T T T" virial="-16.100866608263907 -4.864365987474985 -1.292589028834668 -4.864365987474985 0.8718570656012585 -2.550227137685839 -1.292589028834668 -2.550227137685839 -18.388575089212964" Lattice="12.4 0.0 0.0 0.0 12.4 0.0 0.0 0.0 12.4" volume=1906.6240000000003 Properties=species:S:1:pos:R:3:force:R:3
H 10.1047 1.97396 8.49977 -0.10559 -0.021889 -0.00098
H 10.3109 7.52852 7.56836 0.404046 -1.418239 1.174912
H 1.16416 3.82761 6.85284 -0.121979 1.644683 -0.619781
H 8.41803 1.62562 4.06498 -0.472301 0.36624 -0.261109
H 1.30869 11.2208 0.87212 1.192506 1.433681 1.047268
H 4.59478 8.49523 1.77025 -0.157671 0.013037 -0.198854
H 8.64017 2.5378 2.05582 -0.093786 0.429674 -0.795136
H 1.54911 9.44264 9.49317 -1.161062 -1.176987 -0.178695
H 2.42002 12.3688 0.97887 1.11055 0.637739 -1.502051
H 6.70806 1.66671 7.73892 -0.500052 -0.994114 -0.542839
H 5.04862 5.26984 7.34067 0.185337 -0.14972 1.310569
H 3.98628 4.49905 3.51255 -0.675032 0.136486 0.131214
H 11.9839 3.3705 10.0468 0.255912 -0.006093 -0.286805
H 3.95057 10.0298 3.09302 0.134368 -0.421821 0.272713
H 6.1722 3.77123 6.34795 0.106896 0.545962 -0.194179
H 0.32031 6.12987 8.63814 0.525939 0.54444 -0.649482
H 9.90733 11.8119 2.8044 -0.793863 -0.566673 -0.010017
H 7.95219 5.25237 8.77895 1.143852 -0.913172 -1.270936
H 11.5796 3.42941 3.45561 -0.675665 0.11548 0.037751
H 5.222 0.75539 2.68428 -0.148083 -0.246769 -0.143537
H 4.18817 5.66015 1.29723 0.137107 0.157993 0.163796
H 1.22942 9.24425 0.29913 1.00612 -0.693422 0.861936
H 1.84054 4.49373 0.21658 -0.80289 0.152647 1.906485
H 6.52285 2.13876 11.6188 -0.147377 -0.490878 0.246582
H 7.30799 6.99296 1.87895 -0.695783 0.122665 0.359502
H 10.0167 3.22812 3.81962 1.732316 1.3746 -0.233376
H 9.67743 6.47296 4.69503 -0.206417 -0.337176 -0.562802
H 8.11743 9.77064 11.0762 -1.19668 0.293103 -2.055248
H 9.9524 1.29194 9.93628 0.306189 1.193953 -0.410104
H 4.43959 4.09584 4.88535 0.053766 -0.000977 1.063916
H 7.84739 10.7012 9.16824 -1.851292 -0.64793 -0.015233
H 10.8611 5.98199 3.67248 -1.52141 1.103375 0.660906
H 6.48764 7.39681 3.26694 0.238456 -0.482566 -0.997923
H 10.6465 5.54355 9.02685 0.304078 0.263956 -0.485396
H 2.47703 5.88914 9.31045 0.321207 0.209999 1.031296
H 2.77511 4.29239 11.0819 0.806075 0.515584 -0.708192
H 2.40238 0.59997 9.34679 1.417656 0.329542 -1.247053
H 7.00964 3.05193 8.07309 0.805083 2.017366 -0.555578
H 11.6741 8.60929 6.31945 -0.895747 -0.301064 0.55318
H 4.78944 3.14042 6.62394 -0.499196 0.831102 -0.445162
H 9.12638 0.04955 7.92571 -0.158241 0.85829 -0.499102
H 4.90179 7.68545 7.96829 0.36039 -0.362218 0.167333
H 2.36468 10.4804 7.21615 -0.132491 -0.172339 -0.27418
H 6.29422 10.7479 9.6673 -0.228483 0.777416 0.386208
H 10.5108 4.75833 11.1052 -0.804323 0.230958 -1.505091
H 1.29919 11.3609 5.36584 1.14197 -1.52476 0.327154
H 2.88281 11.1406 2.88086 0.41322 -0.603332 1.13081
H 3.03118 11.9051 8.5419 0.299227 -0.75466 -0.564333
H 2.66775 2.51911 6.29027 -0.299169 -0.030011 0.194067
H 7.00691 1.66416 3.36055 0.932398 0.44294 -0.274138
H 2.32093 0.65187 11.3544 0.78077 -0.355838 0.104975
H 3.8505 0.038 11.3578 -1.337805 0.646657 0.658484
H 0.57399 0.18421 9.41052 -0.348998 -0.592484 0.216025
H 6.13878 1.07405 5.5402 0.491501 -0.770699 1.358449
H 0.46341 2.96302 8.83318 0.337265 0.740989 -0.260869
H 1.7997 5.86396 0.88444 -0.336799 -0.296931 0.406938
H 7.96549 6.44105 12.1967 -0.038434 -0.397656 0.080987
H 8.23958 4.75002 6.15619 -0.638497 -1.265934 0.31586
H 3.32355 6.42464 10.5245 -0.109943 1.215669 1.383054
H 11.0834 9.94921 3.31085 -0.882746 0.50085 -0.178546
H 5.4887 5.47458 2.2204 -0.713454 -0.03754 -0.992754
H 4.01219 2.31109 12.33234 0.00079 -0.385455 -0.348671
H 1.72099 6.2857 7.69416 -1.583211 0.575561 0.956304
H 3.39166 1.54141 7.24037 -0.17776 -0.494917 0.056497
H 0.39718 9.31344 11.505 -0.084021 0.14066 -0.770205
H 10.185 11.4558 8.44565 0.169981 -0.169533 0.006356
H 8.29521 8.83824 12.2206 -0.017306 -1.111991 0.191142
H 5.78426 8.99209 8.16805 0.638035 0.163749 0.653176
H 7.44183 10.3339 0.95507 -0.390606 0.431446 0.437327
H 8.59753 10.8896 2.75245 -0.636437 0.089523 -0.476772
H 12.0385 8.86972 4.78032 0.305892 -0.136568 -0.762264
H 5.62187 9.66498 2.09918 0.134924 -0.110552 0.027751
H 6.45921 11.5464 1.44556 0.986699 -1.341827 1.096142
H 11.2012 5.54657 7.42307 -0.247939 1.054621 1.829499
H 7.56477 1.15761 6.22096 -0.239226 -0.258466 -0.138342
H 11.0158 6.68112 0.97925 -0.127842 -0.578986 0.062857
H 11.5604 4.6175 5.20563 -0.418207 -0.512192 0.244274
H 9.00497 10.5154 4.96803 0.742747 0.971867 -1.01421
H 0.20925 2.55277 6.73223 1.045461 0.790055 0.225239
H 0.82721 1.62405 9.88443 -0.431328 1.842323 0.051258
H 10.5904 4.26698 0.7515 -0.469904 -0.094771 0.61898
H 8.83606 3.32483 6.48668 -0.875338 0.007005 0.302949
H 2.41069 10.3565 4.87706 0.739462 0.103346 -0.879638
H 9.3861 8.66109 6.99398 1.269201 -0.026927 -0.459738
H 11.4306 0.62463 2.76319 0.173601 0.125599 0.410201
H 0.99142 12.3071 2.92963 0.519068 0.080145 -0.586606
H 3.36952 9.65843 8.05795 0.636764 -0.360403 0.024206
H 1.67618 3.17826 2.29394 -0.639727 0.15618 1.552372
H 10.0011 0.15396 11.8045 0.362826 0.218387 0.440848
H 2.06281 3.42345 3.80422 -0.473727 -0.313853 -0.597956
H 4.31617 5.78227 8.9161 -0.515337 -0.333495 0.478097
H 8.95409 7.24528 0.74254 1.093795 -0.104125 0.122518
H 11.2714 6.07437 5.3665 0.239001 -0.04365 0.513805
H 12.0699 4.79341 0.88942 0.357872 0.248027 -0.331578
H 2.47855 5.44826 5.17786 -0.232556 0.097466 1.787865
H 11.6479 11.1825 10.0511 -0.211157 -0.330512 0.534399
H 6.15995 8.46699 5.97058 -0.643144 0.542188 0.566255
H 4.00409 1.14522 4.69336 0.944131 -1.276038 -0.392473
H 0.92118 1.33499 3.6313 -0.155427 -1.29904 -0.14437
H 4.98448 0.03959 9.61502 -0.424269 0.747953 -0.555913
H 7.44966 8.76817 5.14966 -0.500532 0.105969 0.537159
H 6.01303 5.82615 8.72678 0.157934 -0.39844 -0.340503
H 11.5141 10.8089 12.2901 -0.148748 0.482011 -0.882701
H 1.04078 5.73748 5.72776 -0.57243 0.080716 0.269624
H 11.3872 8.53838 2.77613 0.055044 0.19737 0.283369
H 7.60611 6.57139 5.5662 -0.426754 0.744714 -0.284613
H 4.66734 3.56804 0.4744 0.283894 0.446581 0.696281
H 10.1801 10.6556 11.6306 -2.87544 -1.963866 0.103975
H 5.89608 0.08906 10.9283 -0.154497 0.153239 -0.872968
H 8.70288 10.7485 6.5815 -0.061694 -1.187336 -2.262803
H 0.85903 8.07402 9.06522 0.399038 -0.299606 0.090545
H 5.37605 1.3778 1.20393 0.34348 -0.509763 0.82177
H 7.4828 5.35672 10.2281 -0.377073 0.542236 -0.763701
H 7.86104 4.25968 0.01408 0.056793 -0.337514 0.503636
H 10.8485 0.94019 1.36322 -0.722998 -0.204071 0.612624
H 9.26856 2.40555 0.56806 -0.353904 0.074487 0.871644
H 6.48996 5.00923 0.07974 -0.379731 -0.146303 0.343184
H 10.0221 3.75192 9.98187 -0.260124 -0.473773 -0.133229
H 1.54951 3.46353 11.0642 -0.02887 -0.453285 -0.466375
H 12.1507 10.2795 8.87022 0.095644 0.18616 0.536482
H 8.62707 0.92672 11.8851 0.865162 0.358611 0.215954
H 11.1033 8.18326 0.66961 -0.350554 -0.30916 0.457254
H 0.73459 9.31582 5.92675 -0.146238 -0.271224 -0.617634
H 4.3084 12.0179 4.22692 -0.431301 -0.238859 -0.090384
H 6.98586 1.74697 10.1915 0.051544 -0.706793 1.123779
H 7.82928 5.92845 4.19639 -0.684471 -0.049337 -1.312087
O 2.40946 3.51746 11.5149 -0.286278 -0.001183 0.558094
O 7.00456 10.1651 9.36775 2.397864 -0.402858 -0.619407
O 10.7589 3.91652 3.70506 -0.464734 -1.486639 0.088092
O 1.78723 11.8822 1.4868 -2.299156 -2.508426 0.452808
O 10.028 4.7012 10.2027 0.828909 0.045699 2.111712
O 11.675 5.3056 5.88965 0.222584 0.382693 -0.353067
O 4.65527 0.53116 4.22632 -0.402101 1.842469 0.832413
O 10.6586 7.54063 1.26858 0.526922 0.988231 -0.540162
O 4.93194 8.64105 7.90648 -0.830416 0.582491 -0.772624
O 6.9548 1.38883 11.1578 0.261138 1.249558 -1.370382
O 5.71044 0.66794 1.83164 -0.012686 0.580616 -0.721663
O 8.59179 10.1487 5.73699 -0.653389 0.230126 3.192916
O 0.76772 8.82896 9.67583 0.517488 1.937736 0.438833
O 7.36919 5.75712 9.31076 -1.04781 0.300331 1.934927
O 5.09323 5.84277 8.22209 0.690159 0.080366 -1.387039
O 6.87863 2.23444 8.49876 -0.312415 -1.044425 2.185233
O 3.12052 0.49525 11.9085 0.8517 -0.258929 -0.780628
O 10.5817 0.78108 2.2957 0.941456 0.234385 -0.476299
O 10.3061 8.29222 7.01014 -1.249148 1.517738 -0.633957
O 1.83664 10.5366 5.64707 -2.401522 1.625605 0.368872
O 4.86716 2.65724 0.24027 -0.116346 -0.327296 -0.484475
O 8.4764 9.74172 11.9384 1.105165 1.08715 1.511729
O 3.62725 4.3573 4.42394 -0.057337 0.100099 -2.197761
O 0.50251 3.38086 9.72129 -0.845681 -0.227562 0.243936
O 10.2722 2.09995 9.45405 -0.148006 -0.857058 0.253193
O 6.95358 10.676 1.75414 -0.579728 1.126432 -1.412184
O 11.8678 11.1898 9.10517 -0.080688 0.228128 -1.297173
O 3.31929 5.72364 9.8801 -0.67409 -1.35056 -2.083761
O 1.04123 0.72877 10.0731 0.309795 -1.473645 0.345785
O 9.22998 11.5542 8.23257 0.023048 -0.820049 0.365337
O 4.77802 4.98584 1.69019 0.559978 0.368573 0.614985
O 3.47948 2.00699 6.37867 0.753692 0.0223 -0.028161
O 5.21106 4.01446 6.33024 1.030116 -1.055976 0.891759
O 0.04045 8.59686 5.69056 0.751409 0.865832 -0.035566
O 8.04231 3.90765 6.68945 0.542201 1.324017 -0.123568
O 8.8601 3.03182 1.21238 0.311765 0.229031 -0.55382
O 9.60565 1.00304 12.1089 -1.312925 -0.515513 -1.13735
O 8.10448 5.88225 5.10283 0.959257 0.011597 1.086249
O 0.62481 0.36859 3.69624 -0.388416 1.315437 0.847324
O 1.22954 6.58127 8.54694 1.188233 -1.429445 -1.233115
O 10.9423 11.1698 11.5569 2.458094 1.24313 0.843183
O 3.38077 10.666 3.62489 -1.078678 1.184023 -1.181162
O 1.34848 3.02494 3.2343 0.9517 0.271511 -0.67273
O 6.64224 0.85647 6.38887 -0.128734 0.539001 -1.764319
O 1.03515 2.93738 7.13908 -1.408668 -2.272554 0.05545
O 6.69582 6.68591 2.60126 0.30521 0.242001 0.868932
O 11.1796 4.99306 0.50679 0.086307 -0.221694 -0.347642
O 11.774 9.28252 3.29215 0.500045 -0.75188 0.335561
O 3.17664 0.45438 8.66287 -0.947132 0.540642 1.221425
O 10.4664 6.75661 4.18456 1.334129 -0.587213 -0.672221
O 9.47913 10.9593 3.12816 1.17326 0.278194 0.564302
O 8.11001 7.27044 0.28304 -0.651305 0.8194 0.462392
O 7.31281 4.9419 11.9879 0.226593 -0.15569 -0.791988
O 6.71115 8.1257 5.2752 1.018924 -0.466599 -0.794581
O 4.87065 9.11899 2.45306 0.572943 -0.279576 -0.288163
O 1.95593 5.65173 6.03294 0.933763 -0.427559 -1.379486
O 2.566 10.1881 8.1259 -0.026064 0.471633 0.551728
O 1.44285 4.95265 1.07512 0.629917 -0.343231 -1.625484
O 7.82702 2.1999 3.52391 -0.277075 -1.016312 0.474721
O 11.1072 6.09566 8.31979 -0.092103 -1.465385 -1.409232
O 5.31481 11.9248 10.3476 -0.018406 -0.667885 1.345376
O 0.46704 9.7186 12.3889 -0.436335 -0.048062 -0.173521
Cl 2.93099 7.25899 12.3628 0.295526 0.439232 0.343963
Cl 9.78623 1.74223 6.15031 0.576188 -0.580954 0.146708
190
energy=-1024.10256016 config_type=nep2xyz pbc="T T T" virial="-1.2070860121232538 -4.065302513136596 2.7781875814052333 -4.065302513136596 -12.766213255885475 4.118496456727413 2.7781875814052333 4.118496456727413 -12.182829207417324" Lattice="12.4 0.0 0.0 0.0 12.4 0.0 0.0 0.0 12.4" volume=1906.6240000000003 Properties=species:S:1:pos:R:3:force:R:3
H 1.6508 10.2593 10.0916 -0.087277 0.99291 1.735715
H 3.0755 4.59281 5.36904 -1.331446 -0.42637 -0.714119
H 4.26986 8.24562 4.6007 0.114387 0.828397 0.628862
H 6.01001 3.67174 7.13924 -1.152319 1.823104 1.030163
H 12.1523 6.76313 1.54948 0.818926 0.473042 -0.704277
H 3.81726 6.62019 6.06415 0.416875 -0.685522 0.23063
H 6.09735 1.90635 0.65586 0.505294 0.973726 -0.074203
H 0.26848 10.7073 12.0927 -0.104021 0.374668 2.131726
H 12.0197 6.99894 3.15256 -0.122026 -0.291433 -1.168953
H 0.54344 0.15344 8.39394 -0.292193 0.112112 -0.627297
H 1.23029 3.29087 8.32196 -0.604995 1.281797 -0.871913
H 1.30339 9.86107 1.34054 0.30755 -0.546948 -0.283139
H 0.03493 1.5166 1.50019 0.410197 0.992158 0.207636
H 2.02884 12.39473 2.33544 -0.512032 0.161932 -0.140628
H 7.13193 8.44661 3.9297 -0.453455 -0.124561 0.000732
H 9.10214 4.50151 9.35298 -0.061234 -0.46089 -0.182689
H 9.86509 2.35821 4.21483 -1.350746 0.639926 -0.349155
H 10.0593 6.12886 6.33766 1.171562 -0.009616 0.130073
H 7.67778 3.66407 3.7651 0.162199 -0.166607 0.668974
H 6.56375 10.2171 0.94525 -0.252411 0.122208 0.016673
H 11.856 5.93255 9.31988 0.864689 -0.801733 -0.049859
H 1.79235 5.18121 8.6134 0.34673 1.418761 -0.03211
H 11.3546 3.90926 1.20735 1.027675 -1.056723 -0.267752
H 8.30145 2.95757 7.78447 -2.047587 -0.067923 -0.447777
H 6.80699 10.5561 11.8358 -0.35007 -1.019843 0.856756
H 6.7769 4.91489 3.71476 -0.383935 -0.248658 0.369537
H 8.82845 11.4759 3.64806 0.741146 -0.997238 -0.20841
H 9.16834 11.2048 9.55185 0.185642 -0.380582 -1.087128
H 1.15133 11.7399 10.275 0.3803 -0.550905 0.495043
H 1.99325 9.07121 2.49102 0.200684 0.019481 -1.216526
H 7.20828 11.214 6.02603 -0.32519 -0.087148 -0.536026
H 9.41075 10.672 2.54219 0.360673 -0.216823 -1.791836
H 5.17439 9.40555 12.2913 -1.056392 -0.400489 -0.286751
H 9.29989 4.2369 0.5072 -0.487671 0.035325 -0.001811
H 1.09882 6.12473 12.30879 -0.117891 -0.345075 0.12336
H 1.49116 1.71142 9.29691 1.003899 0.356895 -0.211082
H 0.26029 8.30353 9.56019 -0.186285 -0.09749 -0.224252
H 11.8623 0.68577 9.43347 0.237675 0.277584 -0.165108
H 11.2295 10.748 4.28863 1.574946 0.371564 0.200696
H 0.61149 3.88668 6.97717 -0.144558 0.308247 0.417573
H 12.3348 12.0773 5.86243 0.02482 0.069511 0.197253
H 3.49382 9.26102 0.1508 -0.075853 0.34744 0.623294
H 4.08589 9.3862 10.6042 0.795991 0.265668 -0.813559
H 7.16408 12.028 7.35279 0.157969 -0.856976 -0.023257
H 9.90972 1.89975 9.15815 -1.478622 1.616364 -1.711593
H 0.0885 11.8759 1.85943 0.512274 0.728281 -0.099559
H 3.16307 0.35047 3.2641 0.249151 0.117425 1.281912
H 3.56502 9.45239 8.88087 0.345686 0.305603 0.296614
H 6.49909 1.59399 7.49789 -0.003528 -0.457492 0.629886
H 6.64402 3.22135 5.71985 -0.424563 0.160678 1.725591
H 3.534 6.16665 10.3087 -0.235303 -0.322889 -0.725467
H 5.22447 4.87851 11.6485 0.486651 -0.209248 -0.439882
H 3.33378 11.8508 8.52049 0.381418 -0.061889 -0.320342
H 4.55845 3.4638 11.1547 -0.086443 -0.001448 -0.511645
H 11.7689 1.98253 0.25277 -0.857109 -0.136566 -1.412292
H 10.8509 5.11636 1.98734 0.121171 0.566794 0.075797
H 7.44282 5.52622 0.21209 0.82832 -0.687442 -0.388813
H 0.97291 7.77133 10.8344 -0.162671 -0.156559 0.545218
H 1.57319 7.50407 0.43482 1.493989 1.34141 1.326267
H 9.80878 3.23889 2.91878 -1.146264 -0.976353 0.351077
H 11.014 6.66712 8.29494 0.240235 -0.149351 -0.136799
H 2.21991 4.49875 11.8329 -0.368639 -0.861154 0.387522
H 9.82556 5.72536 9.92134 -0.424193 0.07344 0.094122
H 5.54491 0.56737 8.19204 -0.383153 -0.224901 -0.295561
H 1.97403 6.73599 9.21722 -0.44825 -0.070975 -0.523818
H 1.01363 0.71907 5.92851 0.841439 0.500258 -0.192673
H 8.59307 11.6589 10.8619 -0.289711 -0.112205 -0.205456
H 4.0011 7.10727 11.4208 0.669087 -0.132379 -0.208995
H 7.51097 0.788 1.86259 -0.185255 -0.322755 0.31845
H 8.40949 1.14182 2.98209 0.806951 1.079141 0.644512
H 0.31059 10.144 4.71844 -1.35663 1.645285 -0.69752
H 3.18924 5.90853 7.23501 0.234252 -0.269941 0.014971
H 5.24658 0.18768 4.87039 0.406193 -0.452242 -0.358612
H 8.65649 4.44817 11.492 -0.105319 -0.04789 -0.012439
H 5.47405 4.60377 10.1926 0.211871 -0.49755 -0.487357
H 9.38109 9.36235 0.97346 0.179002 -0.307522 0.166853
H 8.07228 5.11268 5.4232 -0.211509 -0.355907 -0.317484
H 6.76387 9.80827 7.73674 0.176111 -0.412766 0.431833
H 2.7646 8.28893 4.75576 -0.318675 0.146302 0.561475
H 3.2609 12.3501 6.97843 1.193909 0.903039 2.225234
H 8.64001 7.85533 2.59408 0.931454 -0.219108 -0.691857
H 8.60076 8.97113 4.02042 0.260027 0.652946 0.202388
H 11.216 2.98639 5.72287 0.378088 0.344644 -0.299643
H 2.54204 3.17371 4.98777 0.073956 -1.83606 0.371854
H 3.00113 2.46375 10.6587 -0.174592 -0.292227 -0.549274
H 3.47957 1.34158 1.71564 0.38294 0.569527 -0.370332
H 5.21352 9.31863 9.19462 0.202058 0.466421 -0.169884
H 4.09417 11.0101 1.89205 -0.099125 0.277521 0.236515
H 9.08295 11.0023 7.25901 0.119659 0.42455 0.05245
H 5.36096 10.8957 2.76708 -0.055366 0.654299 0.805084
H 4.69681 5.12686 8.07315 -0.624365 -0.345116 -0.036943
H 7.34273 7.06129 0.46576 -0.195379 -0.452724 -0.43345
H 8.35875 6.59371 5.28276 -0.56855 2.624193 -1.970908
H 10.0788 7.36175 1.9437 -1.307902 0.789004 -0.024724
H 11.8522 4.93054 5.51645 -1.544566 2.08745 1.129423
H 1.64063 9.58571 8.00406 -1.830872 -0.23274 -0.039978
H 2.91764 5.18462 2.16732 0.866353 -0.631267 0.081415
H 5.2127 8.94481 2.74534 -0.190776 0.121853 -0.198568
H 0.20007 12.2848 3.33652 0.326032 0.338778 -0.575678
H 6.58132 12.3996 9.98736 0.727004 -0.597254 1.695685
H 3.06209 4.30283 3.40284 0.307271 0.111484 0.432043
H 5.9967 5.72757 8.26666 0.608028 -0.485885 0.658915
H 12.1235 10.506 8.83985 -0.086908 1.262716 1.154687
H 0.73615 4.3978 4.97501 -0.474156 -1.038653 0.087708
H 3.634 2.97011 1.89848 0.253386 0.107829 -0.302496
H 7.83829 6.38534 7.46462 0.137307 0.130768 -0.331129
H 1.08412 3.70344 0.34141 0.655167 0.932205 -0.785487
H 11.702 9.70222 7.75452 -1.118388 -0.435135 -1.497455
H 7.08612 0.55632 11.4015 -0.642331 -0.852575 -0.146751
H 6.86512 8.35307 8.54082 0.648812 -0.485819 -0.614087
H 11.4962 10.1971 0.67146 0.045474 0.745204 0.25551
H 6.53145 0.05216 3.92148 -0.256888 0.041218 0.112544
H 7.84838 6.15252 8.9999 0.303267 0.297069 0.177488
H 5.22851 5.3129 2.49328 -0.494763 -0.228953 -0.080835
H 3.64829 2.45488 12.359 -0.741769 0.343827 -0.795757
H 7.6757 2.54694 0.32416 -1.354426 0.456986 0.077366
H 6.50185 5.88169 1.73569 0.10157 0.25052 -1.512939
H 10.0498 0.71728 10.0562 -0.30739 -0.849944 0.492465
H 2.92397 1.4985 8.70862 -0.593042 0.873821 -0.25986
H 2.77901 9.25777 6.93017 -0.026755 -0.034137 0.072845
H 10.032 12.2221 7.30747 0.100266 -0.040676 0.052614
H 9.49115 10.4697 12.2669 0.256142 -0.04653 0.264781
H 11.0259 1.4614 5.7101 -0.444403 1.296172 0.64506
H 5.58853 7.35012 2.94325 0.167782 1.370822 0.68406
H 9.71019 2.97515 7.40907 0.302558 0.194613 0.22194
H 11.4437 6.891 5.90661 -0.668346 -1.030947 1.497749
O 2.32138 2.24192 9.05224 -0.468603 -1.705304 0.608257
O 7.52729 11.1549 6.93332 -0.570453 0.548717 0.081871
O 7.08022 4.19376 4.34291 0.416182 -0.017852 -0.780759
O 11.6084 6.59866 2.31733 -0.569543 0.129814 1.695976
O 10.4978 1.51428 9.76504 1.840296 -1.194487 1.671454
O 8.49426 5.88241 5.85072 0.650422 -1.828431 2.243766
O 5.53152 8.28839 3.3913 -0.076083 -1.598576 -0.51087
O 9.77555 10.246 0.77623 -0.389768 -0.114307 -0.484125
O 4.23388 9.05801 11.9697 0.758718 -0.214792 -0.434718
O 9.12886 3.1626 8.18244 1.565901 -0.118495 -0.285927
O 5.89893 11.9531 4.49725 -0.012731 0.336212 0.090339
O 6.48255 9.23627 8.49302 -0.526869 0.627458 0.320506
O 12.3334 10.7401 0.68392 0.527935 -0.873378 -2.407515
O 7.50708 6.75582 8.30388 -0.345153 -0.376727 0.149122
O 5.51958 4.89309 8.52313 0.215795 0.704194 -0.321396
O 0.3885 0.31237 9.33671 -0.29882 0.373488 -0.043259
O 4.2778 6.32064 10.9019 -0.54446 0.813377 1.003399
O 3.47339 2.91201 11.3777 0.772025 -0.021384 1.784254
O 2.3921 4.0847 4.76974 1.419877 2.426497 0.921398
O 10.4997 2.32355 5.77345 0.161014 -2.08119 -0.014254
O 1.40912 4.58301 12.3701 -0.19047 -0.63799 0.437046
O 9.4093 11.293 10.4693 0.306457 0.550282 1.143457
O 2.04889 9.21391 1.50689 -0.476 0.290182 1.278808
O 12.3393 2.33541 0.91268 0.724522 -0.495578 1.027758
O 1.62615 11.0078 10.7784 -0.40502 -1.03033 -1.537097
O 7.77465 0.45938 2.76548 -0.718044 -0.554577 -0.830849
O 2.56665 9.577 7.82645 2.156282 0.132625 -0.678613
O 0.90186 7.0867 12.3446 -1.695982 -0.74687 -0.831469
O 3.69552 0.1381 7.92661 -1.252684 -0.797781 -1.253446
O 0.19768 0.47828 6.3794 -1.281406 -0.700075 0.437543
O 11.22 6.62956 9.25493 -1.091349 0.661376 0.180575
O 6.49188 0.77538 8.11269 -0.011396 0.814868 -0.396308
O 0.71052 4.08225 7.93475 0.852025 -1.443173 0.657759
O 12.1927 11.0231 4.50088 -0.676367 -2.263855 0.311412
O 8.05132 8.18894 4.14978 0.245554 -0.43007 0.107828
O 7.04337 1.78576 0.46509 0.752764 -1.25793 -0.206215
O 9.958 11.3116 7.61914 0.291863 -0.309709 0.10983
O 11.0405 6.24797 6.59791 -0.470363 1.221967 -1.846207
O 0.45385 0.23212 2.43072 -1.102446 -1.323878 0.322663
O 8.99151 5.18799 10.0336 0.486996 0.380169 -0.180306
O 0.0372 9.77498 8.3341 0.338539 -0.335638 0.01465
O 3.01047 0.06186 2.36608 0.419448 -0.359104 -0.993203
O 4.95124 10.5588 1.9689 0.246217 -0.615501 -0.227161
O 5.50465 4.11663 11.068 -0.160744 0.766641 0.654789
O 3.56872 8.52758 5.25864 0.423502 -0.97207 -0.773211
O 6.65512 9.78968 0.08337 0.464279 0.889332 -1.208222
O 9.20782 7.85871 1.76016 0.275514 -0.742245 0.469861
O 3.9049 2.20851 1.33769 -0.124976 -0.671312 -0.054265
O 1.1247 8.15831 9.95591 0.973409 -0.093859 -0.065035
O 9.43872 10.6972 3.48801 -0.830806 1.048154 2.026774
O 9.20856 2.63071 3.47415 2.311767 0.634002 -0.287534
O 6.81685 6.26449 0.22967 -0.030684 1.186772 0.377666
O 6.04203 5.83376 2.58093 -0.380502 0.072097 2.03708
O 3.58788 4.6004 2.60335 -1.064348 0.683614 -0.89589
O 3.88191 5.73615 6.53011 -1.150145 1.179735 -0.53401
O 12.2135 4.11496 5.25324 2.154078 -0.85215 -1.086684
O 4.31834 9.66557 9.56506 -1.117061 -0.533536 0.862049
O 10.558 4.32447 1.50367 -1.110881 0.246771 0.641538
O 6.52083 3.01755 6.71574 1.81711 -1.999235 -2.481681
O 8.43501 4.15378 0.0129 0.397291 -0.297995 0.125944
O 6.87086 12.0989 10.9181 -0.137521 1.814509 -1.154489
O 2.42083 5.97553 8.76856 -0.262611 -0.997423 0.22452
Cl 2.84817 1.0864 5.29789 0.458959 0.033129 -0.452006
Cl 0.70875 7.93629 4.68802 -0.436105 0.046634 -0.153829
190
energy=-1024.3019027 config_type=nep2xyz pbc="T T T" virial="-2.901295265174138 -4.548927092002549 1.5110650043120306 -4.548927092002549 -14.894732613028186 -0.18546478990221138 1.5110650043120306 -0.18546478990221138 -12.10513272918367" Lattice="12.4 0.0 0.0 0.0 12.4 0.0 0.0 0.0 12.4" volume=1906.6240000000003 Properties=species:S:1:pos:R:3:force:R:3
H 0.22881 3.19648 4.55054 -0.334359 1.218577 -0.379243
H 11.1464 1.71229 5.30488 0.536592 0.105858 0.070789
H 5.96923 7.61104 10.4282 -0.000672 0.176428 -0.450063
H 9.81891 11.7863 9.83843 0.534144 -0.211927 0.328154
H 1.25709 2.77936 0.72939 0.050205 0.283543 -0.149562
H 0.39556 2.07135 9.4312 0.122986 -0.007201 0.023651
H 1.04852 8.86668 1.62509 0.951495 0.659182 0.303883
H 6.9477 10.1495 6.96335 0.505702 -0.481484 -0.27554
H 0.09492 1.86861 1.29762 0.157232 0.315233 -0.569654
H 1.94592 11.5668 6.04288 -1.485811 -0.502468 -0.45964
H 10.3659 9.42261 6.60341 -1.171886 -0.887728 -0.609083
H 2.04478 10.42 10.6408 -0.280641 -0.819669 -0.997025
H 9.05299 2.6755 10.3528 0.00638 -0.778008 0.502224
H 0.35093 1.43573 3.3618 -0.950973 -1.050197 -0.793047
H 7.82762 9.47388 3.32112 -0.360037 -0.25097 0.145116
H 1.95728 5.42335 8.37589 1.303366 -0.34899 -1.396004
H 10.3211 5.40251 0.32533 -0.30796 -0.882181 -0.649268
H 9.06888 6.39246 7.97314 0.873921 -0.848397 0.203204
H 7.79754 12.3208 5.15376 0.078962 -0.200794 0.003785
H 3.63304 1.69864 10.5434 0.047109 0.265874 0.208983
H 12.3556 3.23188 11.306 0.141065 -0.014779 -0.052031
H 8.28826 10.7449 11.6517 -0.81586 0.244267 0.852698
H 1.29063 5.97275 10.5122 0.973543 0.169441 1.718543
H 1.14999 2.50276 5.55076 0.541585 -0.234883 0.586302
H 2.25168 1.27692 9.76037 0.537975 -0.319443 0.649773
H 7.12037 11.3751 4.1362 -0.22242 -0.404179 0.018178
H 3.81002 0.2441 2.85691 -0.005602 -0.281281 -0.561416
H 9.01882 0.05117 0.6531 0.813521 0.243095 0.722856
H 7.32415 11.7088 7.11115 0.279918 -0.601169 -0.047322
H 3.56258 8.48293 0.59638 0.192954 0.566607 -1.389369
H 3.68817 11.2067 6.57925 0.566144 -0.199371 0.607099
H 3.59736 0.7812 4.23771 -0.125061 0.210881 0.452861
H 5.63287 1.90022 6.4777 -0.670693 -0.08952 -0.241682
H 7.34383 1.52969 3.34606 -0.008851 -0.743114 0.340149
H 11.7329 3.74355 0.88058 0.18561 0.015259 -0.379278
H 2.48624 3.30452 7.32363 0.072014 0.824863 0.00477
H 2.99688 8.15307 5.13426 -0.238714 0.061331 -0.073458
H 12.0753 11.2849 10.721 0.457617 -0.156494 0.387899
H 6.68098 1.85619 1.95186 0.319017 0.115332 0.313536
H 10.6823 8.3129 5.66277 0.123008 -0.735377 -0.779379
H 4.29178 2.37815 3.21893 -0.453095 -0.388624 0.2609
H 4.86433 0.56642 6.39016 -0.161008 -0.068582 0.094716
H 3.57624 8.05122 2.79971 -0.016161 -0.99512 -1.005961
H 4.12001 10.7829 5.06317 -0.755081 0.246466 1.212707
H 5.38305 0.33284 0.9504 -0.00053 0.977362 -0.412191
H 1.97884 12.3288 11.376 0.044087 0.072638 0.394245
H 11.5143 0.48573 2.69768 -0.192343 0.103653 0.363913
H 5.62739 7.23235 1.87022 0.17654 -0.262535 0.295606
H 7.66389 2.90344 6.36704 -0.507408 -0.365104 1.177232
H 9.27735 0.73939 6.55172 0.284977 -0.195814 0.317435
H 6.67694 6.65123 5.01627 -0.461443 0.165582 0.806375
H 12.1903 0.01532 9.75906 0.883033 1.156847 -0.699491
H 5.71536 7.55259 7.97423 0.281089 -0.140691 0.907153
H 12.049 8.73452 8.56661 -0.050367 0.129118 -0.287694
H 8.96123 5.26568 11.564 0.569509 -0.479347 0.000843
H 0.3863 6.54516 9.47621 0.510436 -0.658205 -0.213207
H 12.1919 10.3104 7.04161 -0.223969 0.472372 0.307233
H 2.39918 9.56374 4.93798 -0.262358 -0.547713 -0.146382
H 9.01884 4.56326 9.60717 -0.370363 0.015186 0.141355
H 3.33828 4.54229 3.59032 0.400637 0.50368 0.611462
H 12.2751 4.14203 9.9408 0.132348 -0.771497 1.030778
H 9.89629 3.89972 2.23687 0.029383 0.073442 0.279332
H 2.9148 5.80009 7.0276 -0.186705 -0.632134 0.909852
H 7.68992 1.61243 7.28699 -0.558656 0.723191 0.129232
H 2.52378 9.91325 9.1726 0.214916 0.23932 0.179279
H 5.33544 3.51266 3.17772 0.429611 0.180169 0.013041
H 8.94406 0.50913 11.5528 0.519146 0.893404 -0.339104
H 7.80391 6.65216 6.21352 -0.235066 0.331533 0.172776
H 10.0895 9.30126 0.422 -0.267523 -0.100617 -0.703301
H 9.97824 9.25493 1.94378 -0.564157 -0.045654 0.595931
H 10.5281 2.53231 10.394 -0.432592 -1.170235 0.448526
H 5.04382 8.51252 11.407 0.942723 -0.64786 0.168707
H 8.55971 3.29266 2.79818 -0.428565 0.145532 0.013592
H 3.45252 6.53993 2.34081 -0.047921 0.68242 0.138707
H 1.35223 1.51352 8.22752 -0.962184 -0.129892 1.056814
H 10.7931 8.00037 10.0786 1.419311 0.179983 -0.695751
H 8.51836 10.8189 9.93961 0.676242 0.30605 -0.505287
H 8.87389 5.35016 2.82499 -1.266022 -0.089679 -0.215346
H 6.0084 5.17272 8.57372 -0.060895 -0.296149 0.447256
H 7.21648 7.50911 8.41642 -0.803982 -0.177178 0.362871
H 11.632 5.10005 1.69629 0.00962 -0.553573 -0.308764
H 12.2042 6.86408 4.05479 -0.481898 0.468472 1.152505
H 0.23503 5.08412 6.76492 1.053008 -0.007226 0.096091
H 10.1248 0.75682 4.61834 0.168003 -0.043691 -0.146704
H 9.79798 6.7387 11.6808 0.076485 -1.282557 0.19557
H 6.31138 3.67389 8.26158 0.259423 -0.125402 0.166578
H 7.99082 6.60799 3.55538 0.417216 -0.391584 -0.180596
H 1.20578 11.8647 2.17806 0.367075 -0.20841 0.208683
H 4.89903 11.5015 8.29921 1.221822 -0.076108 0.26504
H 2.53091 10.9444 1.90633 -0.412465 0.521774 0.095294
H 5.08365 10.5555 2.2632 0.098704 -0.391782 -0.133316
H 11.4098 10.4966 8.41077 0.068642 1.116077 0.812276
H 9.03913 9.28 4.24496 0.760954 -0.066279 2.513103
H 0.42561 6.81069 2.44365 0.307455 -0.645166 -0.086042
H 8.98629 12.1888 7.88087 -0.215952 0.357098 0.161557
H 0.54175 8.69391 9.82227 0.984199 0.614554 0.359336
H 2.43892 6.01596 0.13456 0.904909 -1.059358 0.584108
H 9.36331 3.43394 5.08963 0.707641 -0.402597 -0.905062
H 1.285 11.3895 0.17549 0.772433 0.367149 -0.346916
H 5.29555 2.36234 11.9608 -0.279605 0.243259 -0.484444
H 3.50441 3.38985 1.66153 -0.302773 0.563758 -0.865216
H 9.40534 4.329 7.42973 1.093544 0.423569 0.356971
H 4.37329 10.484 0.77587 0.506741 0.784775 1.352253
H 1.25539 5.68463 3.24983 0.024762 0.048 -0.241293
H 5.13316 3.39679 10.7207 0.316285 0.142433 -0.154714
H 10.743 5.13206 7.84384 -0.145254 -0.199606 -0.762638
H 10.1777 11.2217 1.99338 0.248165 0.334831 0.356602
H 7.49171 9.28446 11.4569 -2.532444 -0.689258 0.317984
H 3.57705 3.51017 0.10652 1.193803 -0.359051 -1.342976
H 7.63578 6.51013 1.90518 -0.51665 -0.268337 0.693687
H 9.17403 11.9343 2.96452 0.901544 0.153249 -0.054444
H 0.71029 12.3183 5.50877 -0.067896 -0.998155 0.55362
H 6.37054 7.40465 0.53749 -0.046541 -0.965637 0.427764
H 3.12245 8.90043 11.4648 0.208078 0.411842 0.641315
H 7.49719 4.38411 10.11 0.356131 0.082542 -0.481987
H 11.982 8.68574 1.55236 -1.013964 0.266992 -0.438135
H 1.32842 7.02154 0.31524 -0.361646 0.357747 0.036411
H 6.7194 0.61525 0.37874 0.651838 0.478151 -0.647853
H 3.2793 2.03626 6.81406 -0.791009 0.359044 -0.053224
H 11.9478 6.23258 5.9097 0.203537 -0.067328 0.180477
H 3.76584 12.2786 9.15584 0.128204 0.63869 0.509954
H 9.58282 8.61013 10.9242 0.440618 -0.67055 -0.306772
H 0.5054 7.96937 4.86159 0.191642 0.222105 0.24846
H 8.54857 4.63532 5.60111 -0.596086 1.025275 -0.568456
H 3.25708 5.91122 4.55925 0.218784 -0.862474 -0.640558
H 9.11673 7.7354 7.07534 1.281354 0.918758 -0.743741
O 2.35048 2.40442 6.98357 0.393427 -1.056241 -0.258657
O 3.38275 11.1077 5.66741 1.595613 -0.272259 -1.445714
O 7.81757 12.0426 4.22413 0.012562 0.667435 -0.037461
O 0.31006 2.55453 0.57806 0.134066 -0.190854 0.630706
O 5.90728 1.119 0.58251 -0.387897 -1.754008 1.04243
O 9.01725 11.4755 9.40345 -0.851783 -0.15692 -0.590714
O 8.91071 3.7852 5.84208 -0.42874 -0.053974 1.053715
O 10.2109 7.8402 10.8205 -2.695746 0.568555 2.021342
O 4.75104 1.49884 6.16025 0.900774 0.060456 0.222445
O 0.42714 2.34733 4.91347 -0.065358 -0.933995 0.014082
O 0.94778 11.4718 5.95948 0.268302 1.378187 -0.145833
O 8.24675 6.17978 2.69937 0.963259 0.677939 0.731168
O 10.0439 12.0682 2.49061 -1.19703 -0.601229 -0.246143
O 6.41066 6.87507 1.4023 -0.469256 1.2968 -1.865463
O 9.86478 4.83767 8.1581 -0.914612 -0.410712 0.549371
O 11.6724 11.64 9.92824 -1.487965 -1.213654 -0.126607
O 7.4983 6.28006 5.35733 0.527474 -0.796033 -1.40331
O 12.1985 8.2539 9.40287 -0.413318 -1.020949 -0.530568
O 10.2244 1.41854 5.31427 -0.621515 -0.251636 -0.134201
O 12.0538 7.48302 4.86203 0.455808 -0.473847 -0.971918
O 11.1292 4.53881 1.03788 0.772321 0.413744 1.614646
O 8.47859 0.06765 12.2714 -1.31671 -0.978426 -0.335519
O 3.7207 9.13787 12.2243 -0.628261 -0.890987 0.808151
O 9.71084 1.96801 10.5709 0.333166 1.300396 -0.625641
O 6.64166 11.0157 7.1969 -1.40432 0.948759 0.312022
O 10.5495 9.56022 1.21691 0.249881 0.314032 0.646174
O 11.8009 5.4082 6.44406 -0.761531 -0.056734 0.032851
O 8.44408 4.36663 10.3996 0.028503 0.365092 0.168537
O 6.28309 7.49913 8.7924 0.289959 -0.111514 -1.619184
O 4.39131 3.34794 3.21439 0.09355 0.140858 -0.259035
O 12.0731 3.25885 10.374 -0.035396 0.981833 -1.009869
O 7.12471 2.43215 7.09263 0.214677 -0.089546 -0.88229
O 9.87914 8.73561 6.00183 0.669788 1.628226 1.058438
O 9.25311 3.9716 2.98305 0.893156 -0.438618 -0.467242
O 8.76945 9.24834 3.35849 0.223975 -0.038301 -2.867645
O 0.40321 8.18723 1.46617 0.282791 -0.982552 0.113169
O 3.97487 11.6477 8.44955 -1.145693 -0.933033 -1.248043
O 8.58179 7.06432 7.5002 -1.971065 0.252577 0.698267
O 1.39198 11.58 11.6073 -0.287592 -0.44259 0.001961
O 2.54249 5.06727 7.59639 -1.226414 0.669326 0.707243
O 8.25793 9.80997 11.394 3.086125 0.21594 -0.660674
O 12.3865 0.91238 2.57323 1.281476 0.694342 0.530223
O 1.55699 11.0114 1.84065 -0.056552 -0.256907 -0.206517
O 0.85783 1.26426 9.09284 0.736675 0.603146 -1.600872
O 5.90196 7.9935 11.3212 -0.127311 0.748212 0.905177
O 3.08417 0.9552 10.2492 -0.419734 -0.205715 -0.122972
O 0.35323 5.91002 2.8948 -0.062323 0.67204 -0.303795
O 6.15455 4.30096 8.99914 -0.210622 0.354757 -0.275286
O 2.27498 8.63249 4.64727 0.196179 0.38397 0.146283
O 3.39167 0.98356 3.31442 0.219222 -0.387851 0.149304
O 9.53805 5.8206 12.2047 -0.66234 2.549674 -0.927783
O 11.4519 9.9828 7.60343 0.651636 -0.503464 -1.180231
O 1.87715 6.59275 12.0463 -0.615476 0.569291 -0.732668
O 3.00953 3.66766 0.84272 -1.607132 0.122904 2.407043
O 4.66299 11.0926 1.55457 -0.835539 -0.164298 -1.288817
O 2.94831 5.44113 3.733 -0.75259 0.582389 -0.016561
O 3.62506 7.45624 1.98754 0.103627 0.59767 1.263247
O 0.93579 5.72558 9.6679 -1.735735 0.473096 -1.656867
O 8.59823 0.35343 7.15591 0.384568 -0.201583 -0.316973
O 7.19726 2.23365 2.71586 -0.231573 0.626893 -0.545568
O 4.68374 2.95492 11.4508 0.280341 -0.504952 -0.147882
O 2.11408 9.61969 9.99726 -0.137347 0.448725 1.005081
Cl 5.84473 9.32995 3.79833 -0.357051 0.710091 -0.016186
Cl 4.41649 6.99832 6.05765 -0.137929 -0.071449 0.039304
190
energy=-1023.60600982 config_type=nep2xyz pbc="T T T" virial="1.2429413481499052 -2.2978712612234524 0.1569280836984576 -2.2978712612234524 -8.082230668175502 6.463706757683365 0.1569280836984576 6.463706757683365 -7.025622825337681" Lattice="12.4 0.0 0.0 0.0 12.4 0.0 0.0 0.0 12.4" volume=1906.6240000000003 Properties=species:S:1:pos:R:3:force:R:3
H 0.22013 12.2124 8.43931 0.073182 1.364366 0.007253
H 3.34441 4.95519 4.66082 0.272149 -0.95403 -0.255557
H 4.01959 7.42093 5.3033 -0.255111 -0.374271 0.632913
H 9.72016 4.83007 5.91452 -0.344302 0.384482 0.359776
H 0.80826 4.8423 11.3338 0.879851 0.025486 1.139601
H 3.78439 6.04596 7.05059 -0.346368 0.821196 -0.858285
H 9.83192 6.31473 2.02543 0.205878 -0.898645 0.822352
H 0.26187 10.6943 8.72981 -0.769312 -0.102003 -0.355897
H 1.37456 5.84727 0.1742 0.038914 -0.3668 -1.080307
H 8.95704 1.00786 6.4331 -0.35266 0.36392 -0.358556
H 0.91259 4.47072 7.57958 -0.493878 0.98815 0.557237
H 3.06034 2.6931 1.41359 0.149953 1.510378 -0.122339
H 9.36819 0.0419 0.72515 -0.121335 -1.037386 -0.286258
H 11.7833 0.40519 3.88402 0.218803 1.21229 0.912604
H 6.79599 8.04393 5.42822 0.581698 0.447098 0.49068
H 11.2022 4.20085 10.5883 -0.826461 -0.077215 0.447818
H 10.0729 3.33202 0.58039 0.009792 -0.062574 0.03793
H 10.6018 7.56642 10.1224 -0.790226 0.549054 -0.544209
H 7.9441 9.31962 1.03327 -0.232301 0.557429 -1.370841
H 5.00511 10.6915 1.95931 0.025597 0.873812 -0.373387
H 12.0516 2.26347 10.1457 -0.163015 2.983972 -0.335481
H 1.4564 9.1117 8.63382 0.225161 -0.799847 -0.149773
H 11.9168 6.86918 12.0276 1.137015 0.218911 0.224425
H 11.129 2.83289 6.49087 1.143734 -0.178914 0.149928
H 5.71727 11.9598 1.25677 0.542823 1.171599 0.358615
H 8.70413 8.28476 1.96703 -0.943933 1.465392 -0.175187
H 7.81449 11.0785 4.42272 -0.848203 0.780754 0.168252
H 8.70856 10.8553 11.8935 -0.39219 -0.287278 0.189114
H 10.7942 11.123 8.37706 0.630954 -0.006555 -0.037543
H 3.03649 4.22092 0.84687 -0.525459 -0.535604 -0.119356
H 7.38829 9.66167 7.10116 -0.283615 -0.055916 0.069153
H 8.39671 10.1085 3.32918 -0.335501 -0.234698 0.047806
H 3.61651 11.387 0.32341 -0.422548 0.742772 -0.379385
H 7.07542 4.73852 1.56921 -0.377435 -1.041903 0.254136
H 0.81652 3.15287 1.97624 0.064445 -0.418602 0.023295
H 2.16642 3.04387 7.34716 0.304055 -0.396011 -0.70879
H 11.35 9.1992 1.55925 0.489474 1.532531 -1.113662
H 10.3975 0.90032 6.85169 0.894772 0.21981 -0.109531
H 9.8302 11.5336 3.96093 -0.243582 -0.060786 1.138468
H 0.28598 5.91111 7.47162 -0.011255 -0.708548 1.159968
H 1.22641 10.821 4.6219 1.550658 0.716498 -0.474611
H 2.20025 12.1497 0.01815 -0.966924 1.13363 0.824648
H 3.94771 6.5838 9.95082 0.603013 1.377504 -0.059361
H 6.86469 10.9972 7.96019 0.704596 -0.428101 -0.136991
H 9.49473 0.62885 8.68281 -0.427347 0.228311 0.853724
H 11.1524 9.11062 4.20678 0.247089 1.896114 2.061597
H 12.1252 1.42568 5.10313 -0.334949 -0.156104 0.121228
H 3.85869 7.9412 9.07271 -0.115115 -0.541914 1.14917
H 5.93498 12.38517 7.0841 0.080131 0.235985 0.432797
H 9.6324 3.28236 5.38021 0.196043 1.449355 0.308871
H 1.36089 7.1413 1.72147 0.18539 0.370415 0.255498
H 4.4621 4.60453 11.2507 0.628316 -0.302331 0.236999
H 3.5089 12.0929 10.4513 -0.194813 0.570943 0.078715
H 2.63531 3.34592 9.62442 0.407669 0.06598 -0.15957
H 9.61441 1.36521 1.41043 0.655802 1.794829 0.355453
H 10.5316 7.02045 0.26922 -0.323418 0.524674 -0.370311
H 1.21875 9.23477 10.9848 0.768141 0.865709 0.482704
H 0.02344 9.65147 0.39558 -0.84003 0.005172 0.513571
H 11.1276 0.97469 10.2302 -0.652558 0.164364 -0.378143
H 10.5733 3.61131 2.03568 -0.556497 -1.435846 -1.027796
H 12.3203 4.29568 9.47789 -0.121147 0.059242 -0.119919
H 0.70769 1.92184 2.98232 0.005132 0.032496 -0.706986
H 10.3011 5.51946 11.6444 -0.216645 -0.02269 -0.066054
H 6.53891 0.82897 8.19618 0.354329 0.374705 0.410354
H 0.01859 8.73569 9.31258 -1.548082 -1.84193 -0.424779
H 1.5031 12.3001 4.37276 0.057568 0.037837 -0.145447
H 10.261 10.64 12.2374 -0.275448 0.166185 0.338762
H 1.64653 8.07913 0.32028 -1.127985 -1.035078 1.079455
H 6.59947 1.95667 1.66901 -0.413325 -0.351724 -0.554543
H 7.60451 0.91088 1.2146 2.384052 -0.79006 0.368768
H 9.55914 0.11468 2.93763 0.04633 0.889046 -0.640393
H 3.65542 4.9656 8.09906 -0.73485 -1.13616 0.952661
H 9.12119 1.33272 4.53011 -0.192514 -0.619659 -0.212882
H 7.14683 5.48267 0.10927 0.056492 -0.29388 0.844598
H 2.96897 4.91676 11.1144 -0.065578 0.060093 0.016104
H 7.02251 9.48148 11.1693 -0.128905 0.464921 0.495033
H 8.49107 5.76298 7.20571 -0.165089 -0.348964 0.529235
H 6.90098 9.25202 9.11308 -0.323799 -0.309331 -0.070169
H 2.59622 6.74525 5.24359 0.189025 0.601641 0.882808
H 4.3625 0.37859 9.31259 0.054338 -0.23449 -0.281701
H 10.99 6.80881 6.60222 1.03862 -0.07919 -0.606755
H 8.19159 8.80485 5.40446 -0.659006 0.02603 -0.04842
H 11.9686 9.07969 6.1714 0.293408 -0.436435 -0.063969
H 4.27329 4.38716 5.70758 -0.401357 -0.574087 -1.057879
H 2.88704 1.84414 9.35065 -0.003634 0.04179 -0.30136
H 6.46413 1.75725 11.9562 -0.409996 -0.569599 0.719879
H 5.66548 8.27582 9.79969 1.629728 0.472202 0.219282
H 3.70145 11.1059 3.57051 -2.806788 0.791734 0.089561
H 9.12465 10.5697 8.06872 -0.797717 0.568291 -0.314701
H 5.08071 11.1253 3.9523 0.770001 -0.071605 0.198729
H 6.14385 5.45042 7.88587 -2.12341 -0.016422 -0.228044
H 2.05275 10.1344 12.0943 1.563569 1.981461 -0.581148
H 8.76809 7.00324 6.44142 0.633696 -0.7855 0.212464
H 12.3364 6.71869 5.69835 0.375768 -0.788278 -1.920586
H 10.6849 4.69283 3.861 0.394485 0.204864 -0.053042
H 3.28245 9.69682 7.60038 -0.141604 -0.909922 -0.265544
H 5.75411 3.10954 3.15114 0.118067 0.00218 0.700288
H 4.7427 8.86916 4.19795 0.923193 -1.445378 0.593153
H 11.8928 7.97405 3.52428 -1.066559 0.611197 0.014809
H 8.24714 2.31276 9.2387 0.675949 -0.445314 0.055654
H 5.11489 3.77611 1.95572 0.661111 -0.572657 0.058653
H 7.19787 4.31121 8.30889 -0.494576 -0.484242 -0.113156
H 4.49306 11.6344 6.2808 -0.121315 -0.289702 0.179576
H 11.737 5.2794 2.80017 0.97899 0.410399 0.617736
H 5.16445 1.53388 11.0336 -0.393431 -0.385101 0.192507
H 7.24237 5.75916 9.7601 -0.221543 -0.159761 -0.581387
H 0.46629 1.30742 0.82569 -0.067154 0.319774 0.939934
H 3.05213 11.4046 5.93356 -0.224971 -0.356195 0.024036
H 6.83656 2.58564 9.76955 0.221997 -0.290757 -0.680607
H 7.82314 7.03931 10.4054 -0.806417 -2.286289 0.481396
H 12.1778 12.2381 0.63983 0.376077 1.026212 -0.804815
H 7.65229 1.6441 5.13313 1.189498 0.285327 -0.509015
H 9.14061 4.75238 10.9672 -0.985735 0.463439 -0.35104
H 6.24898 6.7302 1.70319 -0.344425 -0.489701 0.044221
H 0.0397 1.10887 11.3064 -1.01606 -0.501412 -0.950096
H 8.70707 6.5572 0.9715 -1.128487 -1.159468 -0.01053
H 6.33702 8.16348 2.0521 -0.08645 0.30307 0.0239
H 8.97854 0.18638 10.1695 0.070936 -0.356996 0.050299
H 2.48352 3.21387 5.76768 1.3987 0.322296 -0.997282
H 3.00616 8.18836 7.08016 -0.110518 0.030904 -0.367793
H 9.9746 9.7097 9.03524 0.594851 0.525736 -0.313306
H 6.44286 10.4177 12.3431 -0.651826 0.287084 0.337818
H 12.183 10.532 6.57122 -0.013297 1.154964 1.15513
H 5.39317 7.57514 3.58663 -0.084142 -0.274461 -0.304947
H 0.29003 2.45109 6.51061 0.729289 0.636089 0.045634
H 10.0637 7.05369 8.75423 -0.18924 0.982455 -0.022183
O 1.80678 3.18443 6.4223 -1.744774 -0.166513 2.12277
O 7.48694 10.1981 7.9193 0.143668 0.53362 -0.09376
O 8.05059 9.07455 1.94693 1.069652 -1.702683 1.664314
O 1.55318 5.02517 11.9895 -0.795699 0.174541 -0.062732
O 9.46801 0.85352 9.68055 0.68464 0.430527 -0.833865
O 9.2772 6.19765 6.80307 -0.944682 1.592013 -0.444124
O 5.15754 7.96419 4.47767 -0.76704 2.107274 0.023122
O 7.26236 10.0835 11.9678 0.439563 -0.921089 -0.964277
O 2.85162 11.5661 12.0819 1.918755 -1.667536 -0.088427
O 11.7993 2.10992 6.68421 -1.654622 -0.176955 -0.134306
O 8.60087 1.97482 5.059 -1.055591 0.446083 0.504157
O 6.63649 8.66162 9.85934 -1.148551 -0.718791 0.441917
O 0.20064 0.61709 0.17368 0.00416 -1.24766 -0.056641
O 7.63662 6.0333 10.5987 0.885366 2.382565 0.221106
O 7.04813 5.21981 7.98353 2.501575 0.067144 0.352217
O 9.53561 0.52521 7.03941 -0.004704 -0.878478 1.088633
O 1.12768 7.3067 0.79506 0.591075 0.208565 -0.922474
O 2.66429 2.69651 8.90431 -0.485748 0.199212 0.169878
O 3.81965 4.11007 4.85645 0.353456 1.403806 1.226248
O 12.1897 9.95885 5.82551 -0.071669 -0.832898 -1.343815
O 1.0035 2.2014 2.05584 -0.031162 0.248583 0.550867
O 9.56562 11.3076 12.024 0.857947 0.136583 -0.609364
O 3.48038 3.59291 1.43246 0.293859 -0.714505 0.219018
O 9.07358 0.58204 1.49053 -0.01008 -1.035318 0.050062
O 12.1292 11.4262 8.24381 0.84597 -0.682262 0.008245
O 6.7071 1.15942 1.08724 -2.669426 1.102544 0.118292
O 2.94554 8.7902 7.85772 -0.069266 1.287157 0.479746
O 12.057 1.32074 10.2574 0.999768 -3.245449 1.768886
O 3.6111 0.50732 9.9118 0.49052 -0.382325 0.092139
O 1.98099 11.4421 4.32728 -1.70802 -0.75493 0.874082
O 12.0415 3.81224 10.2954 1.152696 0.265102 -0.651894
O 6.06397 12.3936 8.06921 -0.362378 -0.045653 -0.654858
O 0.51209 5.19099 8.15192 0.52496 -0.291048 -1.640762
O 9.95443 0.09502 3.84066 0.766329 -0.521508 -0.406235
O 7.59045 8.28715 5.99485 0.045428 -0.089583 -0.80133
O 9.51672 6.89597 1.33542 0.964653 1.623556 0.13533
O 9.93194 10.6353 8.63987 -1.325917 -1.937449 0.908099
O 10.1742 7.89229 9.26581 0.940773 -1.046784 0.830887
O 11.0652 8.54653 3.48377 0.790053 -2.478977 -2.306503
O 9.89551 4.62247 11.5346 0.962806 -0.308215 0.334921
O 3.70243 11.1819 6.63131 -0.00676 0.374669 -0.320731
O 0.07054 1.03312 4.27473 0.098859 -0.893877 -1.100677
O 4.44498 10.5548 3.4819 1.971465 -1.426906 0.20613
O 3.78107 4.69946 10.5903 -0.687451 0.4176 -0.268984
O 3.26901 7.05255 5.92343 -0.263916 -0.037061 -1.800049
O 5.12821 11.222 1.11877 -0.73995 -1.629859 -0.671627
O 11.9261 7.11734 6.44246 -1.530995 0.933929 2.43843
O 5.98308 2.01294 11.1507 0.515111 1.191569 -1.239705
O 11.5575 9.89754 0.84548 0.242067 -1.042405 0.685232
O 8.47619 10.4147 4.26179 1.011638 -1.337416 -0.158473
O 10.3238 2.83846 1.38406 0.578756 1.734546 0.681232
O 1.44502 9.43995 11.9266 -2.108848 -2.77042 -0.438288
O 5.68284 7.43599 2.08946 0.590534 0.309494 -0.288614
O 6.01608 3.49417 2.31339 -0.858854 0.432954 -0.487581
O 4.26688 5.57761 7.73763 1.502389 -0.093285 0.046848
O 10.8452 4.96832 2.92435 -1.401476 -0.548297 -0.106485
O 4.1482 7.57145 9.96672 -0.33217 -0.575172 -0.982447
O 11.0162 7.05444 11.7794 -0.352338 -0.378452 -0.454239
O 10.2407 4.06865 5.62372 -0.054487 -1.974267 -1.164589
O 7.26957 5.54493 1.09342 0.1647 1.29005 -1.684947
O 7.39521 2.62396 8.92502 -1.172822 0.512907 0.625287
O 0.70036 9.35831 9.22979 1.840993 1.830576 0.505347
Cl 6.16315 0.17786 4.95453 -0.131128 -0.029458 0.192243
Cl 1.05065 6.48956 3.82028 0.199412 -0.225916 -0.110011
190
energy=-1023.19967949 config_type=nep2xyz pbc="T T T" virial="-3.4839891013988273 4.605405493855349 3.2109506580548213 4.605405493855349 -0.6145507013237087 -1.073339539636186 3.2109506580548213 -1.073339539636186 -2.317768414172859" Lattice="12.4 0.0 0.0 0.0 12.4 0.0 0.0 0.0 12.4" volume=1906.6240000000003 Properties=species:S:1:pos:R:3:force:R:3
H 11.3089 2.87763 7.94272 -0.54522 0.460432 0.270258
H 4.1992 3.32406 3.80745 0.272513 0.522362 0.361356
H 4.18752 7.38654 6.21864 0.980449 0.255256 0.162429
H 6.95223 4.43809 5.51129 0.396375 -0.707255 -0.923109
H 2.12451 4.96023 11.6393 -0.747831 -0.129323 1.304661
H 3.14829 6.07878 6.96047 -0.334046 -0.182828 -0.666053
H 0.13462 8.29952 3.86095 -0.438423 0.323238 -0.389939
H 9.43159 0.08034 7.57805 0.077719 0.426368 0.107257
H 2.20868 5.80757 0.64488 -0.800295 -0.8228 -0.671096
H 10.9146 10.2922 3.82506 -0.410013 0.62125 0.308119
H 10.3607 6.16147 7.70696 1.115845 -0.627753 0.221255
H 3.55661 4.18796 0.44625 0.450215 0.448244 0.192898
H 9.94918 1.88684 11.8134 -0.602452 -0.57308 0.936363
H 11.9993 1.0872 2.05823 0.349294 -0.348263 -0.327044
H 9.15628 9.20976 6.07077 -0.222138 0.665159 -0.42239
H 12.3285 7.78581 9.93652 0.068781 0.126394 0.17253
H 10.9932 4.79167 1.76498 0.555543 -0.292226 -0.507717
H 7.81883 7.21081 6.15208 0.495145 0.255322 0.130372
H 7.51291 11.0024 4.50271 -0.532842 0.174251 -0.258283
H 6.5831 9.97787 0.55462 -0.111316 0.444128 -0.461654
H 2.04791 4.1061 9.48406 0.251145 -0.746389 -0.486425
H 3.90297 8.97583 10.4811 -0.017936 -0.060588 -0.314852
H 9.87805 7.0539 11.8419 -1.202638 -0.095756 -0.687848
H 12.30968 0.88133 6.8623 0.074094 1.474925 0.433669
H 6.37093 11.2462 1.47328 -0.022754 0.184837 0.220236
H 8.28331 11.4611 5.71491 0.464292 1.603987 1.286816
H 4.95959 10.5443 4.87677 -2.074609 -0.121587 0.520173
H 9.04563 0.78604 9.5641 -0.883426 0.655264 -0.146837
H 8.04807 0.76009 7.30424 0.464696 0.108007 0.039373
H 4.95874 4.93148 0.52907 0.544493 1.042235 -0.081244
H 7.35407 9.86397 7.08076 -0.216633 0.15071 -1.153257
H 4.61196 9.31159 5.7057 -1.341413 0.799765 -0.689395
H 2.2097 0.86338 8.65522 0.295983 1.811691 -0.572411
H 6.9498 2.28215 3.93719 -0.270899 0.185925 0.030864
H 0.59795 4.20978 0.47842 -1.09498 -0.335589 0.072359
H 1.18589 11.6592 6.01498 -0.298649 0.12079 -0.031046
H 11.0778 8.86065 0.23722 0.000925 0.118546 -0.758114
H 10.7941 4.36096 8.35609 0.3778 0.469185 -0.276868
H 10.9034 11.4009 1.24799 0.208065 -0.66317 -0.648233
H 11.4194 6.27553 8.89317 0.058151 -0.791248 -0.740001
H 1.9171 11.785 3.69546 -0.054493 -0.892534 1.048767
H 1.9445 12.2891 9.77839 0.882793 0.023505 -1.248993
H 4.30215 7.02524 1.33607 0.206497 0.41284 -0.227538
H 6.49556 10.9188 7.95432 0.407033 -0.88147 0.052665
H 9.20614 2.98265 7.9364 -0.698431 0.603767 -0.102606
H 1.1003 9.72318 2.37887 0.296974 -0.311999 -0.771552
H 1.20447 1.36408 1.84036 -0.830034 -0.475442 0.507692
H 5.82468 7.34141 0.78348 0.067436 0.293653 -0.290843
H 4.65586 4.44841 6.27062 -0.327618 -0.036556 0.08324
H 9.47465 2.01981 5.69507 0.261347 -0.332207 0.184124
H 2.05159 8.13437 1.30158 0.635866 -0.274654 0.255473
H 1.54622 2.53735 7.7905 -1.483139 -0.363811 -0.638892
H 3.9967 11.3908 8.59837 0.00931 0.655281 0.496725
H 11.0301 1.02336 9.45945 0.525747 0.603945 0.492254
H 9.51089 4.52483 1.99764 -0.225959 0.559159 -0.35213
H 10.4887 6.60716 0.68667 -0.0423 -1.324165 1.650878
H 4.59428 11.0407 0.23379 0.119129 0.297144 -0.260573
H 12.2761 9.78113 0.41891 0.84558 0.204561 0.19183
H 11.0061 2.99722 10.2767 0.002515 -1.140053 1.156043
H 0.35259 3.71276 4.50157 0.220004 0.523746 -0.286938
H 1.37541 5.45131 9.77428 0.046271 0.336351 0.263321
H 12.266 3.05668 1.28943 0.172828 -0.638366 0.154481
H 11.7514 6.84175 11.0365 -0.09925 0.13871 0.273802
H 4.51123 4.76121 7.79341 -0.867648 -1.7e-05 -1.103748
H 2.91022 9.89903 11.2858 0.269566 0.225433 -0.050883
H 2.73056 10.8312 4.67431 0.088159 -0.157963 0.098673
H 8.21951 1.4977 10.6763 -0.012939 -0.304364 0.304045
H 2.37215 6.81221 2.19618 -0.197517 0.646453 -0.083846
H 7.58809 3.25249 2.328 0.899352 0.415469 -1.341294
H 8.58052 2.70174 1.11362 -0.083259 -0.463069 -0.403369
H 9.53307 0.66736 0.44396 0.021181 0.567577 -0.01993
H 4.04517 5.38984 9.68863 -0.473857 0.562318 -0.094766
H 10.4729 11.8621 2.65415 0.11322 0.357305 -0.61942
H 8.25095 3.04999 4.00537 -1.153614 0.334941 0.279519
H 2.84706 3.24827 7.61569 2.031756 1.305744 -1.871792
H 9.79641 9.76879 9.56492 -0.830852 -1.257847 -0.490886
H 7.10597 3.85563 6.97579 1.118849 -0.83461 0.421613
H 6.22281 8.37249 11.198 0.802445 0.013729 1.510541
H 2.25429 6.88083 5.82562 0.709128 -0.602209 0.826147
H 4.62966 10.953 7.30523 0.54889 0.516718 1.268003
H 11.8999 6.33445 4.54848 -0.613073 0.55535 0.311272
H 11.5949 8.72778 7.08739 -0.844686 -0.1032 -0.918723
H 0.73774 8.87396 8.16846 -0.001716 0.224312 -0.234915
H 3.16908 4.40364 4.22791 0.641705 0.507883 0.238067
H 10.489 11.9513 9.34855 0.212318 -0.820519 0.203354
H 6.2818 0.0767 11.7732 -0.121096 -0.195335 1.215439
H 7.54319 7.87732 11.7677 1.262686 -0.891075 -0.226036
H 2.81582 12.2127 1.1821 0.95634 -0.941936 -2.156028
H 9.1211 8.1147 8.13874 0.267098 -0.391519 -1.326583
H 3.17647 0.91154 2.17567 0.012782 -0.328178 0.206775
H 5.27283 4.6173 9.63937 1.1223 -0.895954 0.34241
H 3.97932 11.9564 11.546 0.443426 0.408017 -0.425204
H 9.91346 7.98564 5.47979 0.287348 -0.264842 -0.229498
H 10.7564 6.35516 3.62006 -0.929283 -0.375772 -0.962477
H 10.6409 2.54689 4.63428 -1.84168 0.003415 0.919716
H 2.15033 8.8319 9.29755 0.502819 -0.127428 -0.126629
H 4.36341 2.85623 1.9327 -0.011679 -0.367574 -0.006653
H 5.87646 7.31592 6.30017 0.784764 -0.242697 1.186528
H 2.16181 10.5009 1.51646 0.345926 0.185734 -0.112037
H 6.41668 2.38272 9.93644 -1.187564 1.088121 0.611978
H 5.14504 1.72462 2.70437 -0.893136 -0.271373 -0.006421
H 6.52179 4.14516 11.329 -1.456693 -1.887016 -1.81489
H 5.44865 7.22977 9.33971 -0.032861 0.284961 0.337707
H 0.06954 2.39124 3.66195 0.50774 0.091947 -0.358425
H 6.39667 0.10089 10.3731 0.451489 0.030464 -1.568955
H 7.25667 4.2981 0.23459 0.498866 0.310864 -0.301488
H 0.3045 0.02184 11.7349 0.696563 -1.430835 -1.279766
H 5.9085 8.72802 9.12645 0.427812 0.5512 -0.805727
H 5.26333 2.52048 10.927 -0.590665 -0.776835 0.73236
H 8.81196 6.95831 10.2208 -0.466134 0.20118 -0.395897
H 0.71793 11.0363 10.8787 -0.98413 -0.417625 0.57759
H 9.51572 10.9258 4.3129 0.281999 -0.17565 0.12967
H 8.04557 5.89421 11.1858 -0.465073 -0.803343 0.183375
H 5.01291 5.21368 3.91948 -0.167882 0.263808 -0.663619
H 11.5722 3.03705 11.8259 -0.284746 -0.61078 -0.367564
H 0.61082 9.70469 4.30348 0.211936 0.483861 -0.230239
H 5.56678 6.4861 2.66422 -0.769324 -0.142424 0.593198
H 7.99204 2.3939 8.64888 0.173539 0.392752 -0.727209
H 1.12311 11.8871 7.57896 0.893189 0.138656 0.728303
H 2.12748 7.90247 7.72937 0.275906 0.211793 0.754621
H 8.17568 9.0977 8.79373 -0.265404 -0.038055 -0.020862
H 10.8376 10.2472 10.5971 -0.011652 -0.162199 0.469093
H 12.2975 10.2508 7.20183 -0.7318 -0.986792 0.170542
H 5.17381 6.73078 4.48576 0.718074 0.080487 -1.176476
H 12.373 2.21605 6.08589 -0.046693 0.564277 -0.890854
H 7.16954 6.00466 6.8494 0.149985 0.291541 0.313232
O 0.58006 11.8108 6.79268 -0.462754 -1.029142 -0.684016
O 7.19083 10.2089 7.94712 -0.104205 0.3397 1.385114
O 8.05342 10.6731 5.24209 0.052486 -1.587093 -0.694849
O 1.89483 4.92216 0.25052 1.556033 0.974362 -1.146926
O 8.19768 2.95935 7.84686 -0.100134 -0.565159 0.781632
O 6.707 4.53966 6.42303 -1.297442 1.365906 0.19339
O 5.09781 7.72918 5.91684 -1.603997 0.345312 -1.470544
O 10.4834 10.4049 9.71344 1.261137 1.516496 0.623982
O 2.47096 12.39389 8.90117 -1.358555 -1.769241 2.012392
O 12.3092 1.902 6.99157 0.239074 -1.597082 0.638581
O 10.4319 11.1345 4.02516 0.420431 -0.673018 -0.269215
O 6.7896 8.38547 12.0623 -2.547991 0.72592 -0.914971
O 0.92563 11.9344 11.1169 0.133505 1.796949 0.602451
O 8.56614 6.71963 11.1237 0.427843 0.547811 -0.226503
O 7.01117 4.77464 11.791 1.577043 1.927467 2.22876
O 10.6418 3.40384 8.47764 0.492159 -2.205941 0.307927
O 2.5759 7.28111 1.35119 -0.001953 -0.57671 0.312371
O 10.4156 0.46428 8.99511 -0.147662 -0.312288 -0.268241
O 4.13407 4.18885 4.3169 -0.60934 -1.525534 -0.623707
O 12.0164 9.36924 7.64716 1.191499 1.438686 0.240383
O 12.0915 3.71758 0.5993 0.901989 1.47371 0.027936
O 8.10315 1.14816 9.7732 0.477847 -0.178522 0.191494
O 4.51362 4.10739 0.67101 -1.145337 -1.873198 0.197168
O 9.19776 1.48755 0.02451 0.289373 0.152165 -0.663846
O 8.86438 0.44492 6.88541 -0.637815 -0.59201 -1.057403
O 8.10317 3.48372 1.45357 -0.632088 0.298069 1.186447
O 1.69546 8.50203 8.45151 0.142686 -0.472428 -0.2079
O 11.1427 2.41484 11.111 0.315295 1.49079 -1.651703
O 4.88705 11.2747 8.23043 -0.862983 -0.823133 -2.124385
O 1.825 11.1662 4.48844 0.017 1.037756 -0.96828
O 2.14907 4.91413 10.0147 -0.092502 0.679013 0.172649
O 3.96282 4.60001 6.94468 0.896039 0.342947 1.539744
O 11.1917 5.73497 8.05471 -1.098902 2.481134 0.179898
O 10.6702 12.2056 1.70573 -0.021755 0.35414 0.971418
O 9.5776 8.38092 6.29761 0.597742 -0.394842 0.119858
O 0.11654 9.2464 3.59934 -0.03355 -0.623249 0.66071
O 8.88928 8.45613 8.98856 -0.219113 0.246564 1.507351
O 7.39723 6.98489 6.98843 -0.695773 -0.948116 -0.353432
O 1.59259 9.7306 1.49661 -0.988228 -0.138131 0.529837
O 12.2278 6.85788 10.1737 0.006727 -0.189753 -0.152945
O 5.3702 8.15683 9.6672 -0.325896 -0.584217 0.585874
O 0.33525 1.7369 2.1591 -0.00328 0.044672 0.088046
O 2.50758 0.19458 1.97884 -0.74758 1.396571 1.89891
O 2.28264 2.90795 8.26313 -1.037572 -0.993814 2.463516
O 2.80354 6.97965 6.66927 -0.911505 0.306141 -0.11716
O 6.23766 10.9045 0.57056 0.173872 -0.594291 0.390684
O 11.0398 6.81475 4.41108 1.351632 -0.249463 0.541463
O 5.84013 0.49312 11.0322 -0.753242 -0.087407 0.56127
O 11.4792 9.70285 12.2892 -0.49476 -0.070413 0.414086
O 4.12012 10.1469 5.3218 3.707655 -0.476924 0.131227
O 10.1807 5.25881 1.98179 -0.348002 0.095604 0.66914
O 3.7331 11.3614 12.2546 -0.622969 -0.753438 0.741579
O 5.4834 6.12971 3.70873 0.099518 0.485479 1.133992
O 4.23058 2.09955 2.57317 1.051957 0.844044 -0.242061
O 4.94992 5.47058 9.3368 -0.777211 0.215652 -0.226663
O 12.2746 2.88222 4.48877 -0.315933 -0.468414 0.413291
O 5.26225 6.78772 1.36978 0.002517 -0.29832 0.327338
O 10.6672 7.20256 12.3776 1.612577 1.129573 -0.342959
O 9.64462 2.45821 4.85266 1.044047 0.558441 -1.170918
O 7.2454 3.20741 3.79686 1.473392 -1.026732 0.768354
O 5.74303 3.04061 10.3006 1.527605 -0.31973 -1.718557
O 2.97974 9.28432 10.533 -0.364552 -0.210578 -0.050173
Cl 6.21153 12.3265 3.4696 0.050879 -0.066736 -0.046706
Cl 1.66506 5.82875 4.09293 -0.390593 0.184889 -0.055261
