184
energy=-997.94946674 config_type=nep2xyz pbc="T T T" virial="-9.305750871819768 -4.151281538291776 -3.7903481358064326 -4.151281538291776 -15.836455817963154 -3.815612283959297 -3.7903481358064326 -3.815612283959297 -10.304702191906468" Lattice="12.4 0.0 0.0 0.0 12.4 0.0 0.0 0.0 12.4" volume=1906.6240000000003 Properties=species:S:1:pos:R:3:force:R:3
H 9.36927 1.35529 12.1332 0.153202 1.348404 0.251885
H 8.586 0.036 12.1014 0.415188 0.136401 -0.16197
H 0.7821 8.50992 4.3601 0.245723 -0.264653 0.377116
H 4.95385 0.66003 9.27167 -0.797543 0.728945 -0.20328
H 6.16037 11.8792 0.40052 -1.373597 0.431758 0.530161
H 6.70866 12.3793 11.2582 -0.289448 -0.868809 1.37225
H 8.26264 11.5875 3.53766 -0.909902 -1.182296 -0.74099
H 8.62689 10.6557 2.36512 -0.382934 -0.633122 0.279322
H 0.91167 0.8243 11.2112 0.545773 -0.987421 -0.682599
H 0.38993 1.15733 0.25922 0.198263 -0.054054 -0.26353
H 9.21049 1.40057 3.57843 -1.586561 -0.762067 0.9445
H 4.04196 0.49536 6.97416 -0.108539 -0.518843 -0.037502
H 4.50069 11.644 6.09961 0.132352 -0.295743 0.286775
H 8.96676 0.75247 4.99705 0.253274 0.084038 0.385421
H 10.5435 5.47288 10.5003 -0.536083 0.493634 -0.740813
H 9.93988 6.28973 11.7226 -0.727954 1.309851 0.031035
H 1.38 5.40339 0.02583 -0.025105 -0.294332 0.791983
H 1.38719 12.1124 9.07393 0.478457 0.207452 0.71889
H 2.61956 0.2558 9.86081 0.314194 -0.23841 -0.231498
H 2.89306 3.02259 3.02155 -0.5676 -0.685137 1.282624
H 10.4452 3.27814 3.15449 0.126919 0.300743 0.317459
H 10.1039 2.69273 1.75291 -0.459795 0.817882 -3.090673
H 11.4006 0.9595 9.16609 -1.132371 -0.166822 0.468945
H 10.2764 0.64199 10.3374 0.16749 0.298687 -1.404771
H 3.40784 4.4738 2.40501 -0.164708 -1.696502 -0.103847
H 9.79061 4.09921 12.0771 -1.349041 -1.077316 0.45528
H 8.37073 3.57953 0.39498 0.960093 0.165267 -0.445462
H 3.17361 3.93629 10.979 1.212542 -1.288688 -1.050249
H 4.64782 3.90061 10.2678 0.793622 0.22095 0.43035
H 2.5985 9.65818 3.50169 1.192519 -0.283408 -0.349665
H 1.46311 10.4924 4.02517 -0.885938 0.977572 -0.085442
H 0.0938 7.1903 3.87117 0.005942 0.123764 0.709705
H 6.18995 5.1645 3.64232 -0.307038 -0.438495 0.514411
H 7.00332 10.0966 0.087 -0.357059 -1.615397 0.494072
H 8.79487 7.10843 5.5493 -0.300095 0.392364 -0.024311
H 7.4068 8.68706 0.81182 0.461512 0.267086 0.1792
H 7.66898 8.20862 5.5109 1.055742 -0.398704 0.583133
H 11.8527 1.3318 2.6059 -0.739186 0.555363 0.169689
H 11.8446 10.9905 4.92177 -0.207241 -0.279609 -1.961291
H 5.70166 1.91507 3.0296 -0.086089 0.25029 0.177381
H 11.5824 9.70603 2.89537 -0.642223 -1.565484 -1.125244
H 0.96696 1.21012 2.94831 -0.80964 -0.718705 -0.403266
H 11.612 10.2507 6.23381 0.182683 -0.468293 0.045895
H 2.04427 4.25951 7.77745 0.110092 0.169739 0.502935
H 11.5446 5.06709 3.4678 0.542349 0.462097 -0.119003
H 2.65695 9.22882 7.50995 -0.021119 -0.182823 -0.079091
H 6.09601 11.4882 2.24436 0.306441 0.112692 0.317698
H 5.57691 1.17342 5.36226 0.508969 1.123203 -1.332006
H 2.91552 4.49171 9.22543 0.270361 -0.614878 -1.154212
H 5.07788 0.27792 1.89511 0.395331 -0.582208 0.152386
H 6.93272 1.58234 4.59571 1.464855 -0.531319 -0.126292
H 11.5939 4.23682 4.90332 -0.46464 0.477966 -1.226613
H 5.80281 3.28174 5.35742 0.159416 -0.644377 -0.153034
H 8.88837 2.85102 9.02431 2.237809 -0.84927 -0.009181
H 6.73284 4.2989 6.0974 0.570174 0.13046 0.306031
H 7.79823 3.74616 8.62996 -0.192053 -0.178467 -0.231403
H 2.63152 6.18064 1.66519 0.834718 -0.103956 2.623143
H 3.28089 6.15238 3.40523 -1.351911 0.575094 -0.585402
H 4.44046 7.74071 7.58243 -0.338735 1.389016 0.511704
H 4.39146 8.87751 8.78212 -0.221291 -0.323575 -0.950895
H 7.45601 6.01391 3.47939 0.189066 -0.058236 -0.136674
H 7.15179 9.50546 4.04365 1.725071 1.361052 -1.920966
H 9.76542 9.19657 9.29354 -0.120192 0.040696 0.337757
H 6.29811 9.44681 5.23876 -0.588211 -0.274531 0.278203
H 10.5146 9.97466 10.462 -0.309234 0.44404 0.933448
H 10.3024 8.03 6.85942 -1.408753 -0.12498 -0.148314
H 11.6108 7.94244 6.00834 -0.106024 0.414073 0.95401
H 2.89753 1.28487 4.82393 0.047454 -0.166338 -0.038259
H 1.76511 2.34721 4.89168 0.046438 -0.125987 0.098987
H 3.82423 6.85005 5.82943 -0.98846 0.464217 -1.0322
H 2.43424 7.45431 5.26058 0.4635 -0.218176 -0.288669
H 1.82825 9.64378 6.2677 -0.246996 -0.36216 1.106988
H 11.036 6.74369 2.16547 -0.986497 0.925938 -0.608045
H 0.1757 6.43417 1.85402 -1.259883 -0.727818 0.374553
H 7.58819 7.95209 9.26665 1.277579 1.025096 -0.677728
H 4.66587 2.71516 2.15171 -0.310485 -0.204132 0.096147
H 10.5423 11.7615 6.71343 -0.679614 0.755335 -0.196434
H 10.1595 0.0016 8.10126 -0.868214 0.263552 -0.666067
H 6.23982 10.6573 6.97857 -0.098892 0.233341 -1.133547
H 5.07459 9.70805 6.95578 -1.256367 -1.147007 0.413035
H 2.54387 3.64071 0.77361 1.36776 -0.454571 2.750805
H 4.00979 1.92936 8.9466 0.1009 -1.117907 0.507976
H 4.91858 5.44838 6.6734 -0.016265 -0.238674 0.442925
H 6.35511 4.25806 11.8095 -0.040582 0.333484 2.512006
H 7.11308 3.79536 10.5832 -0.65709 0.082342 -0.177962
H 8.97193 4.09528 6.53612 -0.903936 0.983012 0.953091
H 11.3194 6.17051 8.85134 0.127018 -0.494459 -0.342058
H 8.72003 5.64173 7.07052 -0.543181 -1.464705 -0.100725
H 10.9388 2.71191 6.45926 -1.108759 -0.55013 -0.524499
H 1.84149 9.00587 12.0232 0.088913 -0.298715 1.079883
H 3.1578 8.54437 11.7197 1.028217 -0.69092 0.280661
H 0.43969 12.021 6.90512 0.007127 1.628389 1.489314
H 3.70624 5.79913 7.68576 -0.210269 -0.944518 0.02289
H 1.53442 6.94342 0.27833 0.746125 1.670524 -0.744373
H 6.97184 7.11712 11.1986 -0.284309 -1.009867 -1.196163
H 6.5071 5.77772 10.3807 0.08302 -0.487312 0.580298
H 10.6327 10.0001 0.43189 -0.129471 -0.157859 0.241315
H 5.23709 8.90412 11.3831 -0.334654 -0.630791 -1.343628
H 10.533 11.5397 12.3923 0.572662 -0.944716 -0.326198
H 10.6422 4.82985 8.47506 0.717748 -1.923732 -0.953234
H 0.83379 6.48927 10.216 0.035916 -0.099451 0.814509
H 0.05489 10.1965 11.4141 -0.321984 0.320724 0.378225
H 1.43983 10.6043 10.7473 -0.464152 0.032716 -0.070007
H 1.54238 6.06214 8.85236 -1.68622 0.123534 0.540264
H 4.2833 10.2353 2.34743 -1.060467 -1.071871 -0.255203
H 1.6342 2.8351 12.1978 0.168889 0.325069 -0.207796
H 0.66341 1.16104 7.26281 0.329223 1.983966 -1.001438
H 6.37328 3.31843 1.26122 -0.06948 0.662225 0.821355
H 6.76852 4.91351 1.72259 -0.48815 -1.134618 -0.373832
H 5.30825 7.83456 10.216 0.27311 -0.192996 0.429852
H 8.21567 8.15315 7.86235 0.235166 -0.044711 -0.588996
H 8.28207 11.6483 7.27619 0.077652 0.128029 0.050436
H 7.9119 10.3447 7.98584 -0.563666 0.138649 0.258558
H 9.7516 5.50641 4.1376 0.14438 -0.111691 0.012405
H 11.8016 11.2438 2.70125 0.387568 1.601023 -1.713914
H 9.44737 6.89631 3.43513 -0.061576 0.326658 -0.147471
H 3.2496 9.03558 1.82827 0.451192 0.400086 -0.697599
H 6.94253 12.3026 8.88593 0.438787 0.258852 0.081429
H 9.85728 1.6291 6.78145 0.070494 -0.351421 -0.105698
H 7.1211 1.45937 9.46575 -0.427472 -1.580358 -0.198242
O 9.49552 0.42351 11.9558 -0.628578 -1.185281 0.016029
O 4.02314 0.9371 8.99852 0.763231 0.630722 -0.271402
O 6.86311 11.9128 12.1599 2.050812 0.282847 -2.53578
O 7.92407 10.7462 3.03586 0.796401 2.328578 0.582818
O 0.6826 1.53183 11.8059 -0.627905 0.876321 1.187575
O 8.51455 0.84501 4.15291 1.427334 0.800434 -1.418494
O 4.0405 0.10796 6.0749 0.054874 1.271453 -0.232664
O 10.3991 5.52014 11.4545 1.129841 -1.785167 0.980966
O 1.29577 6.12741 0.69394 0.080708 -1.085598 0.142515
O 1.85208 12.0574 9.96799 -0.846311 0.15652 -0.517661
O 6.5731 5.82753 3.06468 0.213791 0.611847 0.04236
O 3.32095 3.4249 2.27513 0.667427 2.958069 -0.929619
O 10.1273 2.50419 2.65213 0.227084 -1.57748 2.906613
O 10.4235 0.87831 9.35839 1.188016 0.02501 1.284276
O 9.23186 3.27973 12.38464 0.317918 0.755855 0.153593
O 0.41803 7.64846 4.69264 -0.360463 -0.012348 -0.754408
O 3.72094 3.67995 10.1243 -1.992779 0.529735 1.697639
O 1.96942 9.72351 4.23458 -0.984896 -0.24301 1.44501
O 6.69981 9.15534 0.35444 -0.142255 1.377764 -0.899992
O 8.40243 7.80753 6.12724 -0.264783 -0.291506 -0.1868
O 0.2142 0.77349 2.45145 1.368382 0.15964 0.179672
O 11.7176 10.5355 3.29385 0.264328 0.325169 2.695796
O 11.8789 11.1079 5.85892 -0.078221 -0.049711 2.08147
O 5.45104 2.10536 2.1055 0.519225 -0.68593 -0.445755
O 5.25505 11.696 1.80713 -0.534812 0.378141 0.073996
O 2.55309 4.88382 8.34883 -0.712633 0.991773 -0.087469
O 11.0454 4.53067 4.11144 0.161406 -1.355592 1.644809
O 7.98397 2.97236 9.20278 -1.934757 0.819104 0.09323
O 5.83597 4.15081 5.78477 -0.746372 1.592274 0.09487
O 3.37971 6.10967 2.42485 0.119008 -0.525213 -1.587068
O 4.18507 8.7195 7.81275 0.844055 -1.413421 1.195244
O 6.72182 8.85079 4.55206 -1.723059 -0.95611 1.302739
O 10.6199 9.54377 9.6241 0.402774 -0.591993 -1.207319
O 11.2067 8.30144 6.8632 1.859954 0.107931 -0.890078
O 3.3506 7.20572 4.99715 0.65402 -0.626903 1.055618
O 2.33094 1.8481 4.26465 -0.245949 0.171015 -0.005174
O 1.72845 9.35321 7.21779 -0.113933 0.514782 -1.115409
O 6.03368 1.86314 4.74756 -2.114236 -1.504151 1.238528
O 11.8033 6.29283 2.49542 2.384905 -0.229756 -0.120878
O 9.81227 12.2965 7.1458 0.797419 -0.929529 0.359846
O 5.51522 10.3116 6.35431 1.244281 1.092668 -0.202517
O 4.53717 6.12662 7.28191 0.553687 0.933412 -0.759059
O 6.26563 4.22257 10.871 0.59273 -0.457125 -2.696692
O 8.3236 4.72288 7.01987 1.372956 -0.030567 -0.790111
O 10.4705 5.68113 8.79782 -0.463022 2.243488 0.945143
O 6.82266 6.70216 10.3018 0.252153 2.014587 0.753843
O 2.58328 8.46147 0.1031 -1.322162 0.940816 -1.300015
O 0.55142 0.32622 7.6626 -0.420537 -3.610732 -0.113959
O 4.75347 8.55572 10.5666 0.181083 0.80031 1.071629
O 11.0505 10.675 12.2781 -0.634608 0.970798 0.096696
O 0.86833 9.83988 11.0277 1.014479 -0.436121 -0.49492
O 0.68311 6.51343 9.2786 1.380989 -0.078147 -1.335563
O 2.13767 3.68668 12.3453 -1.680357 0.353844 -3.355201
O 6.67461 4.22253 0.98496 0.648253 0.160742 -0.202289
O 8.21023 8.57663 8.74099 -1.385072 -0.927775 0.879663
O 7.48783 11.1739 7.65139 0.934211 -0.328293 0.506947
O 9.07882 6.21501 4.02406 -0.577056 -0.144121 0.436257
O 3.73658 9.4093 2.58762 1.342978 0.765062 -0.492343
O 6.70179 0.53723 9.60079 0.042198 1.244277 0.289563
O 10.0059 2.40578 6.20987 0.98608 1.245325 0.52739
Na 0.16683 8.74741 8.79765 -0.032664 0.14366 -0.273785
Na 5.0349 7.72369 3.40269 0.042995 -0.087691 -0.032659
Cl 0.57969 3.24188 6.52107 -0.027112 0.214558 -0.118986
Cl 9.62206 8.38766 2.04684 0.150509 0.081942 -0.651507
184
energy=-998.9897629 config_type=nep2xyz pbc="T T T" virial="-10.468175391706705 6.214302133572326 -3.3439712176651466 6.214302133572326 -25.02465640459498 -0.5800995902061661 -3.3439712176651466 -0.5800995902061661 -24.30046905846094" Lattice="12.4 0.0 0.0 0.0 12.4 0.0 0.0 0.0 12.4" volume=1906.6240000000003 Properties=species:S:1:pos:R:3:force:R:3
H 1.51814 6.75352 10.4649 0.008066 -0.678024 0.441536
H 3.26618 12.1271 5.3888 -0.233384 -0.899825 -0.228306
H 4.95535 10.6031 2.18945 -0.414331 1.098325 0.930904
H 0.38111 1.92353 2.92437 -0.259691 -0.633934 0.82151
H 2.53281 5.26877 1.75613 -0.386534 -0.894267 0.078757
H 2.83376 4.68435 0.26471 -0.18503 0.207441 0.510835
H 9.96295 2.84309 5.02185 -1.180961 0.22261 -0.564774
H 11.4077 2.50465 5.20174 1.008015 -0.895332 0.17004
H 1.04174 5.35545 11.0542 0.317364 -0.584415 -0.495254
H 8.23262 5.50376 10.8351 -1.100845 0.201453 0.09432
H 10.8678 2.42968 3.20989 -0.627306 0.516858 -1.112157
H 7.6412 5.74338 3.68508 -0.250473 0.083108 -0.92627
H 9.23483 4.83476 11.8702 -0.410459 -0.116328 -1.191916
H 5.96639 5.49174 0.10612 -0.287516 -0.702397 0.565592
H 8.0975 10.4504 3.46975 -1.860408 -1.226817 1.166288
H 0.24054 9.1882 1.29498 -0.696322 -0.410106 0.000426
H 8.66046 11.1459 2.27083 1.113234 -0.367766 0.094983
H 2.91481 6.37997 6.15105 0.414254 0.426665 -0.054715
H 4.81955 5.10199 1.13221 0.010956 -0.210574 -0.541971
H 6.99653 9.64145 11.8484 0.025064 -0.096796 0.217264
H 8.26258 8.96191 0.0894 0.144741 -0.037038 -0.180935
H 2.8499 12.2791 11.5994 -0.000796 -0.084407 -1.836943
H 6.75874 6.71937 9.98858 0.10309 0.290751 0.922537
H 6.7555 5.07185 2.4215 -0.302459 0.400833 -0.22953
H 8.72879 7.23185 5.21835 0.140081 -0.245585 -0.593533
H 1.85233 10.4981 0.47288 0.154773 0.752024 -0.017623
H 3.34608 0.34261 10.1309 1.321625 1.675582 -0.79357
H 0.0627 2.16438 1.38084 0.141682 -0.46681 -0.09244
H 10.3337 10.1286 3.89969 -0.031786 0.624891 -0.08266
H 11.5382 9.08356 2.49527 0.498082 -0.471446 -0.482952
H 0.53543 11.139 6.26649 0.041775 -0.191264 0.18865
H 6.09427 8.91115 1.11575 0.386395 -0.209426 -0.372641
H 4.62272 8.42877 1.28965 -0.461952 -0.138672 -0.387249
H 5.97063 0.45362 2.49633 0.725545 0.146549 0.279479
H 6.43211 1.67191 1.73539 0.496039 0.183697 -0.340409
H 4.34744 8.47922 6.13811 0.279604 1.375933 -0.648402
H 2.99396 10.6778 10.0079 0.206907 -0.46114 -0.811274
H 11.8168 9.84075 4.54739 0.657628 1.326727 0.675787
H 9.64717 2.75875 2.05425 1.594887 0.155131 1.051309
H 11.3051 11.2654 10.5206 0.6892 0.629394 0.990439
H 3.61959 10.4844 5.30032 -0.33895 1.485416 -0.280672
H 4.8297 1.41082 5.29663 0.910549 0.57773 -0.531065
H 6.22903 1.85529 4.40044 -1.505805 -0.915748 1.335018
H 11.212 4.60826 5.71845 -0.355454 -0.034937 -0.145618
H 6.30814 8.99793 3.19734 0.061004 -0.02401 1.13697
H 0.12066 5.36579 5.8856 0.379455 0.261279 0.030098
H 0.74221 5.10438 2.41792 -0.658653 0.422705 -0.27025
H 7.67281 3.1668 5.3381 0.213928 0.358181 -1.141776
H 7.22842 8.4685 4.4877 -1.077554 0.435499 -1.050127
H 12.0485 10.7429 11.7871 0.100672 1.7243 -0.762833
H 1.2924 3.66464 2.46118 0.220909 0.681577 0.579007
H 10.1472 12.0891 6.30756 0.804845 -0.446283 0.484128
H 10.8181 6.7685 5.5225 -0.377166 1.092925 0.35114
H 11.4563 6.67996 10.2339 1.102038 -0.180365 0.189862
H 3.43358 6.94794 7.49603 -0.116611 0.04132 0.866718
H 5.25927 6.41042 6.75579 -2.115936 0.111386 -0.715146
H 6.44108 2.8164 6.75275 -0.655602 -0.729265 -0.179362
H 6.44055 6.81361 7.57861 0.690447 -0.134598 0.145594
H 6.60848 4.36121 6.9979 1.179729 -1.492886 0.393334
H 10.5248 8.3432 5.00337 0.347782 -0.081324 -0.2832
H 7.90787 3.41928 3.70214 -0.027712 0.469584 0.776678
H 11.9619 0.92585 11.6994 -0.435799 0.209012 0.820061
H 11.9327 2.24237 8.89263 0.622578 -1.443197 0.317031
H 12.39015 1.08477 9.86541 -0.219788 -0.42643 1.121385
H 3.54315 12.0809 1.62917 -0.334621 0.08413 -0.923558
H 5.33734 9.2994 5.10929 0.183087 -0.164989 0.320669
H 2.20628 0.42054 1.71802 -0.364871 0.276519 -0.596307
H 9.95731 6.18302 10.3955 0.78653 0.802332 -0.242863
H 0.9912 12.1853 8.12271 0.24098 -0.326752 0.439717
H 4.52314 2.38162 9.61872 -0.832271 -0.724876 -0.788579
H 10.3346 10.0362 8.36882 -0.152317 -0.344272 0.159457
H 11.58 11.1398 8.47284 -2.410452 -0.925753 0.294148
H 5.33116 9.70209 7.41586 0.430169 0.278401 0.45244
H 4.77482 9.80055 8.83745 -1.246167 -0.085009 0.837503
H 2.94421 9.08338 9.98976 0.375246 1.307514 -1.538407
H 9.81269 8.10065 7.3369 0.748244 -0.556655 -2.304357
H 9.90542 7.72433 8.82637 0.215492 0.999647 -0.143288
H 8.08459 7.99713 8.32875 -1.229125 -0.040576 0.722845
H 6.56865 8.585 8.66337 0.454877 -0.628628 -0.071826
H 8.02211 0.44666 9.19918 -1.668349 -0.721749 -0.124201
H 9.51341 0.10479 8.9613 -0.486031 0.314711 0.052559
H 6.05926 11.4883 8.82207 0.588672 -0.340542 0.359163
H 11.9476 6.72027 1.55077 -0.035106 0.779245 0.090496
H 3.76683 1.74924 8.3137 -0.019178 0.120869 -0.120945
H 1.64619 4.77752 4.54366 0.329028 0.279601 0.282307
H 5.57224 0.49943 9.15248 0.549849 0.052418 0.408927
H 6.1774 2.23379 11.4138 -0.028341 -0.500994 -0.06465
H 6.06955 3.31184 0.05228 0.443849 0.210989 0.371965
H 9.66229 11.0386 0.02786 -0.434223 0.517493 0.708659
H 8.3481 2.1445 11.8892 -0.312588 0.135702 -0.064153
H 8.99122 1.18299 10.7664 0.278667 0.911216 0.736349
H 9.08579 0.07234 0.37131 0.304581 1.868097 -0.861626
H 8.83061 4.88585 1.76468 0.157693 -0.297331 -0.436947
H 10.2929 5.08929 1.32886 1.039203 0.179964 -0.142621
H 2.24786 4.07093 5.78705 -0.256652 0.378994 0.07431
H 0.97087 1.44908 5.19547 -0.362092 0.38854 -0.417042
H 7.40952 11.5405 12.0129 -1.799279 -0.365107 -0.616991
H 0.02481 0.3625 4.77454 -0.300977 -0.914377 -0.105221
H 6.42825 11.7978 10.6948 0.072075 -0.940039 1.46877
H 1.46816 10.6335 8.32962 0.699189 0.062831 0.536762
H 4.07842 4.52102 10.0215 -0.166575 0.323612 0.18843
H 4.06182 11.4659 3.33932 1.19897 -0.483673 -0.576212
H 6.51374 12.0408 5.33196 0.755175 -0.491328 0.484004
H 7.10346 7.0948 11.5226 -0.538417 -0.333363 -1.070966
H 7.02443 10.5501 5.37011 -0.352865 -0.97731 -0.548644
H 7.25665 6.78583 5.65209 0.407404 -0.057901 -1.48665
H 10.7063 1.8268 12.1606 1.447302 -0.08422 -0.692749
H 1.96182 8.98792 0.09722 -1.198163 1.89294 -0.719565
H 10.322 8.44517 11.3596 -0.131084 -0.056197 -0.163124
H 10.6567 8.81516 0.4429 -0.127784 0.378545 -0.517185
H 1.42805 10.99 5.00955 -0.132278 0.251367 0.104051
H 5.52035 4.07367 10.0525 0.018694 0.239593 0.289456
H 0.18832 5.94363 0.37199 -0.985893 -0.067207 1.373054
H 3.72918 7.75649 11.639 0.237284 -0.484993 -0.774682
H 0.45331 3.07224 11.6439 -0.644757 -0.156181 0.880879
H 3.22108 7.0214 0.50722 -0.18516 -0.657448 -0.336917
H 1.15216 3.00664 10.3835 0.640062 1.235375 0.956124
H 8.64551 12.1272 6.01407 0.077996 -0.164607 -0.323528
H 11.1106 4.1171 8.02191 -1.015416 -0.432012 1.602232
H 10.2955 3.89333 9.43963 -0.850648 1.71572 1.938586
O 0.84765 6.30391 11.0255 -0.693768 0.828432 0.041217
O 3.12782 11.2946 4.86292 0.754344 -0.590542 0.511418
O 0.76288 2.10481 2.06543 0.491624 0.705736 -0.800706
O 3.10532 5.30825 0.96471 0.723305 0.613833 -0.614027
O 10.7125 3.05564 5.57623 -0.161018 0.386946 0.718117
O 9.01615 4.93475 10.874 1.730582 -0.41068 1.065313
O 7.6239 5.26234 2.80245 0.683819 -0.500795 0.886597
O 10.008 2.21097 2.80934 -0.541341 -0.660954 -0.501172
O 11.8852 8.64647 1.65403 0.104355 0.491263 0.383969
O 4.65468 3.83142 10.4174 0.540049 -0.71591 -0.463595
O 8.8908 10.8556 3.19706 0.928999 1.428645 -1.37382
O 5.72804 4.85652 0.83705 0.290806 0.726757 -0.26654
O 7.29935 8.84402 12.3715 -0.158698 0.078414 -0.299672
O 2.81257 12.1288 10.5885 -1.417248 -1.466631 2.897846
O 7.83335 6.98577 4.8095 -0.565335 0.198022 2.28826
O 3.13528 9.86639 9.37324 -0.799939 -0.676562 2.129663
O 0.48108 11.0573 5.29209 0.067174 -0.105885 -0.18053
O 5.36541 8.82146 1.76659 0.28391 0.782297 0.752387
O 6.70525 1.13749 2.49839 -1.2122 -0.570041 -0.094284
O 11.0794 9.52043 4.03515 -0.771154 -1.355667 -0.944777
O 5.82026 1.45459 5.24941 0.338912 0.292615 -0.615055
O 11.5564 5.50188 5.9404 0.24841 -0.463062 0.220049
O 4.30801 1.52462 9.0893 0.510639 0.733327 0.777465
O 6.62767 9.24105 4.12619 0.767943 -0.983653 -0.424718
O 1.44618 4.59738 2.85288 0.134063 -1.178148 -0.103448
O 10.5583 6.9767 10.0923 -1.785114 -0.810069 0.362538
O 3.52292 7.06631 6.54143 -0.2967 -0.598594 -0.62579
O 6.17704 6.21603 6.80926 1.745453 -0.496487 0.380638
O 7.07748 3.43706 7.1115 -0.512538 2.208616 -0.432288
O 8.10766 2.87111 4.48936 -0.302496 -0.272217 0.970282
O 10.2615 7.63053 5.62143 -0.374619 -1.010609 0.388705
O 0.09329 1.39953 8.98279 -0.423686 1.729957 -1.442672
O 2.74609 12.3386 1.06869 0.505003 -0.387319 0.906554
O 4.74972 9.40434 5.91268 -1.050267 -1.381353 0.121303
O 10.5445 10.9396 8.66539 2.609716 1.628059 -0.218076
O 5.61485 9.84345 8.37221 0.733939 0.222401 -1.212869
O 11.8324 11.6126 11.3103 -0.890737 -2.21713 -0.645901
O 9.57158 8.44008 8.17919 -0.357123 -0.422758 2.033585
O 7.12493 7.73156 8.64011 0.435924 0.694235 -0.4281
O 8.87237 0.86104 9.10765 2.034342 -0.42506 -0.041166
O 6.33799 12.2728 9.37047 -1.044439 0.598956 -1.750383
O 4.77977 11.5157 2.61895 -0.624726 -0.875714 0.011524
O 9.13282 1.61547 11.6683 0.023928 -0.797733 -0.28942
O 6.60222 2.5075 12.2319 -0.441036 0.339345 0.044597
O 9.10443 11.5764 0.651 0.029764 -2.310183 -0.001131
O 9.53874 4.52676 1.14167 -1.146364 -0.039972 0.37417
O 6.50068 11.302 11.6167 1.858871 0.633445 0.253888
O 0.14954 1.3084 4.63299 0.509872 0.827194 0.279024
O 1.87458 4.93988 5.50387 0.000585 -0.47822 -0.320177
O 6.79777 6.34795 10.9221 0.445318 0.651633 0.511636
O 7.2728 11.4391 5.57785 -0.943133 1.980236 0.247738
O 1.36737 9.85128 12.3447 1.295102 -2.647237 0.929635
O 11.7297 1.81758 12.0693 -0.981487 -0.077909 0.227942
O 10.1096 9.09873 12.052 0.21402 -0.260665 0.698274
O 12.0714 5.81079 1.2458 0.944245 -0.065467 -1.529078
O 0.77653 11.235 8.03635 -0.905017 0.528386 -0.80039
O 3.34334 7.8996 0.10331 -0.207653 0.849492 1.118437
O 1.1686 3.57113 11.2203 0.175297 -0.903734 -1.858258
O 9.50032 0.19447 5.83461 -0.598558 0.913613 0.082859
O 10.6577 3.50504 8.68045 1.887373 -0.870155 -3.490488
Na 8.56009 0.7457 3.75392 0.227545 -0.209363 0.055108
Na 9.21969 2.28551 7.47993 -0.018711 0.070111 -0.387138
Cl 2.59576 1.88782 6.26902 0.519322 -0.213042 0.021555
Cl 3.62853 6.49635 9.65751 -0.185751 0.387807 -0.298789
184
energy=-998.80162008 config_type=nep2xyz pbc="T T T" virial="-11.617830985089626 -1.739334853519873 2.9381264185105094 -1.739334853519873 -13.723240132287511 -0.5516223850578831 2.9381264185105094 -0.5516223850578831 -17.107969572950097" Lattice="12.4 0.0 0.0 0.0 12.4 0.0 0.0 0.0 12.4" volume=1906.6240000000003 Properties=species:S:1:pos:R:3:force:R:3
H 0.81902 0.7831 1.38913 -0.47003 0.166921 -1.233342
H 6.8142 2.65535 1.55922 0.510118 -0.683816 0.017793
H 3.35253 11.2472 0.27894 0.072964 0.12778 0.283531
H 3.43705 11.0857 11.1666 -0.06999 -0.017613 -0.476721
H 1.37823 1.34149 2.72619 0.162926 -0.292402 0.120974
H 3.5479 2.71947 0.11922 -0.00615 0.063036 0.264274
H 2.81503 2.60055 2.45962 -0.267292 0.855882 0.97276
H 1.73661 3.44201 3.37864 0.411034 -0.20353 -0.36534
H 5.69646 3.23044 5.94299 0.787262 -0.806612 -0.342012
H 5.41311 2.42101 1.11429 -0.640657 -0.728765 -0.145632
H 8.21902 10.4481 4.91001 -0.397801 1.282286 0.724492
H 7.56704 11.7783 4.41825 -0.383114 0.578706 -1.161802
H 7.10271 3.32871 3.9044 -0.064917 -0.119274 -0.290542
H 8.45341 3.95493 3.69396 0.547523 -0.008212 -0.420978
H 11.9154 1.72638 12.1022 0.64624 -1.00804 0.33483
H 9.78657 6.94249 0.88126 -0.363205 -1.559036 -0.003202
H 9.82602 8.31502 0.60797 0.260443 -0.242024 -1.705581
H 6.24135 1.85765 5.24219 0.050046 0.816123 0.259828
H 0.32609 0.47136 11.6028 0.004712 -0.826571 -0.908047
H 1.42818 5.7174 3.18986 0.26929 -0.143271 -0.121058
H 2.52929 5.77717 2.02796 -1.390037 0.683433 0.594627
H 0.35919 5.61466 4.93049 -0.362544 2.622333 1.271455
H 1.38907 5.01685 9.39199 -0.305647 0.56267 1.206838
H 3.97562 3.92988 0.92722 -0.19447 1.103846 0.010807
H 5.96622 5.99273 4.59975 -0.616514 0.774431 1.449226
H 5.36877 5.56759 6.00422 -0.345842 0.565288 -0.313089
H 3.85907 6.38435 0.46226 -0.165578 -0.163178 -0.296788
H 5.12286 5.58434 0.80316 -0.231719 -0.162127 0.433927
H 3.87143 3.76565 6.79753 -1.537217 -0.108677 -0.640062
H 10.5238 4.67044 2.66687 -0.188099 0.338661 0.165801
H 10.7687 4.74705 1.13499 -0.091319 -0.965386 -0.964703
H 2.09668 11.6377 2.13651 0.327297 -1.309548 -0.2545
H 7.84775 9.96766 0.33144 0.571051 0.365389 0.022635
H 12.07547 9.83295 10.6052 1.167239 -0.669436 -0.506474
H 11.8711 8.80455 9.44676 0.832488 0.25497 0.631204
H 4.70218 9.33346 3.35739 -0.434098 -0.845231 1.120391
H 11.7467 9.1597 4.83291 1.312705 -1.570041 1.961633
H 7.89052 9.11673 1.5887 -0.664903 -1.338224 1.156328
H 7.77374 7.74104 3.48505 -0.414854 -0.175784 -0.920865
H 3.28055 10.4427 2.29896 -0.729634 0.189963 -0.457483
H 7.46938 11.4972 1.96064 -0.01768 -0.531155 0.630469
H 11.7102 9.28718 3.30595 0.51942 -0.213812 -0.903637
H 6.87661 11.0115 6.4056 -1.215539 -0.785352 0.791067
H 5.48356 11.218 7.14613 -0.982422 1.125926 0.333074
H 9.89248 4.5923 5.19504 0.3273 -0.282045 -0.585426
H 11.9895 1.17713 7.48822 1.683349 -0.106559 -0.40315
H 11.3342 4.32408 4.47883 0.46947 0.280194 0.405871
H 1.23468 2.8466 7.01468 0.122727 0.022765 0.286934
H 1.53259 4.33906 7.46905 -0.59605 1.962508 1.590721
H 3.09195 1.81678 4.89072 1.251363 -1.010077 -0.113232
H 4.04378 1.1504 6.04528 -0.654996 -0.642402 -1.393483
H 8.27284 5.46957 6.46134 -0.037398 1.45263 0.706326
H 8.98226 12.0054 6.33903 -0.698021 -0.211409 -0.756252
H 0.73933 0.50262 6.62791 0.504574 -1.080621 -1.389787
H 10.1442 0.48177 1.37064 0.209051 -0.856249 0.223255
H 9.31326 0.83493 7.30372 -0.169766 0.059724 -0.189568
H 9.68621 11.4707 1.8167 -2.395926 -1.535971 0.421256
H 1.02433 4.26523 5.36486 -0.538349 0.76797 -0.55483
H 1.39934 6.68855 8.03095 -0.369547 0.21986 -0.35318
H 0.15205 4.24139 10.0414 0.329587 0.155081 0.063818
H 4.90402 7.87219 5.19024 -0.445151 1.371232 0.089913
H 6.71744 9.22799 9.7437 0.453202 -0.530794 -0.716075
H 5.3238 9.28058 5.73726 0.116625 0.458611 0.206625
H 5.14039 7.8608 8.95627 -0.406655 -0.271633 0.020667
H 4.9326 3.99246 7.80559 0.628175 0.39814 -0.505059
H 7.7375 7.76664 7.68447 0.302442 -0.761647 -0.193466
H 6.94752 7.06413 6.60582 -0.940329 -0.364826 -0.648873
H 8.36619 8.22664 5.70798 0.91248 -0.023869 -0.536032
H 9.55149 8.73182 4.67877 2.36861 -0.004388 0.019528
H 5.42685 10.2754 2.55389 0.98209 1.057429 -0.550752
H 6.47276 9.39338 8.22005 -0.107249 0.48053 -0.27588
H 6.86598 0.46053 2.1912 -0.458398 0.396669 0.313236
H 8.18924 4.79439 10.3752 1.780186 0.988341 -0.87332
H 8.06687 3.49512 11.3106 0.460693 0.420598 -0.553325
H 3.12026 9.19512 6.09177 -1.032596 0.213887 0.247816
H 11.1038 7.90282 7.8411 0.152766 0.000511 -0.649687
H 1.63727 8.71641 6.49655 0.490998 0.659637 -0.163975
H 10.2209 7.51533 9.0476 0.016429 -0.235626 0.096511
H 1.60296 11.1324 5.58138 0.296595 -0.998736 0.42824
H 2.64776 2.03974 10.3715 0.259485 0.220315 0.013629
H 6.6648 1.18483 9.83994 -0.352167 0.708473 -0.948232
H 10.7502 2.96525 10.5044 0.069294 1.432886 -1.260245
H 2.23792 3.5554 10.4562 -0.254188 0.080684 0.500945
H 2.8845 6.73819 8.53048 -0.169923 -0.832679 -0.075697
H 5.33843 0.92275 8.0198 -0.772007 -0.52423 -0.242318
H 6.07313 2.49789 9.17263 -0.039424 0.429349 0.244565
H 8.51504 10.6168 10.3071 -0.24935 -0.25056 0.421163
H 4.41418 3.66795 9.96438 0.566908 -0.022075 -0.037398
H 7.2906 11.283 10.9348 -0.206126 -0.279114 0.459661
H 10.6755 2.92082 8.94196 -0.178466 1.099175 0.694324
H 2.32112 0.03293 5.15212 0.200857 0.142283 0.051013
H 8.30054 2.15751 8.50697 0.872683 0.629753 -0.699218
H 0.52369 6.32543 11.2338 0.797723 1.135052 0.630394
H 0.42733 7.92816 11.1986 0.16466 -0.385543 0.085974
H 2.43194 7.64209 11.8717 1.045883 0.526143 0.273225
H 3.94397 7.74966 9.93909 -0.010062 -0.041538 0.479941
H 3.66793 8.65719 12.3521 -0.535614 -0.255154 -0.014844
H 7.75916 4.12729 5.94889 0.112114 -0.59365 0.023082
H 7.31858 4.74077 1.73911 -0.146473 0.279568 -0.469046
H 5.92669 4.26488 10.0771 0.352387 0.095852 0.36304
H 10.6729 11.1486 10.9472 0.889424 -0.44248 0.109812
H 7.05056 4.93707 0.17399 0.502038 0.074368 -0.143701
H 10.2618 5.19877 9.87546 0.924873 -1.510654 -0.226805
H 9.05833 3.28024 7.5506 -0.19704 -1.540308 0.758918
H 10.9112 1.10382 5.52837 0.032444 -0.309627 -0.166216
H 10.676 2.18224 4.48793 0.613242 -0.752323 -0.200343
H 9.7733 6.3332 10.8151 0.001163 0.017757 -0.280676
H 5.34906 0.11797 11.4753 -0.744975 -0.26973 0.601614
H 1.68378 9.76244 9.258 -0.297188 0.270577 0.411986
H 2.17478 11.9569 9.14713 0.057866 0.062632 0.279426
H 2.86263 10.0425 8.30535 -0.567697 0.302883 0.398544
H 1.59904 0.9026 8.60458 -0.391204 0.134504 -0.458151
H 3.82261 0.39788 8.18919 0.059499 0.298798 -0.0047
H 6.54426 1.00377 12.1345 -0.887997 -0.629782 -0.617196
H 10.9326 11.5362 12.36629 0.195812 0.177091 1.21717
H 7.05427 6.87596 2.24165 0.323798 -0.308766 0.010109
H 9.74314 11.6094 8.56547 -0.123157 -1.331783 0.632681
H 12.0867 9.83355 0.66757 0.04598 0.358054 -0.33135
H 0.97858 9.65626 1.56264 1.08243 0.795248 0.004198
H 9.80213 10.0381 8.93059 0.396761 0.406057 -0.029869
O 3.89907 11.4956 11.9051 -0.181789 -0.181523 0.069509
O 6.27444 1.92836 1.19187 0.625128 1.069858 0.320752
O 2.3826 2.7119 3.3668 -0.127484 -0.212777 -0.73526
O 7.93986 11.3957 5.21296 0.767191 -2.321614 0.147113
O 7.7061 3.62366 3.17561 -0.463323 0.224974 0.44841
O 0.23134 1.06477 12.3291 -0.546813 1.942906 0.427678
O 10.0539 7.4648 0.11815 -0.339671 1.716769 1.763684
O 1.65412 6.159 2.35424 1.080898 -0.598558 -0.471135
O 3.90524 2.97049 1.00671 -0.465198 -1.356706 -0.427903
O 0.49898 4.74254 4.64245 1.439236 -3.317397 -0.39717
O 0.98099 4.74019 10.2735 -0.285651 -0.471558 -1.022573
O 5.61951 6.37214 5.46642 0.756064 -1.645117 -1.1183
O 4.14109 5.51038 0.83611 0.602155 0.888981 -0.033744
O 4.77871 4.05169 6.80867 0.575346 0.292953 1.438283
O 10.685 5.27274 1.91422 0.103217 0.847472 0.555271
O 2.39423 10.6967 1.87577 0.249452 0.941812 0.213899
O 0.20894 9.16683 10.0673 -1.780126 0.347603 0.126094
O 8.19826 9.9497 1.25536 0.348472 1.095595 -1.283834
O 11.358 9.61472 4.12723 -1.84621 2.140327 -1.363972
O 0.05957 9.40626 1.4443 -1.260855 -1.19444 0.640703
O 6.1603 10.5671 7.01223 1.998938 -0.544147 -1.263966
O 10.3667 4.31655 4.36453 -1.056528 -0.522562 0.165005
O 2.10072 6.1204 8.35792 0.564321 0.400649 -0.129456
O 0.56492 1.20747 7.25177 -2.35596 1.46197 1.6142
O 1.80073 3.64494 6.92263 0.778385 -2.086068 -2.222373
O 6.49264 2.78021 5.4661 -0.616278 -0.123456 -0.156565
O 3.71477 1.04581 5.0783 -0.531862 1.488792 1.375923
O 9.53066 12.3066 7.0669 1.346995 0.744041 1.160636
O 10.4389 11.9667 1.62318 2.017971 2.533348 -0.576263
O 6.64052 8.7034 8.89425 -0.013214 0.328312 0.80575
O 4.66151 8.8586 5.16755 0.159881 -1.491894 -0.084449
O 7.85369 7.15998 6.89675 0.368449 1.239914 1.045926
O 8.64005 8.67082 4.85266 -3.061785 0.193888 0.306776
O 4.66845 9.71267 2.48026 -0.254649 -0.182882 -0.354334
O 4.56982 0.45792 7.55081 0.85151 0.453489 0.483264
O 2.26298 9.48975 6.53641 0.752817 -0.734191 -0.546021
O 10.6486 8.28062 8.60898 -0.408636 -0.001208 0.20808
O 7.09724 12.052 2.68188 0.200313 -0.043536 -0.684433
O 1.07413 0.52227 2.27934 0.532821 0.283907 1.270773
O 2.94227 2.91802 10.7109 0.278575 -0.446578 -0.29581
O 6.63877 1.72335 8.97148 0.597005 -1.492885 0.690634
O 7.76101 10.4169 10.937 -0.164319 0.589297 -0.562565
O 10.9634 3.56032 9.66049 0.110534 -2.081517 0.846603
O 0.71339 7.16089 11.777 -0.380965 -0.898183 -0.828442
O 3.4364 7.81662 11.9219 -0.806035 -0.440296 -0.170226
O 8.55247 4.57906 6.28293 0.112638 -1.092722 -0.273702
O 5.272 3.8672 9.48929 -1.340051 -0.270008 -0.384383
O 4.27449 7.39149 9.10444 0.249123 0.295676 -0.205405
O 7.03432 5.38456 1.04031 -0.321741 -0.412556 0.622665
O 9.72647 5.97976 9.90382 -1.061481 1.693741 0.591841
O 9.18632 2.39693 8.04251 -1.067635 0.787096 -0.361614
O 11.1708 1.32844 4.61901 -0.925386 1.179252 0.379816
O 2.23862 0.55026 9.23285 0.648687 -0.128496 0.410887
O 2.43548 10.3757 9.13174 0.757741 -0.466552 -0.428259
O 7.61944 4.25474 10.8799 -2.300277 -1.244589 1.527338
O 6.25544 0.41754 11.3704 1.751674 0.735239 -0.157607
O 7.32513 7.72959 2.59542 0.377456 0.703197 0.735341
O 11.3649 11.037 11.6637 -1.06639 -0.014507 -1.552423
O 1.43331 12.038 5.32286 -0.611936 0.423143 -0.316785
O 9.806 10.9314 9.33819 -0.108692 0.548194 -0.83837
Na 12.0862 7.02852 1.49282 0.603138 0.175124 -0.372767
Na 11.9981 11.9654 3.53041 -0.143436 -0.372105 0.163437
Cl 9.83612 2.33704 12.1106 -0.047346 -0.028278 0.270608
Cl 12.3425 7.46221 6.04198 -0.018438 -0.19611 0.292333
184
energy=-996.81500211 config_type=nep2xyz pbc="T T T" virial="-9.64697752473321 -5.063670722879684 -2.0366616277070237 -5.063670722879684 -20.737141249697462 8.427467692227673 -2.0366616277070237 8.427467692227673 -14.499086294781229" Lattice="12.4 0.0 0.0 0.0 12.4 0.0 0.0 0.0 12.4" volume=1906.6240000000003 Properties=species:S:1:pos:R:3:force:R:3
H 12.3379 0.84854 4.81415 0.127506 -0.742108 -1.1068
H 5.33784 5.62691 4.76086 -0.545091 0.045778 0.419393
H 9.61277 2.15233 0.31593 0.481081 0.393483 -0.203941
H 8.06309 2.44454 0.28075 0.122089 0.348105 -0.374126
H 12.3701 11.9116 3.90034 0.179061 1.306098 -0.170083
H 3.56105 5.26905 11.0125 -0.690203 0.261154 -0.006272
H 2.11625 5.34922 1.75349 -1.182434 1.952457 0.677987
H 3.1249 4.82164 0.73837 -0.732466 -0.729628 0.930872
H 5.59767 2.01289 10.1737 0.685001 0.42998 -0.632773
H 4.75095 4.72934 3.76887 -0.22721 -0.287401 1.110586
H 10.6719 2.9707 3.55028 0.89982 0.168472 -0.437219
H 9.41799 2.29703 2.86668 0.773389 1.168164 1.573458
H 8.54599 8.28226 10.0849 -0.29181 -0.156761 -1.31331
H 7.97466 9.08909 8.82026 -0.862355 2.011073 -0.478497
H 4.35497 1.00822 1.28978 -1.121644 0.774298 -0.909189
H 9.14396 9.1619 11.9835 -0.685459 -1.236606 -0.256022
H 9.01433 7.64752 0.0431 0.080296 -0.175375 -0.199259
H 4.76109 1.214 11.0103 -0.933826 -0.4908 1.034697
H 5.32178 0.63731 2.32847 -0.309574 0.106779 0.20452
H 7.56538 5.14278 7.56552 -0.321653 -1.798664 -0.216337
H 8.04742 3.78701 6.84323 -0.162853 -0.069823 0.476026
H 12.31443 3.86901 7.42481 0.35617 -0.177333 -1.348174
H 12.055 2.18857 9.23956 -0.009453 -0.251202 1.197009
H 4.77387 4.98959 12.0539 -1.024665 -0.15869 -1.522193
H 4.53688 3.79172 6.2076 0.187801 -0.087191 -0.207613
H 4.72691 3.08627 7.65229 0.479258 0.635964 1.194948
H 4.11144 9.71596 1.92971 0.00801 -0.829599 0.682317
H 3.16145 8.50016 2.14363 -0.682024 -0.912702 -0.410635
H 2.84866 4.7284 7.13442 0.846666 -1.116829 -0.373895
H 1.37359 6.43876 10.2372 -1.676279 0.408469 -0.106247
H 2.78259 7.1779 10.2642 -0.037311 0.635436 0.303629
H 2.04014 2.91046 4.00786 -0.860437 0.509097 1.130182
H 10.3761 10.6284 12.2215 -1.220455 0.014178 -1.140018
H 10.001 8.15843 8.38537 -0.649113 0.377176 0.264085
H 11.1148 9.12267 7.80324 -0.268907 -0.969342 0.109474
H 7.50522 1.50686 1.87554 -0.821613 -0.242439 0.688828
H 11.8832 2.75542 0.53882 -0.253655 -0.169252 0.227315
H 9.51783 11.2843 0.77056 -1.323539 0.240277 0.530476
H 5.69218 9.26025 0.51238 -0.392668 -0.23017 -0.262655
H 2.8166 3.26141 2.77474 0.378377 -0.463884 0.299727
H 8.15908 11.6372 7.06591 0.110118 -0.83791 0.934026
H 10.956 3.81013 12.2876 -0.321112 1.000785 0.225515
H 5.08709 0.20043 8.84766 -0.244795 0.494631 0.915997
H 6.22946 11.8418 8.18318 -0.173833 -0.230676 -0.175028
H 10.2544 2.19867 6.59784 0.401713 -0.289216 -0.118728
H 0.21525 10.9828 7.53124 0.21246 -0.060432 -0.135197
H 9.62489 2.65131 5.26608 0.312299 0.155151 -1.448186
H 1.01922 8.11679 2.39131 -0.456576 -0.220352 -0.878616
H 1.10857 7.52536 0.87424 -1.174059 0.280572 -0.947114
H 10.7391 8.74026 4.82225 -0.814927 -1.330256 0.527248
H 10.2759 8.05271 6.22895 0.249901 -0.184618 -1.531736
H 6.71473 0.6815 5.19709 0.757894 -0.015486 -0.494855
H 2.38421 1.03382 8.2829 -0.32912 -0.211645 0.302105
H 11.2856 11.3788 8.3555 -0.131325 0.025252 0.713104
H 1.1878 2.89118 1.88107 -0.104553 -0.016623 -0.186745
H 2.72801 1.94338 7.1104 0.134846 -0.037231 -0.378003
H 0.26575 1.92253 2.70896 0.045047 0.293986 -1.654714
H 11.0076 3.67426 8.2246 -2.174101 -0.032929 -0.369828
H 11.6142 0.17343 6.72448 1.027434 1.562672 -0.107274
H 11.7339 2.35098 10.7752 -0.385257 0.701921 1.123496
H 5.17875 7.98285 5.1722 0.862375 -0.912062 -0.996297
H 3.99362 6.96954 7.08447 1.194596 1.194372 -0.756776
H 5.30265 8.09143 3.64318 -0.381513 0.217631 -0.994755
H 8.58254 1.61712 10.0915 -0.591463 0.116072 -0.436799
H 2.37416 5.62773 8.23487 -0.311051 0.394373 1.275314
H 11.1489 5.22115 3.3044 -0.112613 0.149265 -0.229108
H 11.0428 6.22898 4.4581 -0.190035 0.589113 0.30078
H 6.67646 5.48328 12.1671 -1.312391 0.542866 0.747258
H 5.96821 6.85099 12.3764 -0.344362 0.301924 0.51579
H 6.99705 1.35641 3.4183 -0.108697 -0.034403 -1.632734
H 4.35531 8.47477 7.40892 0.204098 -0.229474 -0.376387
H 8.20706 11.6665 8.62097 -0.07928 0.519747 0.913531
H 8.30664 4.01248 10.7971 0.238625 -0.083312 -0.163787
H 8.62075 5.39396 11.4735 0.819183 0.119747 0.455151
H 1.02768 4.72171 5.99919 0.203746 -0.597274 0.217808
H 11.5978 6.86191 8.67185 0.02505 0.180282 -0.462981
H 12.1682 4.24199 5.33356 0.469764 -0.431247 0.103077
H 12.0495 5.33657 8.92586 -0.143927 -0.753776 -0.411374
H 4.72847 1.63341 5.91929 0.541309 -1.472478 -0.672793
H 2.09394 12.0717 10.6983 0.080071 2.053496 -1.087927
H 8.24778 11.7234 10.97 0.400293 -0.419418 0.623832
H 11.0021 0.27606 10.0297 0.860044 1.535498 0.34481
H 1.19339 0.96064 10.1583 0.198617 -0.090283 0.410704
H 0.32333 1.45247 6.71094 -0.544368 -0.647726 0.274566
H 3.7341 10.7801 0.33153 0.106477 0.037576 0.1993
H 6.80668 12.1889 10.7406 0.510288 0.53287 -0.790541
H 8.89457 7.74855 2.671 -0.128261 -0.190059 -0.433707
H 4.80392 4.30574 9.66984 0.473911 -1.167712 -0.342668
H 8.62467 9.24293 2.69051 -0.169977 0.459014 -0.111661
H 9.68004 11.9132 9.88127 0.547279 -0.110936 -0.048423
H 4.82854 0.07816 6.27843 0.478173 1.182501 -1.160535
H 9.6262 11.0658 3.42142 -0.127112 0.002282 -0.614376
H 2.68161 9.83628 11.186 0.124515 -0.489653 -0.327251
H 1.22487 10.3144 11.4779 -0.539719 -0.195347 0.53739
H 4.54736 8.90991 11.1627 0.086737 -0.666931 -0.269297
H 8.16939 2.85553 9.10176 -0.084735 -0.262622 -0.27348
H 3.90579 9.05842 9.72547 0.043042 -0.32412 0.463135
H 8.28468 1.17313 5.19536 -1.095167 -0.574415 -0.540249
H 11.9069 6.81621 10.844 -0.098888 -0.336709 -0.99407
H 6.01527 4.03165 8.631 -0.559181 -0.673936 0.44669
H 11.7956 8.89639 12.2449 0.079027 -0.182758 0.04752
H 11.3164 6.6903 12.2805 0.331496 0.047168 0.003174
H 6.35079 6.99482 7.06727 1.005551 -0.294707 0.529129
H 8.20966 11.4862 3.36103 -2.563592 1.407841 1.805033
H 5.99133 3.4198 2.3621 0.346697 0.380697 0.071252
H 6.01945 4.96316 1.82621 0.225779 -0.896981 1.051368
H 7.78073 7.17764 7.84471 -0.603548 -0.016936 0.04531
H 3.67681 2.78291 12.041 0.253323 0.881422 -0.01747
H 4.55796 10.5321 8.01312 -0.804209 -0.647646 0.703525
H 2.93466 9.57004 3.81261 -0.13318 1.335306 0.467363
H 3.01548 10.2148 8.04873 0.740866 -0.566484 -0.439697
H 1.48199 10.1854 3.98453 0.85501 0.113266 0.403709
H 4.51162 11.6164 1.4831 -0.222019 -0.801599 -0.765185
H 2.80399 1.57561 11.8425 0.142056 -0.427558 0.009266
H 11.6576 10.0479 0.95829 0.745448 -0.640586 -0.170139
H 7.03269 8.94973 12.3096 -0.460428 -0.843254 -0.589025
H 2.04202 11.9596 7.00781 0.013995 -0.087898 -0.238536
H 7.58656 4.86267 3.70662 0.159336 -0.159184 -0.190877
H 9.07006 4.99539 4.26373 0.504794 -0.465701 -0.294014
H 1.98349 10.716 6.00682 0.088152 -0.069914 0.545541
O 8.76497 2.01206 0.76989 -0.460001 -0.5813 0.610938
O 4.61085 4.96789 4.73176 0.603837 0.167731 -0.774847
O 2.60413 4.58052 1.56142 1.688344 -1.341378 -1.47992
O 9.75606 2.77962 3.70134 -1.538242 -1.324372 -2.091566
O 8.42952 8.31557 9.06082 1.231281 -1.985825 1.852045
O 4.36138 0.44919 2.06972 1.307115 -0.181949 1.236072
O 8.78546 8.2496 11.7061 0.55217 1.579357 0.546556
O 7.53301 4.0965 7.6198 0.230904 1.430745 0.080905
O 4.0569 4.54179 11.4221 1.302286 0.222839 1.422099
O 11.9345 3.69346 8.28934 1.481633 -0.030352 1.620768
O 12.0448 1.71689 10.128 0.535774 -0.83556 -2.529396
O 4.30991 3.03507 6.79449 -1.27408 -0.687246 -2.132631
O 3.90541 8.92224 2.57145 0.50513 0.957312 0.094714
O 2.28314 5.4659 7.30131 -0.288283 0.858938 -0.670795
O 2.30571 6.34235 10.2182 2.176776 -1.215273 -0.377497
O 2.70804 2.54271 3.4514 0.635448 0.155834 -0.978151
O 10.8189 8.1629 7.85998 0.700453 1.095561 -0.533833
O 9.37595 10.8685 12.3065 2.31657 -0.209934 0.200179
O 11.195 2.88909 12.2377 -0.006606 -0.607065 -0.244307
O 8.17961 5.33543 4.3127 -0.718973 0.558535 0.379647
O 5.26263 11.9946 8.1254 0.766542 -0.371132 -0.851348
O 9.4796 2.61755 6.20385 -0.990238 -0.122477 1.849317
O 11.8283 1.15364 6.42942 -0.322497 -1.153327 0.021021
O 11.6402 11.0394 7.51473 -0.390047 -0.237018 -0.835943
O 1.49939 7.57977 1.73181 1.454984 -0.19949 1.721025
O 5.57358 1.10474 10.5151 -0.286319 0.297541 -0.469341
O 10.1696 7.98305 5.20777 0.611156 1.05452 1.055584
O 2.20289 1.14696 7.32701 0.280586 0.686146 0.462532
O 0.30686 2.48676 1.86277 0.114028 -0.583695 1.76674
O 4.68423 7.68665 6.87458 -1.398808 -1.253553 0.906564
O 5.74793 7.68695 4.38517 -0.448738 0.475239 2.115964
O 11.1085 5.28552 4.27052 0.167577 -0.548286 -0.031282
O 5.88554 5.91601 0.27865 2.00313 -1.072272 -1.22734
O 6.67632 1.4805 2.43607 1.055269 0.190065 0.822826
O 4.5177 10.7179 0.91256 -0.146234 0.360328 -0.128797
O 0.54555 3.87594 5.84735 -0.576377 1.243424 -0.637922
O 12.069 6.23916 9.24665 0.335238 0.698111 0.98266
O 8.07064 11.0807 7.88354 -0.371338 0.235773 -2.219745
O 0.22444 0.48735 3.89643 -0.211081 -0.438241 1.337676
O 2.12684 0.6339 10.2484 -0.135211 -1.881661 0.73398
O 7.67455 12.0799 10.2795 -0.132656 -0.076622 0.676606
O 8.16816 8.39232 2.61546 0.468782 -0.329618 0.297173
O 10.6424 11.8254 9.80127 -1.059763 -1.185389 -0.311407
O 2.14804 10.5829 11.5123 0.355817 0.732361 -0.107856
O 3.803 8.58388 10.6077 0.096975 1.054865 -0.428815
O 7.5988 0.62845 4.69376 0.07799 0.704492 1.620552
O 5.20734 3.61371 9.0675 0.925577 1.395522 0.519402
O 8.7362 2.53515 9.82434 0.497724 0.387376 0.5279
O 12.0266 7.13048 11.7436 0.050235 0.773326 1.302078
O 7.2926 6.63805 7.17769 -0.500651 0.87904 -0.328607
O 8.86928 11.1796 2.80643 3.048539 -1.352878 -1.17815
O 6.12699 4.35426 2.62869 -0.349724 0.555899 -1.355188
O 2.42854 10.3256 4.29968 -0.55131 -0.750383 -0.728654
O 3.90666 9.7733 8.20256 -0.188658 1.137779 -0.038738
O 7.99164 4.92396 10.9306 -1.085719 0.111691 0.054638
O 3.57586 1.88167 12.3657 -0.350069 -0.314941 -0.448043
O 6.08287 8.68621 12.2181 0.617739 0.804178 0.731623
O 11.9163 9.85728 0.03134 -0.578219 0.456119 0.243411
O 4.98018 0.70345 5.4912 -0.961706 0.499927 1.940531
O 1.82777 11.0015 6.9495 0.17817 -0.239515 -0.321721
Na 7.98084 7.46264 4.85749 -0.27965 -0.111375 -0.064921
Na 2.97729 0.2919 3.96703 0.007231 0.084694 -0.245924
Cl 10.0594 5.84021 1.1204 -0.268962 -0.094087 0.021969
Cl 11.9219 9.71235 3.52852 -0.020733 0.403477 -0.357152
184
energy=-998.49407673 config_type=nep2xyz pbc="T T T" virial="-11.963532117374466 -4.772889064794311 -3.251613679363506 -4.772889064794311 -12.4996128267434 4.94312158449602 -3.251613679363506 4.94312158449602 -6.994884580081512" Lattice="12.4 0.0 0.0 0.0 12.4 0.0 0.0 0.0 12.4" volume=1906.6240000000003 Properties=species:S:1:pos:R:3:force:R:3
H 2.57048 7.42074 10.9715 -0.139537 -0.242081 -0.13734
H 2.61131 6.03378 10.2626 -0.002855 -0.389187 0.113507
H 6.95422 0.93162 8.38091 -0.082064 -0.395971 1.708518
H 5.99143 12.1822 8.9762 0.072922 0.008131 0.033854
H 9.20667 3.08966 12.0955 0.263957 0.753625 -0.874617
H 10.1054 2.9551 10.8873 1.132148 -1.647171 -1.48364
H 5.49256 3.21462 3.29687 -0.112496 -0.667485 -0.103727
H 6.51129 2.09164 2.86996 -0.365185 -0.048207 -0.091743
H 9.4866 8.65782 9.9085 -1.131381 0.376147 -0.31674
H 8.41243 9.7868 10.1302 -0.178075 -0.239691 0.201893
H 7.40854 3.10151 7.99647 0.151967 1.327901 0.268801
H 8.18244 2.19207 6.98657 -0.450698 -0.278325 0.112152
H 11.2985 7.16458 5.9095 0.119804 -0.59733 -1.108947
H 0.20327 6.80896 5.09302 -0.708246 -0.061901 0.021961
H 10.3873 5.58407 9.55691 0.28775 -0.195619 0.418315
H 10.3279 6.22537 8.18449 0.219136 -0.01884 -0.500389
H 6.87599 6.33121 5.75125 -0.750055 -0.712652 1.484214
H 5.40145 6.06969 6.13783 0.47878 -0.23016 0.992851
H 9.7822 1.8778 2.05862 -1.580997 0.758305 -0.13512
H 11.1971 2.51753 2.22903 -0.21055 -0.228865 -0.588477
H 7.76453 6.43869 3.08313 -0.153397 0.242715 -0.029901
H 7.957 5.20361 3.95516 0.176548 -0.783269 0.477312
H 11.5598 7.49736 10.3134 0.830737 -1.439576 0.608091
H 0.3141 6.45106 10.7346 -0.487424 0.433267 -0.262276
H 4.99025 11.1885 7.53394 -0.238325 0.243834 -0.218733
H 4.1426 11.2277 8.88792 0.960859 -0.309511 -0.757514
H 3.80225 6.12621 0.36474 -1.139313 -1.120175 1.097927
H 2.89246 4.73808 0.4815 0.122926 1.116272 0.630644
H 3.10707 7.57116 5.08645 0.858556 -1.021986 0.81488
H 3.01628 9.13649 4.45843 -0.579963 -1.5354 0.187501
H 5.00896 9.11232 11.2691 -0.040285 0.147864 -0.204497
H 5.35137 10.0723 10.0495 0.286353 -0.052259 -0.699276
H 6.5623 4.46994 9.60772 -0.461763 -0.183011 0.822568
H 5.87389 3.56879 10.8036 0.394441 0.447824 -0.36507
H 8.62267 12.1847 6.01382 0.487436 1.838591 -0.211312
H 9.69527 0.39784 6.95952 -0.140464 0.630035 -0.401169
H 4.26786 5.41336 4.6148 -0.154823 0.346816 0.041577
H 3.4494 5.12747 5.86601 0.125631 -0.093563 0.365214
H 7.73659 11.8806 9.95335 0.055648 -0.459166 0.775883
H 8.76275 11.8995 11.1482 0.35368 -0.139375 0.018974
H 4.80353 7.78536 0.70175 -0.47884 0.067628 0.193144
H 5.5634 7.18093 11.9206 -0.526354 0.100293 -0.431459
H 9.53953 0.23942 0.53385 -0.849824 0.918846 1.216628
H 10.9733 0.15389 12.3588 -0.183558 -0.039132 -0.259289
H 0.36541 11.6498 12.3225 0.212831 0.220308 -0.208637
H 0.69692 0.63725 0.52162 -0.360304 0.229871 0.38491
H 7.63953 10.3688 6.23146 -1.159142 0.792695 -0.555803
H 8.06174 10.6184 4.86796 0.076524 0.477252 -1.483933
H 11.3621 1.12013 8.52124 -0.406222 0.059409 0.08876
H 10.9725 12.1599 9.18908 -0.286483 0.391642 -0.399317
H 3.64876 10.548 3.16712 0.310284 0.103445 -0.637809
H 3.92147 10.9187 4.67671 1.088723 0.93462 1.03982
H 3.18744 10.3834 10.5304 -0.875413 0.320436 -1.535471
H 1.83329 10.0958 9.67098 0.275803 0.331873 -0.005515
H 0.73939 10.4082 1.68465 -0.103409 -0.153725 0.394285
H 0.81643 9.17761 0.70853 -0.028668 -0.788159 0.244059
H 11.992 3.70183 5.20715 0.478357 -0.516949 -0.503069
H 11.354 5.05441 5.41302 -0.0365 1.179623 -0.065875
H 0.53362 6.61335 2.32668 0.040554 0.260982 0.556078
H 11.7112 6.38011 3.37179 0.428891 -0.156429 -0.451827
H 8.39515 2.66288 4.40372 0.116715 0.250377 0.074636
H 9.6165 3.61056 4.82075 -1.190018 0.051831 -0.688412
H 6.04836 2.16244 6.44897 1.048464 0.298326 0.227144
H 5.34659 2.00344 4.92241 0.447006 0.519812 1.992036
H 1.34505 1.04752 10.9162 -0.600876 -0.3269 0.537937
H 2.32592 0.0246 10.2682 -0.456288 0.542155 -0.181612
H 5.80577 11.4759 5.77041 1.05457 -0.206747 -0.61005
H 4.85575 0.28885 5.9312 0.14116 0.625569 0.142292
H 10.878 8.28588 7.95288 -0.59708 -0.240672 -0.601168
H 9.45876 7.94023 7.25669 -0.178965 0.776545 0.064251
H 8.27349 8.76212 1.21247 -0.220523 -0.520236 0.194538
H 7.77506 10.2155 0.86565 -1.139437 0.708324 -0.285502
H 5.93355 8.08292 2.8744 -1.485957 0.102592 -0.660544
H 4.40621 8.01262 3.16633 -1.169502 -0.217459 1.186494
H 1.32515 3.73431 11.2131 -0.253013 0.275292 -0.280267
H 0.65945 3.59515 0.24206 -0.377837 0.045377 -0.179914
H 4.67549 5.12071 2.43447 -0.366251 -0.048133 -0.133092
H 5.91812 5.29511 3.45132 -0.95597 -0.563604 -0.238417
H 10.74 6.76547 12.159 0.992915 -0.284823 -0.162753
H 11.0354 7.3036 1.27715 0.085208 -0.685797 -0.884327
H 2.34285 6.61764 1.88232 -0.475708 0.99445 -0.104568
H 2.26102 7.76861 2.95178 -0.005063 0.158088 1.144861
H 11.7236 4.79719 1.54908 0.180433 0.362298 0.171789
H 10.8873 4.09129 0.36388 0.585423 -0.09297 -0.01526
H 11.1139 4.03854 8.35401 -0.188488 0.368137 0.369132
H 11.5417 3.39642 7.09383 0.039368 -0.008517 -0.30815
H 7.10922 5.12231 7.58193 -0.238909 0.406985 -0.575564
H 8.54306 4.85884 8.29394 -0.054016 0.152492 0.202784
H 6.73957 5.99949 10.8604 0.58058 0.619489 0.143449
H 7.5808 7.46224 10.6268 -0.56357 -0.676995 0.667055
H 3.72104 0.24907 1.60602 -0.367546 1.61967 -0.46949
H 4.27327 1.51766 2.2715 0.329 0.527842 -0.126769
H 10.939 0.8956 3.33254 0.380943 -0.657931 1.175709
H 10.4686 0.49109 4.85486 -0.046343 0.047223 0.132216
H 6.44468 11.6139 12.2314 0.240062 -0.017512 0.605394
H 7.10469 0.04443 0.95691 -0.118604 0.383879 0.054883
H 7.36115 7.9092 7.15966 -0.084849 1.189721 0.359202
H 7.82456 8.90764 8.30596 0.222653 -0.235356 0.772835
H 1.43588 11.0055 3.85694 1.165349 -0.38156 0.845527
H 12.3516 11.5495 3.81341 -0.139844 0.280657 -0.039288
H 1.76739 2.21047 9.10297 -0.05507 -0.30906 0.224102
H 0.64504 3.23844 8.51464 0.110531 -0.204393 -0.10804
H 1.05483 2.23596 4.02479 0.107195 -0.258178 -0.231375
H 1.92566 3.04808 5.13218 -0.634673 -0.101956 -0.224091
H 6.16716 1.51481 10.586 -0.516143 0.156743 -0.090146
H 6.40233 1.99705 12.0263 -0.373312 0.279242 0.119389
H 3.62716 2.65857 6.4383 -0.046275 1.058726 0.079426
H 2.42727 3.29956 7.28414 -0.548923 -0.305479 0.903061
H 2.80345 10.3422 1.003 0.783602 0.660223 0.369484
H 4.28692 10.8644 0.64223 -0.52086 -0.342273 0.864586
H 1.15414 0.25197 2.57275 -0.816275 0.39893 -0.173754
H 2.05688 1.33579 2.10565 0.7486 0.659432 -0.502083
H 4.1634 4.68794 9.8877 0.339425 -0.073912 0.536589
H 2.78624 4.08867 9.48554 -0.744756 -0.291433 -0.276611
H 1.99854 7.84163 7.43659 -0.670309 0.154112 -0.373517
H 1.76423 7.4045 8.81195 -0.66927 -0.175286 0.664786
H 9.8657 10.9745 3.53395 -0.700144 -0.521962 0.235399
H 8.6582 10.2953 2.75036 0.758281 -0.28397 0.416072
H 7.52184 6.76089 0.81307 1.124023 0.62346 0.853056
H 9.0769 6.96675 1.18681 -1.383129 0.543819 0.265145
O 2.07254 6.86001 10.3509 0.292297 0.519845 0.627901
O 6.73619 0.39825 9.2443 0.557715 1.549356 -1.487133
O 9.70971 3.61555 11.4009 -1.545485 0.87674 2.379433
O 5.64272 2.21571 3.31095 -0.048324 0.601295 0.127917
O 8.48966 8.80544 9.91548 0.745984 -0.078265 0.250808
O 7.31751 2.33318 7.4261 0.41604 -2.26578 -0.805127
O 11.6291 6.66439 5.08349 0.685583 1.08929 1.417524
O 10.2256 5.35425 8.63112 -0.687674 0.225628 0.138039
O 6.32558 6.11969 6.58964 0.441312 1.125036 -2.62027
O 10.7031 1.68346 2.0868 1.569128 -0.247408 0.247258
O 7.42123 6.01109 3.90691 -0.264541 0.199632 -0.372409
O 11.7332 6.56052 10.6791 -0.425443 1.113538 -0.476378
O 5.0739 11.1613 8.51399 -1.724794 -0.531507 0.675543
O 3.24328 5.51234 1.00851 1.075894 -0.15419 -1.647917
O 2.66881 8.13808 4.4746 -0.108354 2.229744 -0.874825
O 4.95164 10.0241 10.917 -0.506604 -0.198583 1.344648
O 5.9351 4.48664 10.4003 0.409293 0.388392 -0.897545
O 9.18715 0.64175 6.13839 -0.328251 -2.125928 0.721407
O 3.95219 5.85971 5.44901 -0.036435 -0.338379 -0.172636
O 8.12669 11.3014 10.7148 -0.365481 0.331208 -0.906851
O 4.62623 7.43735 12.1966 1.122766 0.100681 0.209124
O 10.0394 12.1966 12.278 1.254993 -0.4575 -0.803438
O 0.24031 0.21011 12.1554 -0.081132 -0.290435 0.017557
O 7.39008 11.007 5.47668 1.27123 -1.591755 2.264125
O 10.605 0.53856 8.71652 0.478031 -0.45284 0.140146
O 3.30483 10.5265 4.06891 -1.194856 -0.481465 -0.349843
O 2.57134 10.7282 9.78503 0.801932 -0.569626 1.50008
O 0.87551 10.1271 0.75524 0.230299 0.771892 -0.261276
O 11.1801 4.11916 5.54994 -0.430441 -1.322923 0.170278
O 12.1186 6.08045 2.52682 -1.177357 0.070141 -0.102801
O 8.70869 3.57718 4.34892 1.337377 -0.016932 0.687592
O 5.22443 2.09358 5.95616 -1.781731 -1.137523 -2.543288
O 2.13652 0.9942 10.3722 1.11149 -0.331462 -0.521599
O 4.88754 11.7158 5.92263 -1.0878 -0.4434 0.220214
O 10.3928 7.68935 7.31851 0.99881 -0.15369 0.473723
O 8.53067 9.69683 1.12389 0.884517 0.188352 -0.017036
O 5.02154 8.14523 2.46593 2.724855 -0.015651 -0.573718
O 1.40905 3.30038 12.0616 1.0238 -0.34816 0.31382
O 5.02449 4.80331 3.28509 1.571709 0.755144 0.223359
O 10.4838 7.38137 0.46017 -0.811345 0.908743 1.357766
O 1.82066 7.44214 2.15864 0.436628 -1.132425 -1.784267
O 11.7075 4.05392 0.90996 -0.646706 -0.147093 0.051508
O 11.6282 3.26053 8.05933 0.016 -0.530214 -0.046293
O 7.59305 4.6073 8.25529 0.406648 0.144564 1.154571
O 7.0995 6.8464 11.2629 -0.286264 -0.155765 -0.336519
O 3.64282 1.26966 1.56391 0.608125 -2.045948 0.291711
O 11.1682 0.34799 4.19099 -0.178666 -0.036232 -1.025118
O 6.52195 11.6831 0.81089 -0.209638 -0.581373 -0.7954
O 7.73292 8.81723 7.34902 -0.231124 -1.215777 -1.370831
O 0.6896 11.1462 3.29553 -0.990694 0.036498 -0.89865
O 1.63201 3.0912 8.71592 0.171529 0.426806 0.1132
O 1.11284 3.0338 4.55809 0.149334 0.513283 0.510421
O 5.73154 2.06656 11.2964 0.752663 -0.808724 -0.258559
O 2.97353 3.41154 6.5001 0.930725 -0.33378 -1.34664
O 3.6333 10.7619 1.38056 -0.306531 -0.07377 -1.252136
O 1.10974 1.14905 2.14161 -0.249416 -0.857057 0.582618
O 3.24312 4.5648 10.2046 0.690668 0.028314 -0.097915
O 1.24518 7.68052 8.03253 1.049428 0.220849 -0.754979
O 9.12665 10.3209 3.62815 0.338578 0.758348 -0.257424
O 8.10703 7.12596 1.55428 0.256173 -1.110113 -1.467825
Na 3.52835 2.35801 11.6537 -0.308899 -0.11105 0.254011
Na 10.1032 10.0108 11.9528 -0.062139 -0.28582 0.375101
Cl 7.76289 2.18854 1.10426 0.328569 -0.210989 0.076162
Cl 11.3245 9.61123 9.76643 0.419659 -0.107572 -0.14724
184
energy=-1000.39869184 config_type=nep2xyz pbc="T T T" virial="-5.993541317564888 -12.10275268696484 -1.270787842110199 -12.10275268696484 -7.805836365302948 5.929018373012447 -1.270787842110199 5.929018373012447 -5.720847980342611" Lattice="12.4 0.0 0.0 0.0 12.4 0.0 0.0 0.0 12.4" volume=1906.6240000000003 Properties=species:S:1:pos:R:3:force:R:3
H 0.37384 0.50576 1.88925 1.461506 0.36156 0.148284
H 1.85004 0.70275 1.18816 0.009018 0.485553 0.329543
H 0.21564 8.20516 3.19252 1.574945 -0.486026 0.253151
H 3.52406 2.39313 0.45078 -0.802864 -0.379685 0.039493
H 4.16944 0.98281 1.93239 1.218546 -1.247264 0.286468
H 5.23915 1.31334 2.92866 1.33214 1.223365 1.492208
H 9.23408 3.73333 3.36093 -0.076096 -0.533147 0.320778
H 9.73402 2.22883 3.19244 -0.044111 -0.056433 -0.232629
H 10.7408 1.60874 1.4109 -0.272945 -0.053712 -0.473635
H 10.9388 0.34753 2.39386 -0.362728 -0.641272 -0.009335
H 1.56893 4.34967 2.79736 0.544244 -1.127615 1.258002
H 2.59092 7.90851 3.09 -0.497821 0.208946 -0.180444
H 2.08133 7.02817 4.27483 -0.496708 0.432441 -1.068222
H 1.42599 5.88543 2.49903 0.241039 -1.024029 -0.351531
H 10.9716 5.99079 1.60719 -0.141213 -0.731366 0.210189
H 11.9135 4.99035 2.26247 0.230663 -0.253424 0.046329
H 2.61075 4.43342 1.04338 0.160094 -0.148813 -0.424171
H 5.71487 4.93545 2.36681 -0.051903 0.019804 0.386782
H 4.83619 4.5817 1.10674 -0.174314 0.122573 -0.008184
H 6.13513 5.10651 4.90113 0.440019 0.968032 0.854205
H 6.23578 8.01732 0.33872 0.862534 -0.117849 -0.655673
H 6.35011 6.53451 0.2827 1.046543 0.419382 -0.25142
H 9.14688 3.23323 0.04764 -0.152708 0.0431 -0.553954
H 10.4855 3.65302 0.69533 -0.220057 -0.37396 -0.582248
H 4.72435 4.58436 4.58608 -0.986029 -0.086504 0.799459
H 10.151 5.61315 3.495 1.956849 -0.654403 -1.631728
H 8.89774 6.38107 3.60939 -1.124704 1.321066 -0.588298
H 2.04733 12.0247 2.99657 0.387773 -0.476948 0.033579
H 3.52493 11.9299 3.46109 0.084629 0.052198 0.136995
H 3.20095 10.0313 3.02814 0.231168 -0.546316 -0.22686
H 4.1654 9.16355 2.03472 0.049924 0.264334 -0.373675
H 11.6572 8.27171 1.98953 -0.384498 -0.210652 0.144318
H 6.24348 7.38003 5.70379 -0.159315 -0.054212 -0.310899
H 6.03768 0.07736 1.19233 -1.279052 1.070493 1.554946
H 5.15492 9.02818 3.94595 0.313726 -0.703344 0.747771
H 6.56068 12.2921 12.1109 0.343392 -0.895025 1.56543
H 6.0626 9.59653 5.09347 -0.273115 -0.592846 -0.268108
H 7.82658 10.9782 1.36775 -0.712538 0.745852 0.083214
H 9.92412 10.9159 2.32638 0.293957 0.010956 0.099535
H 8.57141 9.17521 2.70001 -0.431757 -1.231319 1.293511
H 4.11541 9.73839 10.346 0.348979 -4e-05 -0.642567
H 8.55713 9.86075 0.65439 0.637688 -0.410732 0.007765
H 11.1977 10.315 2.97725 0.73772 -0.897147 -0.143835
H 3.17985 3.48623 6.3261 0.06718 0.558616 -0.114278
H 2.11658 2.74915 4.54601 -0.284443 0.195369 1.373549
H 0.94589 9.91179 8.5794 0.585588 0.397603 -0.047695
H 7.41492 2.46451 4.01596 0.548922 -0.777086 -0.148655
H 6.11711 1.83392 5.77618 -0.104139 -1.173788 -0.207421
H 4.21293 4.42896 7.0488 -0.240587 -0.414984 -0.756012
H 6.11959 3.09721 4.21128 -0.66455 0.206409 -0.084773
H 6.97582 1.61609 6.96946 -0.106341 -0.717811 0.589429
H 1.91488 2.09757 3.24457 0.10371 -0.290419 -0.67103
H 9.8559 2.87345 5.21867 0.27693 0.428383 0.47642
H 9.16971 2.41427 7.1089 -0.366157 -0.384114 0.27784
H 11.2616 3.03395 6.04382 -2.434004 -0.205175 0.390455
H 8.92011 1.32355 8.25592 -0.170981 -0.195786 0.04464
H 2.75646 5.75252 6.1127 0.424732 -0.67346 0.051424
H 2.51435 7.21009 6.62994 0.69243 0.77359 0.935752
H 2.82832 9.13065 7.75248 -0.970558 0.718154 -0.205012
H 3.87783 8.37044 8.31613 0.111661 -0.813319 0.309407
H 6.61632 6.50372 6.98788 -0.056315 0.011051 -0.700644
H 6.47497 11.9899 6.16671 -0.501194 -0.226973 -0.108653
H 9.16354 8.39775 6.99554 -0.385372 -0.974498 -0.063009
H 5.87623 10.7916 6.99047 0.134474 0.102543 -0.610782
H 8.27054 7.26176 6.34431 -0.421016 -0.15024 -0.19782
H 0.24546 4.21018 5.51924 0.916226 -0.173301 0.273132
H 0.72157 5.72914 5.33752 0.080343 -0.805087 0.349855
H 1.02915 0.38551 5.92461 0.230347 2.017248 0.070273
H 1.5971 11.5825 5.05173 0.102271 0.595251 -0.161357
H 1.88163 11.0824 6.95276 0.192708 -0.302759 0.513084
H 3.09377 11.5289 7.81407 -1.021395 -1.596841 -0.178934
H 0.47976 8.95822 9.73141 0.100536 -0.129024 0.18908
H 9.47775 10.2293 6.57424 0.048594 0.44941 0.249526
H 8.02846 10.3406 7.23311 0.535735 -0.364117 -0.10528
H 4.74565 0.91345 7.14055 -0.325632 -0.069965 0.709546
H 7.72809 8.43896 3.8859 0.271146 0.264057 -0.469739
H 10.525 11.1878 4.69562 0.011758 0.18757 -0.588559
H 11.5279 10.8685 5.82859 0.649516 0.322523 0.115907
H 1.25488 2.0933 8.60051 -0.446752 -0.272999 0.972165
H 0.26182 2.09651 9.87768 0.878026 0.105309 -0.659093
H 2.17952 0.66678 10.0472 0.329237 0.383338 0.217883
H 3.31618 0.98606 12.0873 0.146495 0.355887 0.303096
H 5.67198 3.77081 8.9402 -0.794659 0.460793 -0.112286
H 6.5038 1.7813 9.65045 -0.114435 0.069534 0.208517
H 7.5668 2.7137 9.0291 -0.171207 -0.146792 -0.479951
H 10.9009 3.1105 10.9609 -0.604496 0.107318 0.565749
H 7.37822 3.3926 11.0109 0.448353 0.777884 1.278638
H 10.8645 3.5146 9.4061 0.442148 -0.023131 0.593818
H 10.065 1.28659 9.74472 0.078057 0.230936 0.450953
H 1.83959 6.72854 8.74889 -0.568213 -0.85343 1.079201
H 1.77158 5.40648 9.76216 0.06231 0.814701 -0.889199
H 1.42472 7.4797 10.6616 -0.128196 -0.680033 -0.303714
H 5.35283 5.30532 8.80813 0.391227 0.438227 0.271965
H 3.07809 4.37421 11.9221 -0.063579 -0.14886 -0.32645
H 2.15069 3.33916 9.94638 -0.527762 -0.77499 0.080524
H 3.47302 4.03176 9.46515 0.073858 0.606638 0.314378
H 8.69657 6.84431 10.753 -0.35454 2.509982 2.106332
H 7.43109 6.29928 9.26739 -0.855647 0.034491 -0.204275
H 8.47726 5.32642 10.7403 0.027894 -0.128348 0.468647
H 7.21105 4.33195 12.3173 -1.347206 0.50478 1.022539
H 11.8813 5.51139 9.00785 1.34663 0.419464 0.197007
H 11.9744 7.76752 0.11095 -0.282278 -0.816346 0.020316
H 10.4238 7.71281 0.05245 0.114785 -0.152194 0.586127
H 10.4187 5.89898 9.2401 -0.447769 -0.030251 0.201628
H 0.51347 7.4888 6.05958 0.843023 -0.269569 0.084652
H 3.65153 0.36164 9.73615 0.956022 0.238169 -1.070567
H 1.70754 8.94 11.2128 -0.836477 -1.744617 0.276883
H 5.55531 10.3148 0.65695 0.008115 -0.384234 -0.111439
H 4.41571 9.54534 12.3366 -0.205257 0.147129 -0.336306
H 6.342 7.39427 8.98162 -0.16983 0.178297 0.200575
H 3.21877 1.29432 7.32103 -0.240926 0.084749 -0.062848
H 6.55146 11.6548 9.83755 0.115137 0.548189 0.452152
H 7.75437 0.33115 10.0608 -1.564924 -0.626204 0.659843
H 8.1069 8.55926 11.729 -0.417971 -0.261071 -0.630928
H 2.92813 10.794 10.4343 0.854917 -0.506908 0.618219
H 9.48057 9.34408 11.0938 -1.439755 -0.35378 0.304795
H 12.1551 7.97928 7.31011 0.191534 0.316759 0.706427
H 9.54341 10.1931 8.77348 -0.395224 0.10008 -0.278939
H 9.74378 12.1219 9.48685 -0.257926 0.596148 0.508201
H 10.8693 10.0732 9.44812 2.070954 -0.335696 -0.19604
O 1.35838 0.59498 2.03455 -1.865134 -0.20929 -0.110499
O 3.27868 1.43052 0.57862 0.422848 -0.065541 -0.895586
O 4.92022 0.54546 2.49594 -2.469871 -0.192446 -1.709339
O 9.08419 2.80683 3.66129 0.327768 0.668005 0.064587
O 10.8717 1.31139 2.31751 0.369971 0.81688 0.349695
O 1.31948 4.9467 2.10929 -0.413071 2.116137 -0.669847
O 1.79046 7.35522 3.35859 0.772422 -0.607765 1.293098
O 10.9543 5.15966 2.16501 0.321143 0.530993 -1.02041
O 3.29937 4.07203 0.41762 -0.060101 0.262067 0.598899
O 5.65947 5.01246 1.40622 0.50004 0.071216 -0.782861
O 6.73675 6.58436 5.99884 -0.11206 -0.130418 1.09003
O 5.60071 4.6833 4.23754 0.647936 -0.541931 -1.725676
O 6.88727 7.33062 12.39713 -1.970036 -0.219706 0.959169
O 10.1076 3.02776 0.02028 1.253043 0.415173 1.672368
O 9.43692 5.77324 4.07823 -0.967016 -0.556981 2.749515
O 11.7761 8.55825 2.91704 -1.092313 0.765716 -0.213512
O 2.67183 11.4577 3.55926 -0.171442 0.339935 0.101342
O 3.61446 9.12975 2.83812 0.024072 0.133848 0.553192
O 6.59738 11.9278 0.67384 0.822154 -0.495279 -3.202576
O 5.81839 8.74014 4.64022 -0.005697 1.285303 -0.33685
O 8.48319 10.288 1.53113 0.544094 -0.069108 0.269293
O 3.32509 9.98006 10.8482 -1.406739 0.41166 0.393233
O 10.7556 11.151 2.8233 -1.076604 0.770802 -0.400669
O 8.61722 8.47351 3.46483 -0.289825 0.926561 -0.692274
O 6.49732 2.18832 4.21328 -0.121922 0.775013 -0.066385
O 3.7459 4.27144 6.1629 0.128166 0.027403 1.27785
O 2.47252 2.76573 3.66852 0.099683 0.136267 -1.036129
O 8.46014 1.93289 7.63365 0.311046 0.970238 -0.530903
O 10.2347 3.12501 6.11811 2.041359 -0.053043 -0.906385
O 2.25169 6.56777 5.96945 -0.828296 -0.114921 -1.139499
O 2.95232 8.20428 8.04258 0.88328 -0.190708 -0.149267
O 6.26457 11.0196 6.11336 0.355565 -0.231356 1.010615
O 9.17604 7.46846 6.63233 0.827952 0.778079 0.157703
O 12.3996 5.0863 5.2197 -0.98002 1.091716 -0.764175
O 2.44295 10.7206 7.70543 0.769879 2.156636 -0.375515
O 0.99717 11.8625 5.77817 -0.366828 -2.666718 -0.206772
O 0.1819 9.46701 8.95593 -0.979298 -0.358878 -0.148438
O 6.14595 1.21943 6.57936 0.610933 1.386436 -0.536584
O 8.94475 9.99734 7.37972 -0.875314 0.317879 -0.871534
O 10.7092 10.5804 5.42035 -0.603093 -0.636471 0.631631
O 1.20899 1.88182 9.5785 -0.984294 0.480831 -0.708508
O 4.93613 4.43043 8.73168 -0.137725 -1.259707 -0.560781
O 6.74319 2.73416 9.56466 0.46016 -0.053843 0.373891
O 11.1542 2.83583 10.0625 -0.003864 -0.401726 -1.377128
O 7.85399 3.90284 11.7778 -0.042119 -1.017714 -2.366204
O 2.67168 4.14415 10.0408 0.500956 0.243998 0.201856
O 1.27895 6.23346 9.41774 0.590419 0.176151 -0.404694
O 1.04773 8.1517 11.2537 0.936587 2.487665 0.307218
O 6.50605 6.43665 8.88162 1.03894 0.324085 -0.280071
O 8.78093 6.0999 10.2289 0.476033 -2.444743 -2.251968
O 11.1909 7.34773 0.56272 0.363033 1.167481 -1.014281
O 10.9993 5.36458 8.68291 -0.886571 -0.484096 -0.659661
O 3.02404 0.32861 10.4403 -0.945487 -0.659281 1.056882
O 5.13688 9.42014 0.57326 0.229646 0.474942 0.471782
O 3.89955 0.71267 7.67421 0.259806 -0.179822 -0.151484
O 6.77106 0.10417 10.3046 1.431406 -0.007024 -0.866147
O 9.02891 8.8242 11.8258 1.824588 0.438867 -0.370008
O 12.0727 7.80048 6.37469 -1.094196 0.194037 -0.733586
O 10.0222 10.4641 9.58826 -1.189367 0.390681 1.055977
O 9.33807 0.6448 9.61778 0.678248 -1.137299 -0.273475
Na 10.4307 5.63831 6.2967 0.043303 -0.064906 0.083625
Na 10.4979 8.36142 4.70864 -0.285492 -0.236248 0.270059
Cl 1.07746 2.60253 6.50342 0.104281 -0.496263 0.179995
Cl 5.82913 9.49653 9.22715 0.214597 0.126574 -0.367221
184
energy=-999.4408158 config_type=nep2xyz pbc="T T T" virial="-4.034159660703225 -2.081085115721458 -0.18640490657864867 -2.081085115721458 -10.294836916909423 -5.160490840341628 -0.18640490657864867 -5.160490840341628 -9.630757537011895" Lattice="12.4 0.0 0.0 0.0 12.4 0.0 0.0 0.0 12.4" volume=1906.6240000000003 Properties=species:S:1:pos:R:3:force:R:3
H 8.97069 1.69821 1.09695 -2.148574 -0.268919 0.014107
H 10.2534 2.32104 1.74847 -0.356111 -0.419309 -1.429602
H 3.12759 4.92453 1.15684 -1.314289 -0.18186 0.532753
H 9.9551 2.63798 10.4834 0.941593 0.696801 0.78005
H 3.01024 11.8122 8.31274 -0.021508 0.14421 -0.928294
H 2.68193 12.0864 9.74768 0.186502 0.507526 -0.488256
H 2.94262 12.2822 2.60359 0.02913 -0.500848 0.218373
H 4.87426 5.05616 5.16324 0.68724 0.826404 -1.239501
H 7.31813 10.923 10.1544 -0.484728 -0.161198 0.502897
H 3.81077 3.2215 4.75288 -0.778761 -0.073853 -0.546817
H 1.32962 1.10144 6.5274 0.897218 -0.106735 -1.150648
H 3.72268 1.81471 9.08813 0.252475 0.125038 0.128324
H 9.91216 4.56931 5.55894 0.028892 0.088302 0.583309
H 1.64158 4.37955 1.64872 0.549892 -1.086952 0.302737
H 6.63656 7.87054 11.5441 -0.035208 -0.154093 2.053274
H 2.66929 2.90883 3.66761 -0.70456 0.351737 -0.49595
H 10.122 8.49066 3.40683 0.129654 -0.074578 0.265301
H 9.25185 7.39774 4.08224 0.628179 0.59563 0.309581
H 7.13273 7.0345 0.44997 -0.143706 0.52487 -0.378271
H 4.20906 8.36478 4.98616 -0.48247 -0.306072 -0.528743
H 2.13793 11.4535 6.28684 0.078779 0.810169 -0.203582
H 2.77556 7.87847 4.34748 1.899505 -0.504716 -0.464914
H 7.81523 4.80596 0.27045 0.303585 1.479013 1.03257
H 7.93013 11.9185 9.28228 0.485436 0.958815 -0.345952
H 2.04686 8.09365 7.64923 -0.3139 0.172462 -0.121728
H 0.89767 8.0195 6.62507 -0.644078 0.313285 -0.286871
H 8.67384 10.4494 6.11107 0.362821 1.198386 0.565601
H 3.11527 1.14903 0.45309 0.060153 0.025442 -0.65337
H 7.13056 10.4766 2.62367 0.110889 0.294243 -0.247624
H 4.0589 10.298 5.94849 -0.293584 -0.108426 -0.231133
H 7.10722 10.5879 4.16745 -0.334879 0.241303 -0.42903
H 5.39629 9.83966 6.32494 1.871207 -0.526061 1.637313
H 1.67047 0.30551 0.62043 1.320064 0.572496 -0.281868
H 2.40368 7.49186 10.74 0.40047 0.174112 -0.16567
H 2.55691 1.3698 5.42644 -1.151517 0.023183 0.064906
H 3.88745 7.81948 10.2508 0.135615 -0.096862 -0.0626
H 0.54004 11.2808 0.90444 -0.497965 -0.049186 -0.936441
H 1.35351 10.9122 11.9797 -0.40515 0.991152 0.144596
H 10.4848 2.43743 11.9098 0.368144 1.134273 -0.721085
H 11.0024 4.59181 7.84684 0.055574 0.401377 -0.735193
H 1.21299 6.68709 3.0787 0.270287 -0.178549 0.026285
H 10.1636 5.81454 8.03918 -0.427931 0.078971 -0.154509
H 6.60295 2.95083 7.43854 3.108878 -2.083466 -1.065793
H 2.72093 12.2092 4.11185 -0.144996 -0.032335 0.251228
H 0.41708 2.83965 2.62261 -0.001218 -0.223286 -0.338513
H 4.94077 3.97712 6.27017 0.470099 0.072112 0.740078
H 8.44091 1.67128 6.42858 0.531548 -0.147962 0.160428
H 5.03786 6.75227 3.74208 -0.701163 1.143675 0.157996
H 6.45111 5.90672 3.73111 -1.186038 0.351355 -0.302193
H 2.63475 5.30858 8.86892 -0.03669 -0.161347 -0.308285
H 7.33986 1.74922 5.37053 0.627735 0.956402 0.355179
H 4.87392 2.85505 8.71901 0.126888 0.067932 -0.291606
H 6.20808 4.19376 8.2466 0.083421 -0.37631 -0.32671
H 10.758 3.40891 3.69811 -0.814508 0.219206 0.965029
H 11.2027 1.9319 3.35992 -0.148227 -0.010138 0.66058
H 0.26153 9.34306 8.51833 -0.038426 -0.19134 0.188941
H 2.94404 3.89371 9.57336 -0.585025 0.55996 -0.465836
H 6.7273 9.72848 8.1868 -0.068108 -0.056156 -0.266119
H 11.6693 6.63509 6.25562 0.256841 0.426393 -0.193192
H 11.2105 7.84621 5.34684 1.369432 -0.727545 0.338933
H 2.17335 10.0893 6.9921 0.173857 -0.152838 -0.080966
H 7.13184 9.00092 6.91784 0.646864 0.103245 -0.806782
H 6.70945 4.92518 10.4489 -0.065565 -0.543785 0.365853
H 8.8595 3.41106 5.24405 0.932709 0.344312 -0.281457
H 10.3668 0.0041 6.12415 0.068644 0.199359 -0.501495
H 9.99915 0.10916 7.61311 -0.080939 -0.241265 -0.043429
H 8.749 9.24682 5.19967 -0.212868 0.042201 -0.300355
H 0.67213 10.3007 2.62862 0.953949 -0.296174 0.232604
H 5.9489 6.55689 9.61589 -0.131904 0.155176 -0.089338
H 1.72666 2.1423 1.77447 -1.045292 1.072186 0.873672
H 11.7832 11.9558 3.99126 0.368619 0.557861 0.260792
H 12.3589 0.73486 4.93972 0.870408 -0.310414 -0.15216
H 9.61969 9.14197 1.45091 -0.919507 0.554211 0.220889
H 11.0266 8.5694 1.10485 -0.218761 -0.144152 0.82298
H 6.02487 4.14903 0.18442 -0.719922 0.049071 0.527791
H 6.74519 3.14558 11.6587 -0.030195 1.206345 0.340371
H 5.21186 8.70925 0.72634 -0.155895 0.33026 0.529258
H 10.0409 12.3846 0.30494 0.04392 0.030091 0.41005
H 9.19109 12.3447 11.4978 -0.594045 0.15357 -0.47567
H 11.6069 10.0545 2.33701 -0.54476 0.151769 0.010149
H 9.04688 9.59718 9.56475 -0.122849 0.078493 -0.037673
H 1.36337 1.12067 8.6199 1.707914 -0.363496 1.131157
H 0.50406 7.11001 4.39296 -0.046032 0.41954 0.394046
H 0.2631 2.34172 8.3913 0.297118 -0.003917 0.236998
H 2.76247 9.90142 10.6718 0.101372 -1.634456 -0.526894
H 3.62163 11.071 11.1343 0.477278 0.10474 0.452048
H 6.39 0.07106 3.86403 0.016098 -0.338726 -0.4198
H 0.52706 4.09373 8.91228 1.975481 0.922568 0.313574
H 1.37143 5.32507 10.6327 -0.364416 1.064034 2.016382
H 0.16583 7.71932 11.824 0.359151 -1.347054 -0.805041
H 0.58169 8.7117 0.4514 0.40425 0.357437 0.480815
H 1.324 5.5134 12.2927 0.849469 -0.341609 0.598129
H 11.6314 3.72807 9.69889 0.25276 -0.268595 -0.370045
H 12.1306 10.7336 8.78583 -0.272649 0.789349 0.145002
H 7.83623 5.65215 9.5667 -1.768249 -0.614734 -0.180159
H 6.60053 0.83218 1.10281 0.706352 0.880568 -0.139378
H 4.60486 3.41357 1.74175 0.653684 1.267059 -0.005902
H 5.13545 4.89759 2.25923 -0.180064 -0.253643 0.57044
H 10.2879 9.37604 8.68952 0.020708 -0.500764 1.595604
H 3.88285 6.85411 8.25391 -0.043022 -0.602197 -0.762083
H 3.45073 5.9321 6.99187 1.727724 -1.745394 -2.660267
H 7.04037 1.6232 2.3773 0.171181 -0.046999 -1.984464
H 9.10346 5.71432 0.52832 2.027885 0.449331 -0.736817
H 11.5931 5.97774 11.6809 1.286189 -0.423013 -0.095175
H 10.6196 4.71122 11.7368 0.540519 0.064048 -0.320046
H 9.88152 6.07641 10.4919 0.001116 0.147538 0.00292
H 5.77021 7.86085 8.80333 0.440345 0.858039 -0.930124
H 9.51448 7.35051 9.62089 -0.092116 -0.006871 0.030939
H 5.03702 1.25613 11.6571 -0.042597 0.463249 0.377892
H 2.90215 9.36159 1.53327 0.652177 -0.44393 -0.249105
H 4.49069 2.43816 10.8253 0.145373 -0.20295 1.278039
H 2.00431 8.28764 2.34649 0.23884 1.306952 -0.534973
H 4.93073 10.2581 0.79001 0.037961 -0.913444 0.243893
H 11.7369 0.57422 8.76957 -0.649128 -0.056761 0.615107
H 10.3107 0.47305 9.60998 0.308983 0.305143 -0.198527
H 5.59519 1.4603 4.00077 0.237802 -0.49401 0.013443
H 8.25577 5.80873 2.46378 -0.187715 -0.010608 -0.687745
H 8.12095 10.5788 0.77652 0.547389 1.626827 -0.830396
H 8.71615 5.14349 3.79526 -0.572286 0.824834 0.096848
H 7.45574 9.25435 0.88981 -0.371153 -0.873792 -0.140611
O 9.86938 1.89511 0.89274 2.45532 0.637082 1.202941
O 2.15825 5.12965 1.3116 0.935468 1.683962 -0.808127
O 4.3434 4.52648 5.74634 -1.313243 -0.641575 0.529396
O 2.88112 0.17725 8.89789 -0.337317 -0.171859 1.475166
O 3.03622 11.6688 3.3792 -0.012352 0.656094 -0.618247
O 4.16016 2.65507 9.36862 -0.912101 -0.385533 -0.222858
O 9.5938 4.0072 4.8394 -0.868557 -0.272644 -0.094657
O 1.01747 5.89588 11.4538 -0.167648 -0.091026 -2.762974
O 6.67034 7.88005 0.16436 0.211575 -0.683879 -2.031469
O 9.85619 8.17546 4.31376 -0.849701 -0.863217 -0.276112
O 7.8688 10.9603 9.36177 -0.432305 -1.259613 -0.060419
O 3.79744 7.87726 4.20922 -1.538466 0.636182 0.997746
O 8.228 5.61612 0.84054 -2.386875 -1.424774 -0.514883
O 3.35991 2.51473 4.20111 1.542442 -0.364787 1.089998
O 1.34463 8.64249 7.23207 1.137226 -0.22906 0.901789
O 8.10249 9.87514 5.61026 0.123535 -1.059206 -0.528394
O 1.74571 0.8178 5.63584 -0.088621 0.365504 1.157463
O 6.6481 10.9278 3.35228 0.140526 -0.750969 1.087441
O 4.83085 9.79835 5.58117 -1.826426 0.747763 -1.253362
O 2.45075 0.79067 1.05922 -1.124777 -0.282776 0.654528
O 2.97123 8.15463 10.294 -0.755001 -0.065102 0.219819
O 0.61702 11.4963 12.3288 0.314694 -0.717972 1.169646
O 10.6996 3.01831 11.0778 -1.31739 -1.13254 0.034991
O 1.32621 2.95766 2.27743 0.941746 -1.200325 -0.350158
O 7.89863 2.34286 5.98218 -1.047859 -1.066085 -0.599323
O 5.43351 5.8927 3.66346 2.273388 -1.825621 -0.067044
O 2.22629 4.57397 9.38378 0.099105 -0.501865 0.636466
O 5.88246 3.47182 7.63537 -2.535709 2.547717 1.473528
O 11.1315 2.84284 3.01706 0.813887 -0.876214 -1.109621
O 12.0268 9.83231 9.0902 1.668526 -0.32207 -0.787926
O 10.4947 5.26257 7.30255 0.296219 0.078044 0.194405
O 7.13149 1.63835 1.34871 -0.671201 -0.975904 2.084432
O 12.0599 7.4067 5.75959 -2.494137 -0.512687 -0.159883
O 2.71778 10.9005 6.82881 -0.169215 -0.733896 0.06717
O 6.3856 9.09931 7.51084 -0.332673 0.22581 1.680245
O 6.84381 5.26938 9.54273 2.074204 1.118674 -0.456769
O 9.60118 0.03181 6.71851 -0.134513 -0.067154 0.302436
O 11.5708 0.33577 4.56144 -1.113157 -0.268679 -0.436441
O 10.4663 8.91207 1.86247 1.081779 -0.615451 -0.916247
O 6.69438 4.12437 11.8748 0.697349 -1.528198 -0.565196
O 4.74568 9.39229 1.27064 -0.064871 0.814314 -0.765661
O 12.2342 10.7643 2.58184 -0.174586 0.500925 0.052924
O 9.5254 11.7477 12.1842 0.462716 -0.425819 -0.002921
O 9.87175 9.06617 9.54605 -1.405662 0.067149 -1.106208
O 1.17616 7.39905 3.73708 0.116764 -0.537954 -0.683758
O 0.62996 1.46218 8.1415 -1.897154 0.087045 -1.784338
O 2.7045 10.808 10.9581 -0.071517 1.108092 0.153225
O 12.2103 8.43327 12.3349 -0.30912 0.999601 0.344833
O 12.0268 3.84238 8.79215 -1.794006 -1.036962 0.68099
O 4.92554 4.31903 1.49491 -0.553561 -0.859808 -0.593598
O 3.18087 6.4047 7.72676 -1.307862 2.459179 3.488592
O 10.684 5.69886 11.7761 -1.642301 -0.435832 0.52138
O 9.36776 6.37976 9.69203 -0.350623 -0.054141 -0.489557
O 5.43708 7.429 9.58495 -0.248086 -0.800983 0.821085
O 4.67254 2.16496 11.7987 -0.231786 -0.621037 -0.806844
O 2.01169 9.13871 1.83268 -1.075306 -0.779715 0.244157
O 6.47508 1.03273 4.02955 -0.442248 1.263094 0.343195
O 11.0317 12.38 9.16421 0.334521 -0.157143 -0.474035
O 8.19511 5.93141 3.42988 0.700017 -0.678911 1.208412
O 8.07137 9.83741 1.35942 -0.127925 -0.710764 0.661409
Na 4.40639 9.92655 3.40644 0.355778 0.258572 -0.172253
Na 11.0091 10.1353 11.1528 0.431099 0.497301 0.026017
Cl 5.75334 11.6689 11.7874 -0.072087 -0.388633 0.072258
Cl 8.43635 1.40329 10.016 -0.186924 0.204333 -0.114079
184
energy=-999.60269518 config_type=nep2xyz pbc="T T T" virial="-13.980760700364755 -3.3574898574680923 -5.867660884611047 -3.3574898574680923 -10.8655710409845 -0.8176635042785336 -5.867660884611047 -0.8176635042785336 -6.576615960544589" Lattice="12.4 0.0 0.0 0.0 12.4 0.0 0.0 0.0 12.4" volume=1906.6240000000003 Properties=species:S:1:pos:R:3:force:R:3
H 9.77632 0.33611 2.22127 0.175852 -0.468958 0.306948
H 10.5327 1.44336 1.37035 0.101226 0.951876 -0.144797
H 1.65509 3.36843 3.76049 0.361205 0.794088 0.543474
H 1.23 3.21151 1.93681 -0.408216 0.567619 -1.49828
H 4.00597 11.6159 8.34511 -0.129137 -0.332967 0.206485
H 5.05226 12.3515 7.41039 -0.279358 -0.296603 -0.414574
H 3.52293 8.8619 2.37688 -1.74531 -1.500327 3.281171
H 5.50268 2.27153 2.61326 -0.113996 -0.153282 -0.357436
H 4.38273 0.53657 10.393 0.176179 0.023264 0.71154
H 11.6294 3.48851 0.94233 -1.139356 -0.103904 0.073114
H 1.88491 3.41574 10.6613 0.325504 -0.083007 -0.154844
H 11.3549 9.82653 3.94776 0.745256 -1.085815 -1.066674
H 9.60462 3.67703 2.30704 0.138785 0.098904 -1.059626
H 2.86636 2.42059 3.26438 -0.211038 0.898119 -0.068457
H 4.28627 4.28165 3.24179 0.082369 -1.079207 -0.499519
H 10.2255 3.49753 0.11892 0.03681 -0.044667 -0.379446
H 10.1442 6.81568 2.84574 0.04037 -0.815753 0.929712
H 10.7828 8.0337 2.27008 1.940462 1.411984 0.068333
H 4.28055 4.18171 1.7736 -0.12753 -0.238573 -1.013706
H 3.15551 10.034 4.96187 0.299103 0.117737 0.078599
H 7.19289 6.74077 1.81486 -0.106591 -0.443965 0.290103
H 3.92569 11.1831 5.78134 -0.503906 -0.241536 -0.011375
H 8.34443 5.20984 11.9417 0.121956 0.097355 -0.176445
H 5.26023 1.60727 11.4098 -0.074314 -0.731468 -0.167027
H 6.52513 10.0915 6.29585 0.619968 0.616543 -1.015439
H 8.01179 10.3943 5.98368 0.337454 0.157106 0.39855
H 9.87535 9.54473 5.95478 -0.135674 -0.338154 0.67283
H 11.9172 12.1967 1.76423 0.730727 -0.4426 0.290929
H 8.70919 8.51099 1.77547 0.688311 -0.495223 0.256137
H 5.30764 12.2497 2.4541 0.630995 -1.36226 0.562181
H 7.58529 9.33655 1.03974 0.268373 -0.114851 0.08078
H 4.81965 11.1054 3.44067 -0.872794 0.177199 1.068319
H 0.88843 12.0714 2.62058 -0.380861 -0.016568 -0.104983
H 10.9655 9.08504 10.368 0.44063 0.076424 0.210945
H 0.94837 3.60094 11.9562 0.348564 -0.83638 -0.961962
H 0.1113 8.78531 10.7209 -0.335984 -0.286864 0.080989
H 1.34935 6.43402 10.8988 0.173957 0.149925 -0.107503
H 2.84663 7.20366 10.9256 -1.144481 -0.65065 -0.166426
H 1.37397 4.73618 1.38089 -0.92714 -0.843462 -0.498294
H 10.0324 5.05143 7.84346 -0.177773 -0.480545 -0.19477
H 1.77491 5.68495 4.32353 0.196861 0.594336 -0.42318
H 11.57 4.84918 7.44431 0.601787 -0.93709 -0.781441
H 11.6469 5.61023 3.71035 -0.867716 0.205658 0.853741
H 4.31883 10.162 1.87522 -0.604059 -1.698091 0.267902
H 1.59766 0.96025 4.37149 0.261593 0.370527 -0.185199
H 6.54575 1.48868 3.41316 0.475263 -0.251543 -0.014429
H 6.04968 5.79818 6.85922 -0.124225 -0.220488 -0.0267
H 4.22977 6.63758 3.72843 1.2828 -0.815269 0.164112
H 5.699 5.94795 3.31 -0.046458 0.245913 -0.513652
H 11.7617 5.55345 9.48712 0.556932 -0.273075 0.674336
H 5.15662 6.13202 5.6257 0.015343 -0.180497 -1.685432
H 11.2447 10.8685 4.99585 0.218145 0.311436 0.699671
H 10.2033 5.0478 3.93593 -0.219513 0.128943 -0.119576
H 7.29238 1.2146 5.63203 -0.099285 0.015331 -0.060698
H 8.19383 2.18293 4.68023 -0.558602 -0.486052 0.0462
H 12.2261 1.99217 10.16 0.911645 1.43699 0.214905
H 0.31333 4.65508 10.5825 -0.812952 0.973326 -0.777547
H 6.95962 0.67006 7.70907 -0.312076 -0.054857 -1.110755
H 11.15 7.38615 5.50345 -0.433787 -0.901301 0.614492
H 10.7669 7.00469 7.08664 0.31972 -0.633049 -0.868767
H 6.90242 5.37477 1.16284 -0.06195 -0.345315 -0.937049
H 6.74195 12.0174 6.4182 0.762303 -1.071072 -0.155684
H 7.1957 8.00671 7.9447 -0.052128 0.683724 0.129076
H 8.26624 4.51774 2.6974 0.174861 0.14847 -0.468902
H 9.86099 11.1992 7.35783 -0.887432 -0.425204 0.275985
H 10.9159 12.1552 7.7119 -0.507679 0.322393 0.303918
H 8.99285 9.00784 7.24848 0.290033 -0.152174 -0.320708
H 0.66902 10.9619 7.01211 -0.563562 0.371369 0.017126
H 4.24718 8.40031 10.6005 0.358051 -0.110529 -0.592739
H 2.25202 11.8873 4.54545 0.48151 0.111212 0.221481
H 0.01707 8.67918 7.10409 0.382862 0.021256 0.324041
H 0.24188 9.23217 8.56831 0.479517 -0.060435 -1.156526
H 0.30623 9.99006 2.35827 -0.093219 0.101079 -0.138604
H 0.7426 8.54544 2.95115 -1.046049 1.227735 -0.053309
H 5.64772 7.8896 6.74105 0.116473 -0.439108 -0.677506
H 4.91271 8.93194 7.41959 -0.508253 0.573329 0.153622
H 5.80103 9.79027 11.6238 -1.153443 -0.043905 -0.021955
H 6.59819 1.49983 9.64293 -2.126639 -0.016334 1.552439
H 7.36903 2.54254 8.73467 -0.339838 0.717753 -0.139856
H 0.67204 12.0371 5.83515 -0.36911 0.084182 1.17067
H 7.87208 11.1269 12.0323 -0.543999 1.042042 0.361278
H 3.02054 0.81121 7.59093 -0.134537 0.513386 -0.437159
H 1.15292 4.82677 5.39817 -0.631667 -0.479073 -0.75516
H 1.52823 0.76933 7.75376 -0.069231 0.489144 -0.304469
H 8.6592 0.1292 3.9567 -0.067268 -0.112174 0.87117
H 9.66999 11.1921 3.93521 0.227448 0.102363 0.512151
H 6.93343 3.30858 12.1314 -0.016033 -1.439119 0.319141
H 10.5917 3.36059 10.2137 -0.484028 0.086476 -0.234348
H 5.05703 4.70326 11.9181 -0.585629 0.578404 0.089434
H 1.82647 6.83001 2.15187 0.00397 -0.953285 -0.587584
H 1.98864 6.66894 0.54734 -0.692165 -0.881787 0.420472
H 4.13003 5.9293 12.2938 0.016828 -0.031222 -0.153548
H 9.03325 3.62155 9.88027 1.238664 -0.473502 0.770683
H 12.2083 0.53241 10.4475 -0.531377 0.441183 -0.184007
H 8.12639 6.80946 7.93123 0.328878 0.890322 0.506704
H 3.87148 5.55322 7.19263 -0.024739 -0.598933 0.829684
H 4.2088 2.75732 9.95042 -0.412652 -0.47495 -0.275402
H 2.92918 2.57729 9.0215 -0.029124 -0.840766 -0.487996
H 8.27623 9.83928 11.4579 -0.334694 -1.034436 0.079913
H 1.65774 4.38408 7.26814 -1.097859 -0.91387 -0.39163
H 1.25212 2.85544 7.09892 -0.405869 1.416809 -0.410518
H 3.31653 4.64008 8.49226 0.563689 0.362371 -0.412766
H 6.84068 5.36501 11.2266 0.793605 -0.55191 0.779752
H 5.12983 6.31889 10.2647 -0.578648 0.931169 -0.617582
H 6.14675 5.384 9.41739 -0.039718 0.126391 -0.198539
H 8.91617 8.31881 9.94346 -0.106883 0.62939 0.273015
H 3.69789 7.79218 9.16639 0.096565 0.746032 0.015264
H 9.50646 7.77211 11.1982 0.165793 -0.257151 0.712681
H 2.61614 11.7542 10.5873 0.045804 -0.146434 -0.540495
H 2.27444 8.46333 7.77024 -1.492083 0.552074 -0.183033
H 3.91825 10.9627 10.8803 0.092965 -0.038933 -0.791338
H 3.15477 7.21513 7.82234 -0.487436 -2.693878 -0.327658
H 4.52814 9.47803 0.13083 -0.236635 -0.387627 0.0427
H 0.75957 11.6547 12.1049 -0.165091 6.2e-05 -0.473624
H 0.37586 10.9708 10.7082 -0.093223 -0.064034 0.402463
H 6.75343 2.24808 0.89093 -0.20384 -0.376506 1.487251
H 10.2515 6.60141 0.37046 0.146826 -0.197509 0.027937
H 9.28333 0.34709 0.16825 -0.816042 0.02037 -0.856649
H 10.8354 5.89829 11.3937 -0.359244 0.512332 0.623852
H 8.05116 1.22739 12.0205 0.222385 -1.277839 -0.226183
O 10.4611 0.49821 1.53867 -0.236102 -0.450314 -0.373968
O 1.94035 2.47017 3.55532 -0.425578 -1.264043 -0.3221
O 6.1143 1.50168 2.52823 -0.693129 0.441242 0.151293
O 4.19793 11.8252 7.41531 0.308469 0.626803 0.23573
O 3.93166 9.23862 1.66174 2.507011 3.268566 -3.618142
O 10.7398 10.1422 4.61566 -0.350214 0.691641 0.51367
O 8.99452 3.9525 2.99508 -0.327918 -0.150402 1.711477
O 4.36603 5.02736 0.12505 0.220139 -0.804952 0.457946
O 4.2087 3.57024 2.52667 0.392165 1.379154 1.44637
O 9.99645 7.53481 2.22172 -1.384474 -0.367965 -1.470132
O 5.04696 1.26118 10.5144 0.420991 0.762679 -0.416813
O 3.50196 10.9498 4.91924 0.512923 -0.328895 -0.126574
O 7.43538 4.8628 11.931 -0.493776 0.327565 -0.270595
O 10.6425 3.22371 0.9442 1.243238 0.018121 0.419631
O 7.11291 10.7331 5.74354 -1.348675 -1.506511 0.154955
O 9.27987 9.77816 6.71002 0.047624 0.073304 -0.443703
O 0.95065 3.38737 10.9415 -0.148715 0.465067 1.455952
O 7.80165 8.81531 1.85227 -1.388604 0.343179 -0.115728
O 5.36455 11.2476 2.66939 0.125808 1.635951 -1.230475
O 0.39586 11.7004 1.85555 -0.251889 0.182002 -0.259506
O 11.9106 9.35768 10.2213 0.132117 0.190746 -0.168178
O 2.00533 6.93681 11.4265 0.481986 0.665474 0.004995
O 0.92283 3.80158 1.1661 0.871452 0.111891 1.631467
O 1.42713 0.0064 4.44581 -1.028341 -0.365991 -0.262206
O 5.25484 6.29009 6.56777 0.514058 0.0591 1.327438
O 4.96082 5.95952 3.9481 -1.296506 0.347877 0.287043
O 12.2122 5.56729 10.3798 -0.122566 -0.487359 0.045215
O 10.7407 5.8625 4.04905 1.1499 -0.555227 -0.507111
O 7.62814 1.37965 4.70482 0.858863 0.827359 -0.323983
O 11.6391 1.26247 10.0681 -0.118089 -1.945709 0.001326
O 10.9473 5.32927 7.97689 -0.562082 1.128937 1.000778
O 3.1317 5.35304 7.82801 -0.60869 -0.02821 -0.074221
O 11.1412 7.62691 6.44249 0.475857 1.440483 0.112456
O 6.91702 5.8141 2.01803 0.346882 1.089007 0.95515
O 6.52897 0.48119 6.81038 -0.370303 1.830853 1.731624
O 8.12035 7.78802 8.1655 -0.108847 -1.345979 -0.277348
O 9.95698 11.9993 7.90732 1.573499 0.240058 -0.451128
O 0.693 9.1547 7.66496 -0.973924 0.028442 0.924988
O 12.3616 9.1536 2.75127 0.94247 -1.073906 0.178253
O 5.75854 8.84012 6.96033 0.095335 -0.125116 0.58068
O 4.79623 9.63989 11.5998 1.373737 0.334888 -0.108787
O 0.2732 11.8379 6.76647 0.777045 -0.447028 -0.945878
O 7.29592 1.63804 9.03925 2.518478 -0.857375 -1.33051
O 7.54528 10.2103 11.9973 0.137916 0.138939 -0.407483
O 1.07829 5.02752 4.42626 0.330991 -0.377686 0.807291
O 2.24715 1.43578 7.63621 -0.027417 -1.065371 0.616161
O 9.01472 11.7543 3.49077 -0.883029 0.11766 -1.43685
O 1.6971 6.18504 1.40687 0.634981 1.686705 0.494202
O 9.68419 3.0831 10.4223 -0.997589 0.730846 -0.535823
O 3.41043 3.19359 9.58052 -0.105785 1.284289 0.392605
O 0.8917 3.78835 6.93481 1.704398 0.102372 0.906355
O 5.79218 5.61922 10.2895 0.663602 -0.979392 -0.017623
O 9.26652 8.6442 10.8125 0.251361 -0.703478 -1.55413
O 4.08271 7.58082 10.0439 0.315115 0.134762 1.277259
O 3.48722 11.5308 10.1759 -0.274887 0.066466 1.076163
O 3.16438 8.13182 7.6617 1.554802 1.904258 0.01503
O 6.6814 2.32657 12.3483 0.463053 1.830997 -1.695907
O 0.79237 11.7558 11.1239 0.316367 -0.217002 0.385863
O 10.0196 6.24525 11.8918 0.235339 -0.21402 -0.525748
O 8.54728 0.35111 11.8729 0.653831 1.004572 0.865615
Na 7.11266 10.1312 3.5049 0.371352 0.297984 -0.054741
Na 9.4836 0.77183 9.64606 -0.177558 0.374764 0.44181
Cl 2.65572 7.89323 4.0979 -0.313572 -0.03696 -0.126989
Cl 7.69033 4.64583 7.91858 0.123079 0.118381 0.066682
184
energy=-999.14458545 config_type=nep2xyz pbc="T T T" virial="-7.00878402663947 -0.24592976247154963 4.52933934454159 -0.24592976247154963 -10.036697537855282 -7.239921826720999 4.52933934454159 -7.239921826720999 -1.2078476256332789" Lattice="12.4 0.0 0.0 0.0 12.4 0.0 0.0 0.0 12.4" volume=1906.6240000000003 Properties=species:S:1:pos:R:3:force:R:3
H 1.24789 1.93555 2.75458 -0.489297 0.489001 0.30934
H 2.0471 2.60301 1.59864 0.105104 -0.990203 1.010341
H 11.606 8.94966 2.5654 0.117637 -0.532779 0.133437
H 4.15224 2.67617 0.45443 0.57243 -0.869848 -0.538173
H 5.58636 0.95045 1.16201 -0.465337 0.384964 -1.676844
H 5.96244 0.70051 2.51128 0.573107 -0.659987 0.467403
H 8.87245 3.9327 3.74927 0.213077 0.179702 -0.518716
H 9.55079 2.53939 3.3258 -1.020382 0.687556 1.497701
H 10.2601 2.29955 1.42133 0.32072 -0.68858 1.017516
H 10.6077 0.7849 1.81228 -0.373587 0.605118 0.269233
H 1.41504 5.80209 1.16887 -0.457328 0.057432 0.245033
H 3.2166 8.29215 3.20535 -1.669108 1.668194 -1.066181
H 3.4001 7.45321 4.57252 -0.521713 0.637805 -0.498381
H 1.47772 7.30231 1.56629 -0.133351 0.550326 -0.154043
H 10.3934 6.4047 0.43162 0.531002 -0.757471 0.286172
H 11.7576 5.82802 1.03487 0.321306 0.207956 -0.01541
H 3.11342 4.39777 1.27703 0.166484 -0.054037 0.165459
H 4.51707 4.62817 3.49834 0.314034 -1.197912 1.923576
H 3.91019 5.90327 2.87479 0.12024 0.567934 0.297088
H 5.78643 4.51256 4.99932 -0.405215 0.125653 0.928194
H 6.49085 6.50832 1.0732 0.066782 -0.743208 -0.055044
H 5.66846 5.33271 1.81437 1.327818 0.343637 -0.504121
H 9.00504 3.12297 12.1902 0.15829 0.596266 0.15337
H 10.2131 4.13189 0.20712 -0.057744 -0.342343 0.062691
H 4.37557 3.98584 5.62915 0.949664 0.06581 -0.142256
H 9.5669 5.46661 1.96008 -0.435466 -0.520945 0.753264
H 8.02314 5.45684 2.33713 -0.193148 -0.078032 -0.311902
H 2.7629 0.09789 1.71595 0.098939 -0.591796 0.637548
H 4.18223 11.9724 1.78744 0.069451 -0.406386 0.385676
H 1.5063 9.58504 2.40451 0.606853 -0.716671 -0.792548
H 2.52299 9.81429 1.26624 -0.107754 -0.705388 0.469846
H 11.9478 7.38221 2.19039 -1.986205 2.361765 0.426985
H 6.31195 6.84031 5.7533 -0.231221 0.398897 -0.747397
H 6.99106 11.3172 1.32422 -0.750266 0.803551 0.668435
H 5.29362 8.67582 4.8593 -0.868711 -0.100582 -0.552228
H 7.63552 11.1692 0.0231 -0.014942 0.750243 -2.377611
H 6.25268 9.16031 5.94441 -0.218334 0.695946 0.776702
H 10.6963 11.3636 0.26056 0.21896 -0.645483 -0.519965
H 11.7446 11.0259 2.72244 0.465808 -0.729928 0.400617
H 7.41565 8.53696 4.07822 1.463942 0.151654 -0.567119
H 3.53575 10.1732 11.1223 -0.257977 0.25329 0.335507
H 9.60715 11.5099 1.34201 0.930157 -0.039101 -0.309658
H 0.53589 10.8771 3.79338 -0.487402 -0.309226 -0.59531
H 2.64159 3.84357 7.27096 1.519814 0.089575 -0.216146
H 0.08465 2.41744 4.56243 0.241776 -0.220046 1.688925
H 1.03588 11.5192 7.71707 0.248446 0.182846 0.08418
H 7.52604 2.21439 4.04135 1.192027 0.54517 -0.060908
H 6.35585 0.85888 5.44483 -0.152756 -0.232714 0.830013
H 4.09265 4.25926 7.98122 -0.303948 -0.210868 -0.30972
H 5.99918 2.46894 4.02609 0.066295 -0.041008 0.207033
H 7.1053 1.05707 6.78998 -0.514081 -0.310046 0.042606
H 11.6441 2.05073 3.22765 0.336134 1.058686 0.292062
H 9.80112 3.19731 5.60387 -0.037593 -0.37887 -0.931238
H 8.66636 2.84729 7.44632 0.426784 0.72571 -0.657631
H 11.0006 2.97806 6.65884 -0.159902 -0.043039 -0.24642
H 9.12551 1.66308 8.13613 2.08 -1.599192 0.810267
H 3.13428 6.88721 6.75392 0.117776 -0.821613 -0.26916
H 2.45 8.1532 6.89158 0.001526 -0.263864 -0.878046
H 2.94938 10.2203 7.73073 0.143742 0.834945 -0.397227
H 3.59407 9.15905 8.68845 0.709248 -0.044899 0.525157
H 6.5118 6.13503 7.02477 0.016944 -0.741126 -0.402854
H 6.46568 11.3238 6.7885 -0.378425 0.109641 0.788375
H 9.02977 7.61915 6.70689 -0.047414 -0.265524 0.027142
H 6.2721 10.131 7.98272 -0.296894 1.015962 -0.976052
H 8.28481 6.35074 6.10975 1.302125 0.455651 0.656387
H 11.7319 4.37858 3.8796 -0.263601 1.347865 1.101548
H 12.3822 5.7544 3.94375 1.035798 0.777355 -0.182227
H 1.66143 0.33171 4.15697 -0.395789 0.77963 0.265918
H 2.62973 11.7612 3.69556 1.439321 -0.653143 -1.544846
H 2.39554 11.6623 6.01568 0.55343 0.574922 1.028028
H 3.17619 0.1725 7.16507 0.045363 0.156552 -0.165828
H 0.50409 10.6386 8.84601 0.185862 -1.209475 1.236285
H 9.75295 9.41673 6.93344 0.927809 0.6657 -0.578393
H 8.23265 9.7517 6.8746 -0.330035 0.222923 -0.330158
H 5.02844 1.04175 7.28735 0.599473 -0.462446 -0.395803
H 8.39114 8.83303 2.84545 -0.167452 0.835679 -2.65075
H 11.2397 10.0914 5.36244 -0.32447 -0.406492 1.370841
H 11.6975 10.5063 6.83668 -0.19803 -0.168489 0.441503
H 0.49789 2.19391 9.99795 -0.631359 -0.040662 0.203229
H 1.14678 2.30337 8.58719 -0.276857 0.105741 -1.040618
H 2.65228 1.24897 9.99957 0.089282 -0.170557 -0.229958
H 4.21356 1.57921 11.7021 0.156506 0.176126 -0.011493
H 5.33523 3.7767 9.73926 0.052604 0.56864 -0.406656
H 6.77209 2.047 9.11761 0.666893 0.083652 -0.601933
H 6.41153 1.34674 10.406 0.010791 -1.087048 0.524667
H 10.7692 2.63211 11.3163 0.369472 -0.125805 -0.911079
H 6.88192 3.22806 11.1813 -0.035528 0.070581 -0.18794
H 11.2267 3.35524 10.0163 -0.044066 1.595141 -1.005343
H 10.9022 1.21548 9.41572 -0.828759 0.94861 1.488191
H 1.19106 5.7408 10.7648 -0.290306 1.32769 -0.217007
H 0.42583 7.05566 11.2846 0.075533 -0.023233 0.248224
H 1.24735 8.64214 9.64755 -0.145429 0.028901 0.235474
H 5.65168 5.30205 9.18192 0.371086 0.601589 0.205742
H 2.48872 3.96812 12.2569 0.291879 0.683625 -0.01125
H 2.14919 3.7464 10.3192 -0.306809 -0.681083 -0.617078
H 3.48256 4.59421 10.1351 -1.104491 0.109096 1.107435
H 8.77864 6.48029 10.7992 0.285037 0.490775 0.790464
H 7.35778 6.41169 9.26478 0.430567 -0.343907 0.053723
H 8.1709 4.97756 10.7046 0.670811 1.102076 -0.306721
H 6.91303 4.30016 12.3765 0.654202 -0.002982 -0.680801
H 11.8537 5.48911 9.5003 0.903552 1.04868 0.739972
H 11.5485 9.86284 11.1062 -1.047891 -0.120368 0.644292
H 10.0786 10.1899 10.7821 -0.625759 0.332798 -0.70987
H 10.3135 5.22591 9.61586 0.524583 -0.069739 -0.309271
H 12.1689 8.1663 6.62552 0.173513 -0.827884 -0.449245
H 4.07553 0.77011 9.52457 -0.186697 0.329427 -0.188177
H 1.46742 9.92829 10.5257 0.005838 -0.34234 0.157032
H 6.7617 8.96699 0.75875 0.034418 0.610767 0.072126
H 6.11438 8.36597 11.9111 -0.69739 0.3458 -1.283962
H 6.1685 7.43534 9.17503 -0.041009 -0.794507 -0.242776
H 4.05419 2.22032 7.26975 -0.313901 -0.29676 0.512793
H 6.38489 10.9643 10.6938 0.536741 0.813236 -0.274778
H 7.71887 11.4817 10.1242 1.838458 -0.734265 -1.202436
H 8.62817 8.17311 0.12041 -0.010002 -0.693654 -0.075371
H 3.19038 11.6274 11.3299 0.299113 1.728668 -0.678199
H 10.0767 8.45309 12.1306 -0.342728 -0.403278 -0.239698
H 0.76785 6.93538 6.1894 -1.394776 1.163955 0.467404
H 9.04077 10.1288 8.77506 0.553485 1.001797 0.742272
H 11.3934 0.41381 8.37975 0.27184 -1.25311 -0.849592
H 9.79529 11.5981 9.14384 -0.467309 -0.895299 0.377346
O 2.04684 1.8078 2.23518 0.553497 0.311999 -1.326058
O 4.753 2.03185 0.0036 -0.703599 0.668365 0.426327
O 5.81973 0.18126 1.68933 0.013212 0.286931 1.191893
O 9.02732 3.03004 4.08374 0.854369 -1.214727 -0.92292
O 10.4402 1.6906 2.23658 -0.067796 0.028005 -1.545599
O 0.84581 6.56964 1.42697 1.248572 -0.719834 -0.15177
O 3.72198 7.66704 3.66918 2.013127 -2.321222 1.558742
O 10.8756 5.56658 0.75273 -1.647364 0.724178 -0.612323
O 2.33894 4.00687 0.83388 -0.214562 0.140811 0.144439
O 4.32274 5.0499 2.67539 -0.672458 0.797249 -2.583538
O 6.53113 5.9364 6.0458 0.373336 0.291272 1.247601
O 5.05312 3.87955 4.89847 -0.301196 -0.229986 -0.55267
O 6.56362 5.54531 1.33321 -1.296459 0.333533 0.435903
O 9.94497 3.17752 0.07974 -0.228772 -0.029911 0.386875
O 8.9165 5.27106 2.69731 0.536865 0.731239 -0.447479
O 11.187 8.08415 2.37716 1.631748 -2.094702 -0.236299
O 3.26693 11.7001 2.04016 -0.2359 1.040096 -0.578663
O 2.15861 9.08058 1.83674 -0.662593 1.233738 0.355697
O 7.6686 10.8066 0.88342 0.977366 -1.614467 1.701255
O 6.07975 8.42666 5.33649 0.75886 -0.38207 -0.4631
O 10.5729 11.6961 1.16094 -1.304276 0.334342 1.336303
O 2.87162 10.7659 11.5416 -0.253025 -2.358235 0.049886
O 12.2129 10.3669 3.30859 0.153757 1.464213 0.117346
O 8.36775 8.59162 3.73043 -1.139668 -1.082542 3.369625
O 6.68365 1.79514 3.83981 -1.708886 -0.687717 0.108484
O 3.64442 3.9301 7.14817 -1.413784 0.170843 0.334756
O 12.3144 2.67681 3.67154 -0.734605 -0.284912 -1.784141
O 8.32978 2.07165 7.8903 -3.205329 0.14536 0.10747
O 10.0748 3.28146 6.52443 0.415088 0.920606 0.868266
O 2.44874 7.34766 6.25387 0.505571 0.841012 1.00473
O 3.02004 9.2769 7.93436 -0.989008 -0.790755 -0.331742
O 6.02224 10.4956 7.09052 0.635504 -1.450136 0.320521
O 9.20577 6.7021 6.38659 -1.678835 -0.406775 -0.980087
O 11.6245 5.31973 4.30279 -0.618041 -2.477792 -0.787189
O 2.62818 11.764 6.98505 -0.949893 -0.91364 -0.769748
O 1.91162 11.8236 4.31662 -1.157228 -0.191897 1.130162
O 0.21038 11.2244 8.16703 -0.246815 1.104416 -1.775878
O 6.31593 0.5703 6.41252 1.724743 0.94328 -1.127003
O 8.88422 9.19619 7.30292 -1.084485 -0.685482 1.004691
O 11.0783 9.91289 6.33877 1.147387 0.602772 -1.824547
O 1.33612 2.14613 9.51557 1.006779 0.090251 1.326515
O 4.96801 4.63324 9.40682 -1.082503 -1.747679 0.273188
O 6.16068 2.08486 9.85833 -0.254229 1.004032 0.106346
O 11.211 2.49157 10.4075 0.147402 -1.480804 1.373258
O 7.43722 3.91374 11.6076 -0.676773 -0.122475 0.953741
O 2.61968 4.4961 10.7022 1.15672 0.250972 -0.798247
O 0.66569 6.55643 10.5005 0.558315 -1.415178 -0.262106
O 0.78275 9.3038 10.1846 0.198423 0.796204 0.039241
O 6.48411 6.54055 8.84382 0.029669 1.137915 -0.208867
O 8.706 5.71882 10.2218 -0.675308 -1.29786 -0.379188
O 10.6496 9.97793 11.5443 2.054652 -0.282012 -0.137071
O 11.1675 4.90891 9.19974 -1.695662 -0.6015 -0.462334
O 3.46038 0.75059 10.2739 0.134877 -0.028836 0.855256
O 6.52222 8.13653 0.33543 0.85786 -0.830093 1.410003
O 4.17038 1.30989 7.64219 -0.599188 0.752592 -0.018767
O 7.00749 11.7414 10.679 -2.393541 0.047483 1.598163
O 9.42862 7.69185 12.2269 0.197844 0.779691 0.017349
O 12.1992 7.23361 6.30798 1.074752 -0.074806 -0.020126
O 9.24935 10.8027 9.50276 -0.147271 -0.258683 -1.079103
O 10.561 0.50237 8.85335 0.204069 0.443419 -0.739011
Na 10.9374 5.4907 6.79869 0.236862 -0.500049 0.177093
Na 10.0067 6.87004 4.01514 -0.226276 0.376957 0.143737
Cl 0.64338 2.78185 6.72546 0.15924 0.068461 -0.234762
Cl 5.28798 9.06513 10.0771 0.043102 0.144893 -0.054751
184
energy=-999.7345894 config_type=nep2xyz pbc="T T T" virial="-7.239826625032246 -1.3206854272279382 -0.8688106115611581 -1.3206854272279382 -16.841535746763338 7.138389225665776 -0.8688106115611581 7.138389225665776 -15.551505263313912" Lattice="12.4 0.0 0.0 0.0 12.4 0.0 0.0 0.0 12.4" volume=1906.6240000000003 Properties=species:S:1:pos:R:3:force:R:3
H 1.34067 1.52104 12.2878 0.068743 -0.405331 0.124326
H 2.68249 2.07952 0.11665 1.429815 2.172643 0.283658
H 12.1865 8.36011 3.26709 0.494113 0.328119 1.088073
H 5.06207 3.09228 12.3414 -0.56411 -0.04903 -0.353791
H 6.22976 1.74992 1.65289 -0.550014 -1.33143 0.896284
H 6.297 1.36515 3.21871 0.140963 -0.101988 -0.224495
H 8.94629 4.07931 3.51854 0.219237 -0.478645 0.121906
H 9.3458 2.58384 3.08304 -0.084276 0.754933 1.195454
H 10.3742 2.61548 1.29205 0.270912 -0.528442 0.940546
H 10.5251 1.07111 1.74388 0.413333 0.861221 0.543933
H 0.91396 4.60166 1.99726 -0.261689 -0.978012 0.567121
H 3.22806 7.55463 2.80593 -0.717257 -0.990159 0.017966
H 2.41142 6.82722 3.87195 -0.289934 -0.138346 0.988585
H 1.532 5.95084 1.92983 0.210188 0.393958 -0.10549
H 10.8499 6.86172 0.68812 -0.093873 0.821294 -0.310036
H 12.0429 5.86263 1.0096 0.138044 -0.242421 -0.11893
H 3.97136 4.41467 1.13763 -0.817919 -0.228186 -0.756876
H 4.78231 4.51903 3.24281 -0.193434 0.599408 -0.27191
H 3.89993 5.68202 2.64862 0.020843 -0.019738 0.374066
H 5.4608 4.93976 5.32694 -0.398798 -0.564434 -0.399328
H 6.87827 7.04468 1.37523 -0.390596 -0.021277 0.040656
H 5.9446 5.86701 1.93074 0.095734 -0.223528 0.188332
H 8.97324 3.86973 12.2667 0.811777 -0.141127 0.866096
H 10.3429 4.55698 0.23125 -0.095819 -0.642031 0.622333
H 4.11411 4.19832 5.60831 -0.981444 -0.021307 0.641215
H 9.8769 5.75261 2.10106 0.700842 -0.071644 -0.281721
H 8.38428 6.01884 2.34841 0.479768 -0.152865 0.775683
H 2.97392 0.07262 1.46617 0.179592 -0.252095 0.970051
H 4.18624 0.17911 2.41283 1.195418 0.497888 0.04545
H 3.56083 10.2507 2.47693 0.171842 0.137124 -0.353409
H 4.59215 9.21624 1.84355 -0.291622 0.322338 0.30067
H 11.4627 7.99628 2.13158 -0.827689 -0.288786 -0.944913
H 6.27367 6.88087 5.0484 0.387938 0.092072 -0.008679
H 6.89691 12.0039 1.80842 -0.10675 -0.139091 -0.496578
H 5.19178 9.34236 4.07101 0.068162 -0.494947 -0.811755
H 7.24176 11.9206 0.30683 -0.273513 -0.43133 0.463605
H 5.97642 9.20902 5.322 0.47684 0.269967 1.406002
H 10.3711 10.2866 1.21883 0.11093 0.379038 0.356763
H 11.633 10.6789 3.08507 0.031344 -0.162709 1.118461
H 7.80756 9.08584 3.96331 1.619246 -0.195804 0.066784
H 3.34659 9.47954 10.8379 1.491043 -0.731881 -1.436205
H 9.1964 11.1704 1.74305 1.041427 0.011044 -0.034014
H 0.55794 10.6965 4.00388 -1.424416 -0.025431 0.055955
H 1.92898 3.95066 6.60363 -0.292162 -0.366807 -0.3491
H 0.4361 3.16644 4.0912 0.098601 0.13803 -0.703312
H 0.91836 11.1615 8.19875 0.51469 -0.212419 0.075028
H 7.46371 2.68046 4.52609 -0.210694 -0.836713 -0.034107
H 6.31817 0.74634 5.9132 0.183573 0.004277 0.685637
H 2.66525 4.78021 7.63493 -0.136441 -0.051894 0.584521
H 5.92975 2.66338 4.7863 -0.601938 0.619478 0.342583
H 7.00186 0.19383 7.19882 0.745973 0.400566 0.116482
H 12.126 2.95954 2.73918 -0.970679 -1.000596 -0.593926
H 9.53997 3.0759 5.40567 0.045322 0.078357 -1.001858
H 9.37119 1.92584 7.08202 -1.226344 -0.898232 1.299861
H 10.8964 2.81874 6.12445 1.156764 -0.593268 -0.428523
H 9.53313 0.78029 8.20454 -0.274637 0.386536 -0.272774
H 2.52996 6.27787 5.9488 -0.725974 -0.636348 -0.358833
H 2.31957 7.72801 6.14572 -0.21786 0.607855 -0.313029
H 2.73092 9.78216 7.25534 0.204235 -0.512679 0.307728
H 3.12927 8.5244 8.11495 0.508656 0.061431 0.839511
H 6.20907 6.50596 6.52246 -0.30501 0.204935 1.517469
H 5.92622 10.9415 6.84154 -0.057386 1.304291 -0.365349
H 9.07172 7.29152 7.0575 0.255723 -0.058425 -0.250525
H 5.96425 9.77649 7.82675 -0.223559 -0.08748 -0.574209
H 8.27176 6.33807 6.21736 -0.567004 -0.239311 -0.540916
H 11.8197 4.94615 4.08126 -0.040854 -0.11838 0.151729
H 0.13227 5.76741 5.14177 0.816826 0.461428 0.060773
H 1.41338 0.4395 4.69231 -0.387066 0.583517 0.357379
H 2.47549 12.1333 3.77389 -0.460905 -0.105605 0.608975
H 2.31555 11.7049 6.34792 0.101351 0.502349 -0.154465
H 3.01025 12.3773 7.63939 -0.654725 -0.832276 -0.653235
H 0.44043 10.0206 9.301 -0.28983 0.771494 -0.257529
H 9.3258 9.44653 7.19649 0.050629 -0.416798 0.659962
H 7.85299 9.33529 7.54779 -0.305056 -0.039211 -0.062825
H 4.89818 1.11592 7.8181 2.162378 -1.356902 -1.417758
H 9.1357 9.86815 3.59439 0.053581 -0.29782 0.050769
H 11.4525 10.0897 5.82171 -1.551753 -0.321439 1.596203
H 11.5515 10.1969 7.39635 0.322375 0.500471 0.821383
H 0.60488 1.88083 9.71753 -0.520754 -0.042502 0.023719
H 1.52353 1.66087 8.46681 -0.200518 0.081393 0.737321
H 2.90633 0.42008 11.2118 -0.425166 0.89214 0.603477
H 5.88578 1.75318 11.8598 -0.324153 1.542785 0.969158
H 5.99169 3.52702 9.53422 -0.381055 -0.17128 -0.241006
H 7.94381 1.95133 8.84886 -1.230155 0.541667 1.187841
H 6.82722 1.51501 9.98185 0.558702 0.244637 -0.340845
H 10.6922 2.61253 11.4122 0.354651 0.318667 -0.346491
H 7.13089 3.9223 11.438 -0.096396 -0.130004 0.025646
H 11.1325 3.38512 10.1321 -0.17995 0.286083 -0.346182
H 11.0787 1.1022 9.91879 -0.417478 -0.911916 -0.893768
H 0.22345 6.76714 8.62826 0.103109 -0.125823 -0.364013
H 0.96911 5.66289 9.63297 0.04735 1.015059 -0.498122
H 0.49488 8.17916 10.1758 0.702609 -0.23578 0.719305
H 5.45009 4.86073 8.99955 0.217297 1.100524 -0.500227
H 2.72834 4.77569 0.19053 0.48305 -0.696214 0.282901
H 1.85823 3.55424 9.59043 0.268466 -1.3737 0.050052
H 3.16866 4.47835 9.59184 -0.193829 -0.566844 0.458773
H 8.62963 7.33359 10.1227 -0.033554 -0.630224 -0.063717
H 6.84134 6.68002 8.73563 0.034928 -0.248625 -0.181514
H 8.01218 5.89224 10.3832 0.717612 0.571878 -0.572972
H 7.24785 5.13192 0.01418 0.21378 -0.090536 0.116456
H 11.4744 5.54594 9.61325 0.307971 0.536264 -0.030619
H 11.5219 8.77328 12.2199 -0.406713 0.188965 0.128517
H 9.90985 8.65565 12.29401 0.924819 0.25458 0.668139
H 9.97929 5.18225 9.71841 -1.161276 0.616105 0.171692
H 11.6847 8.28987 7.02735 0.268234 -0.910772 0.068743
H 3.57516 0.50974 9.7693 -0.223648 -0.797335 1.455218
H 1.30303 9.38446 11.1152 -0.176262 -1.342133 -0.735087
H 6.53172 9.7838 0.80778 -0.035777 -0.597652 0.184217
H 5.78147 8.98427 12.1135 0.109339 -0.420319 0.796071
H 5.46848 7.3671 8.66264 0.308653 -0.545706 -0.151671
H 4.38563 2.33102 8.45468 -0.356327 0.459001 0.366633
H 5.26242 12.1325 10.7633 0.829387 0.10487 0.670566
H 6.7845 11.569 10.8164 -0.294855 0.434066 -0.404292
H 7.78772 8.48148 11.8762 -0.09785 -0.113265 0.501835
H 2.62796 10.786 11.1745 0.864853 -0.866377 0.167746
H 8.53846 9.41175 10.886 0.754635 -0.376182 0.526991
H 0.43127 7.25944 6.58792 0.314792 0.187872 -0.235053
H 8.85891 10.4306 9.1123 -0.420371 -0.47823 0.068245
H 11.6005 12.1133 9.19161 0.371933 -0.43522 -0.088586
H 9.49235 11.4755 9.9673 0.739519 0.834061 0.368472
O 2.25552 1.25011 0.0728 -1.689167 -1.308225 0.114679
O 5.88356 2.59191 0.0302 0.829086 -1.610926 -0.664238
O 6.09627 0.98629 2.32295 0.108996 1.432646 -0.511938
O 8.94937 3.13885 3.84389 -0.025505 0.172929 -1.419947
O 10.7029 1.99616 2.06212 -0.882731 -0.552878 -1.3385
O 1.04743 5.31635 1.37195 0.464101 0.840725 -0.556461
O 2.78308 6.66151 2.99246 0.763248 2.039449 -0.920259
O 11.1123 5.94344 0.6579 -0.407915 -0.676125 -0.079872
O 3.43932 4.10697 0.32484 0.338807 0.198321 0.34739
O 4.66966 5.08527 2.43344 0.20455 -0.698633 0.094322
O 6.61988 6.23685 5.69976 -0.429072 -0.223682 -1.429884
O 4.81004 4.26441 4.96174 1.594512 0.355467 -0.185708
O 6.86477 6.10751 1.63566 0.510088 0.412748 -0.666744
O 9.85153 3.68208 0.36388 -0.553522 0.740641 -1.453105
O 9.26639 5.93526 2.82574 -1.356748 -0.424288 -0.304027
O 11.7015 7.58415 2.96723 0.681051 0.581545 -0.298485
O 3.35515 12.1226 2.31934 -1.186254 -0.121122 -1.114475
O 3.98996 9.38721 2.60265 0.211942 -0.668821 -0.058011
O 7.24948 11.3697 1.1207 0.428179 0.26747 0.082299
O 5.97836 8.88223 4.42374 -0.199121 -0.104303 -0.563116
O 10.1898 11.0687 1.81504 -1.179968 -0.280176 -0.397611
O 2.78594 9.8541 11.4872 -2.327571 1.872498 1.546418
O 12.01 10.3489 3.94758 1.346889 0.303208 -0.779679
O 8.82552 9.0137 3.93799 -1.81849 0.547613 -0.072199
O 6.69428 2.08098 4.76398 0.478202 0.088251 -0.464619
O 2.50623 4.7248 6.68598 0.505635 -0.311949 -0.167551
O 0.30476 3.56814 3.18412 0.670913 0.370698 1.531553
O 8.83009 1.27336 7.6978 1.356857 0.565797 -0.624731
O 10.0361 3.22016 6.22102 -0.753047 0.047145 1.430854
O 1.98924 6.99586 5.55555 0.440256 0.281361 0.344362
O 2.76853 8.79158 7.27852 -0.532575 0.718843 -0.957634
O 6.23839 10.0408 6.91112 0.115473 -1.611754 1.086118
O 9.1892 6.6062 6.3573 0.168745 0.618738 0.858888
O 11.6647 5.45602 4.90273 -0.530926 -0.233356 -0.119884
O 2.46538 11.6075 7.31107 0.432879 0.341427 0.493661
O 1.89685 12.0146 4.58315 0.759157 -0.860441 -0.84214
O 0.16111 10.7284 8.63216 -0.148862 -0.340567 0.289488
O 6.15054 0.2654 6.76319 -0.697123 0.136469 -0.606344
O 8.71871 9.03117 7.87193 0.350239 0.578831 -0.795352
O 10.9499 9.86976 6.7033 1.351318 -0.127464 -2.724676
O 1.52325 1.79009 9.44707 0.281542 0.15238 -0.845381
O 5.1514 4.03634 9.3759 -0.011006 -1.054632 0.360516
O 7.28255 2.30328 9.6067 0.639805 -0.735873 -0.816716
O 11.2588 2.53972 10.6071 0.082743 -0.294124 0.669958
O 7.70891 4.66877 11.6765 -0.417456 0.198552 -0.054433
O 2.19709 4.4432 9.49856 0.37554 1.760212 -0.344394
O 0.35115 6.44615 9.54462 0.641286 -0.308644 0.978078
O 0.45549 9.01693 10.6775 -0.542111 0.966883 0.187382
O 5.96339 6.57836 8.29537 -0.074127 0.563023 0.298288
O 8.49482 6.45091 9.69927 -0.990232 -0.219028 0.702561
O 10.7723 8.76722 0.46821 -0.073797 -0.318325 -0.837235
O 10.775 4.96177 9.25037 0.45075 -1.52491 -0.306349
O 3.52224 12.371 10.6347 1.173798 -0.032713 -2.59811
O 6.19904 8.85222 0.61235 -0.175395 1.15379 -1.104299
O 4.12487 1.4232 8.2349 -1.768 0.805134 1.135586
O 6.21454 12.3304 11.047 -0.578881 -0.228033 -0.453989
O 8.66402 8.59324 11.4732 -0.732097 0.800398 -1.140941
O 12.0608 7.3604 7.16813 -0.588146 0.579192 -0.043556
O 8.75187 10.8622 9.98586 -0.563517 -0.541416 -0.32122
O 10.8386 0.28719 9.35446 -0.543343 0.968761 0.810114
Na 10.7488 5.18286 6.9778 -0.014793 0.166126 0.126705
Na 10.119 7.24478 4.40095 -0.2028 -0.10871 0.18544
Cl 0.59476 1.99137 5.95875 -0.012685 0.564147 0.158931
Cl 5.05603 9.06171 9.74481 0.305048 -0.005719 -0.068912
184
energy=-998.57618498 config_type=nep2xyz pbc="T T T" virial="-16.797076558115624 -4.575666866331087 0.9237181855495318 -4.575666866331087 -9.790743974961547 4.558518662144428 0.9237181855495318 4.558518662144428 -5.271603111327637" Lattice="12.4 0.0 0.0 0.0 12.4 0.0 0.0 0.0 12.4" volume=1906.6240000000003 Properties=species:S:1:pos:R:3:force:R:3
H 1.59745 2.31331 3.09065 0.247384 -0.346518 0.090061
H 2.76456 0.12039 3.03576 -0.499053 0.703015 0.634519
H 1.75281 3.55252 1.16115 -0.153729 -0.032069 -0.333518
H 4.62718 0.14444 1.57296 0.503923 0.99263 -0.33536
H 5.65689 2.37893 0.50119 -0.915739 0.744755 -0.881069
H 6.593 1.16896 0.69575 -0.358647 0.202839 0.585398
H 5.78387 2.49588 2.55577 -0.244988 0.964053 1.036708
H 7.93418 3.71523 3.07239 -0.709631 0.001868 -0.091729
H 10.7656 1.29844 0.90274 -0.673838 1.483956 1.82914
H 9.99456 2.75805 2.79693 -1.219941 0.95261 -0.00178
H 11.3879 2.43345 2.85019 1.111367 0.135007 0.067345
H 8.85455 10.255 2.7058 0.261135 -0.202023 0.758436
H 0.75136 3.76585 3.1687 1.229895 -1.253482 -0.701672
H 3.60685 8.58209 2.96993 -0.91661 0.105847 0.01622
H 1.34506 4.38129 12.1768 0.509883 -0.139583 0.083986
H 3.04162 7.61108 0.6723 -1.089693 0.402476 -0.601522
H 6.01524 6.14144 10.781 -0.208933 -0.249638 1.037038
H 4.34134 6.86675 0.46566 -1.002456 0.849185 1.48683
H 3.53724 5.97796 2.34653 -0.064788 -0.258981 -0.103136
H 9.06051 4.90081 1.50476 -0.219513 -1.071754 2.309692
H 11.7559 7.69335 3.6607 0.479298 0.030969 0.089664
H 8.37218 6.00684 0.66995 0.0638 -0.472257 0.184586
H 11.7375 5.12053 3.83801 -0.322724 1.579375 0.097656
H 9.04754 8.535 5.7565 0.320141 -0.243238 -0.025953
H 3.49237 11.584 1.28552 -0.230717 -0.108744 -0.127054
H 2.00027 8.97875 3.2164 0.574641 -0.193381 -0.053605
H 0.28682 9.27567 2.02328 -0.111262 -0.167306 -0.691501
H 0.19977 9.99136 3.32679 -0.634596 1.346191 1.143147
H 0.4965 11.9691 3.96688 0.391293 0.125317 0.769207
H 5.4136 11.4765 3.11007 0.014627 -0.129318 0.063237
H 6.82158 8.44019 2.29684 1.39541 0.80583 0.442039
H 6.59618 10.4723 3.50609 -0.644432 1.233923 0.156659
H 7.88397 8.58035 3.49166 0.277932 -0.466079 0.573735
H 11.8918 7.08056 5.08891 0.211955 0.281889 -0.095393
H 8.9696 11.1723 1.63957 0.86808 0.805518 1.035145
H 9.8752 7.70428 4.58267 1.142188 -0.056181 0.316346
H 2.56589 0.85034 4.45255 -0.035378 0.112059 0.095278
H 2.37003 2.28481 6.21273 1.124603 -0.757613 -0.539167
H 3.97782 1.95038 5.97482 -1.203005 -0.157865 -0.057125
H 10.4746 4.55827 7.73301 -0.083453 0.363089 0.245429
H 5.04487 3.68816 3.49761 0.795217 -0.586005 -0.743299
H 7.34758 1.77296 4.38486 -0.253317 0.158211 -0.11448
H 9.50728 10.9241 6.97187 0.271801 1.005016 -0.803271
H 6.02918 2.27376 6.75768 1.003242 -0.669181 0.256548
H 11.2025 3.97558 6.53074 -0.226415 0.031354 0.0861
H 9.24145 2.86089 7.10455 -0.375519 -0.612681 -0.633667
H 2.30927 7.497 4.5719 -0.608988 -0.415091 1.041233
H 9.62545 0.05929 7.09596 -0.141987 0.585002 -0.079362
H 10.8946 8.52332 10.238 -0.412782 -0.312126 0.117682
H 12.3696 4.04872 4.76289 0.100403 0.252748 0.54871
H 2.93914 4.47295 2.61257 0.771516 1.330041 0.875287
H 4.05872 5.44265 4.48928 0.217745 -0.177296 -0.279446
H 4.96022 6.35418 5.3384 0.336957 1.007179 0.076917
H 8.48166 6.33337 5.28339 -0.090718 -0.398726 -0.219698
H 8.64396 4.86449 3.7993 -0.134249 -0.340004 0.15357
H 0.87151 7.99691 6.39964 0.921527 -0.565599 -0.448543
H 2.11847 6.09948 5.30178 -0.116387 -0.162304 0.130689
H 8.91033 4.90224 5.73824 0.198431 -0.042407 0.322858
H 11.4573 7.98831 7.90409 0.782918 -0.047035 -0.554318
H 10.621 6.91655 8.78002 0.297012 0.718023 -0.071564
H 3.64591 10.0349 4.75376 -0.554178 -0.512007 -0.616635
H 0.69349 11.4771 7.0367 -0.134182 -0.114172 0.165189
H 5.01396 10.7218 5.04534 -1.305857 -0.239601 0.488976
H 3.15301 11.527 6.73563 1.040532 -0.703914 -1.456705
H 11.4806 11.0794 6.77214 -0.353211 1.175295 0.815997
H 12.087 11.1675 5.2653 1.291723 1.013168 -2.682507
H 3.32962 2.58947 8.91791 1.346128 0.108804 -0.746083
H 5.76983 3.06098 5.34072 0.370028 -0.382361 -0.122959
H 7.03825 0.26418 4.4289 0.514964 0.139542 0.193446
H 5.35202 8.45513 8.15597 -0.306224 0.105852 0.045817
H 4.53044 8.73803 6.75989 0.26716 0.198541 0.404052
H 2.69502 0.27227 7.62699 -0.112127 -0.26777 -0.077532
H 9.48781 8.49243 7.99791 -0.547375 1.26636 -0.505536
H 0.07198 9.33687 6.68723 0.463316 0.173541 0.124003
H 9.10173 9.07432 11.2953 0.708831 -0.484504 -0.051515
H 11.4252 9.3671 11.4691 -1.495117 -1.264976 0.322831
H 3.53799 3.51596 12.0394 0.58975 0.28414 0.061508
H 1.24492 2.27149 11.8428 0.894053 1.385873 0.615754
H 4.22607 3.1744 9.90352 1.153289 0.215356 0.030087
H 1.37583 1.61811 9.85789 0.998871 1.006031 -2.233057
H 1.34946 2.54534 8.4545 -0.710378 0.605702 -0.327554
H 5.50851 1.95045 8.54968 0.65596 -0.702342 0.224568
H 7.05073 1.59957 8.76081 0.924385 0.241245 0.38476
H 5.87324 12.1294 8.90697 -0.055848 0.465936 -0.504817
H 9.28633 1.29257 9.17639 0.461958 -0.17564 -0.594797
H 7.00363 5.84762 6.57995 0.988832 -0.345534 -1.680838
H 8.69274 0.67049 10.5284 0.112751 0.174706 -0.175618
H 10.2573 0.07155 0.09621 1.821365 1.818848 0.097252
H 8.46565 1.77501 6.19001 -0.197266 -0.284863 -0.874902
H 0.0151 1.36075 11.7796 -0.125647 -0.506005 -0.242735
H 8.50342 3.16315 10.7289 0.591872 0.82973 -0.495128
H 8.70796 4.53161 11.5077 0.365904 0.10746 1.214625
H 11.6313 5.18438 9.55048 -1.902054 -0.065662 0.127549
H 1.36293 6.19567 10.7484 -0.253283 -0.011991 0.36296
H 0.01903 5.93789 11.51 -0.617706 0.463456 0.943975
H 2.76564 7.17811 9.91485 0.357022 -0.566633 -1.316213
H 4.98706 4.25384 11.757 -1.227077 -0.725587 -0.152395
H 4.51609 6.18289 10.8126 -0.99274 0.190641 -0.06809
H 5.96636 6.8371 7.31369 0.560527 -0.788897 -0.2933
H 3.47477 6.88232 7.87233 0.39967 0.646713 -0.289671
H 7.83845 5.40889 10.0537 -0.214046 1.151167 -0.427013
H 6.8731 8.70742 10.1989 -0.087544 -0.397234 -0.376323
H 6.13965 9.76712 9.37217 -0.208935 -0.30639 -0.348084
H 7.94541 8.72753 7.98834 -0.071683 0.597411 -0.139501
H 9.96636 4.8954 9.70707 -0.228839 -0.825451 1.253529
H 7.20623 6.40526 8.95172 0.616308 -0.360328 1.128178
H 10.7115 6.03288 0.55126 0.135105 0.181536 -0.39411
H 1.65837 0.19258 11.9129 0.077275 -0.450227 0.088172
H 2.42633 11.3175 11.3413 0.416426 0.00403 -0.220855
H 2.83348 11.0338 9.18906 0.320872 -0.785864 0.965464
H 2.73719 8.55848 10.5569 0.086013 0.240704 -0.058433
H 4.14374 10.7316 9.89512 -0.377507 -0.020482 0.485466
H 2.4743 5.73485 8.07158 -1.894489 -0.932721 -0.813699
H 6.62952 11.4233 10.0432 -1.747693 -0.189087 -0.869005
H 7.58223 7.83783 0.09628 -1.168004 -0.433741 0.491663
H 11.1109 7.26673 12.0743 -0.194909 0.451482 0.064513
H 0.80313 10.7281 12.27688 0.106899 0.126923 0.289544
H 8.06437 9.93981 12.0213 -0.25823 -0.172605 -0.183514
H 11.9119 10.987 0.65164 0.053082 -0.421211 -0.310508
H 6.29503 6.85643 0.30931 -1.287146 -0.60761 -1.311425
O 1.54354 3.21805 2.73188 -0.869017 1.363201 0.168631
O 4.05657 11.9115 2.00718 -0.377655 -0.611136 0.049169
O 2.10138 0.59438 3.61797 0.110817 -0.540418 -0.649726
O 1.92965 3.68365 0.1846 -0.328642 0.022281 -0.098426
O 5.89179 1.71513 1.14472 0.885465 -1.298058 0.177828
O 5.8195 3.08161 3.39603 -0.05382 -0.176988 -0.29609
O 10.5828 2.06432 2.49794 -0.084388 -0.648415 0.174621
O 11.0603 0.71895 0.23499 -1.212231 -3.312318 -2.049815
O 8.76435 4.19855 3.07517 0.662656 -0.290944 -0.380594
O 2.91143 8.81136 3.62089 0.311383 -0.101005 -0.12542
O 11.9199 4.1906 3.91345 0.168982 -1.358891 -0.10183
O 3.76571 7.30433 1.19774 2.067329 -1.309172 -0.984771
O 5.21883 5.93636 11.4152 1.640496 0.505945 -1.054901
O 8.98523 5.22489 0.63211 -0.208421 1.725034 -2.433366
O 11.4335 6.97644 4.23869 -0.611833 -0.296621 -0.19133
O 9.03397 8.04684 4.90538 -1.748054 0.097391 -0.044919
O 0.41559 9.1312 2.9716 0.354053 -1.06487 -0.697577
O 12.1089 11.4614 4.2413 -1.016013 -0.644982 1.072767
O 6.09974 11.3243 3.79052 0.748691 -1.272528 -0.189035
O 7.41127 9.07984 2.81484 -1.406493 -0.351871 -0.748092
O 9.38677 11.06 2.55738 -1.442641 -1.073632 -2.401444
O 3.02527 1.58684 5.89755 0.00196 0.995265 0.565521
O 7.71111 0.94533 4.72119 -0.062772 -0.293779 -0.557797
O 5.40617 2.67815 6.151 -1.109466 0.790838 -0.224799
O 10.2958 4.17915 6.84299 0.114593 -0.164021 -0.362642
O 9.94191 11.7362 6.54149 -0.657464 -1.933696 0.862917
O 10.6947 8.66677 11.1994 2.066047 1.646277 -0.499237
O 3.54283 5.2143 2.96712 -1.009806 -1.256091 -0.704898
O 4.67015 5.45843 5.26367 -0.519804 -0.789411 0.239903
O 1.80693 7.01094 5.31117 0.907812 0.577642 -1.000893
O 8.20568 5.37275 5.2516 0.265938 1.08043 0.376877
O 0.06681 8.36296 6.75412 -1.156064 -0.594143 0.255453
O 4.14948 10.4064 5.47922 1.735722 0.608166 0.477424
O 0.02082 10.8255 6.75629 0.28793 0.02648 -0.323106
O 4.30589 2.99065 8.93056 -2.525215 -0.515173 0.923529
O 4.75572 8.08612 7.4585 -0.133544 -0.185108 -0.774176
O 2.67887 11.6979 7.53207 -1.294879 0.913193 1.680074
O 8.74383 9.122 7.58632 0.837099 -1.332841 0.344248
O 1.8452 1.87313 8.91689 -0.172984 -1.432149 2.568414
O 0.92974 1.4692 11.4256 -0.845661 -0.559498 -0.658488
O 4.47695 3.3876 11.7202 0.48335 0.340557 0.025857
O 6.27061 1.32519 8.2882 -1.979626 0.14716 -0.228131
O 8.69934 1.42812 9.90867 -0.869485 0.213348 0.872632
O 8.59658 2.09918 7.07501 0.928235 0.565692 1.522703
O 8.77283 4.11703 10.6399 -0.669335 -1.141163 -0.720564
O 10.6797 5.3094 9.21753 2.429306 0.732698 -1.052167
O 0.71878 5.50803 10.9915 0.802442 -0.78208 -1.260986
O 2.70497 7.60976 10.759 -0.1635 0.451086 1.070271
O 6.56314 6.02658 7.38989 -1.843715 1.170099 1.949706
O 3.25411 6.11507 8.41372 1.353506 0.220492 1.136139
O 6.25028 8.78463 9.43647 0.615431 0.339752 0.498779
O 7.54456 6.36639 9.90504 -0.747497 -1.054377 -0.567519
O 10.7745 7.89688 8.59538 -1.072919 -0.92968 0.920913
O 11.4817 6.55027 0.22885 -0.285739 -0.373262 0.421729
O 1.97665 11.6698 12.1422 0.490928 0.118125 0.27586
O 3.17413 10.6125 10.0542 0.055815 0.539756 -1.681125
O 5.83091 11.2925 9.41868 1.916811 0.528357 1.667162
O 8.16548 9.07401 11.5713 -0.853705 0.301325 0.269068
O 12.3814 10.2484 0.20956 -0.652144 0.079849 0.366751
O 7.03458 7.23703 0.72882 2.675605 1.335862 0.872992
Na 9.94433 0.23049 3.74938 0.241525 0.205536 0.722018
Na 4.68472 4.52488 7.31289 -0.003461 0.043759 0.10802
Cl 1.02232 4.0432 6.75728 0.124861 -0.00039 -0.113945
Cl 7.93941 12.0541 12.3154 0.120793 0.00285 -0.058849
184
energy=-998.17019135 config_type=nep2xyz pbc="T T T" virial="-9.717498175677099 -0.7366349669385169 -2.6226161217715083 -0.7366349669385169 -5.785763631861159 -0.6335553384410544 -2.6226161217715083 -0.6335553384410544 -21.789476916752488" Lattice="12.4 0.0 0.0 0.0 12.4 0.0 0.0 0.0 12.4" volume=1906.6240000000003 Properties=species:S:1:pos:R:3:force:R:3
H 0.94052 0.52061 0.97258 0.497174 1.202699 1.031706
H 6.55267 1.50074 0.62851 0.17727 0.29171 -0.635504
H 3.15318 10.702 1.35621 -0.174164 -0.56322 -0.527834
H 2.80149 10.2743 12.1991 0.255197 0.129864 1.034593
H 1.55348 1.86477 1.7106 0.552048 1.858177 -0.490776
H 3.66882 3.77089 11.648 -0.971053 0.707799 -0.838489
H 3.19367 3.50921 1.24658 -0.844433 0.296783 0.914016
H 2.30852 4.30021 2.29691 -0.198139 0.991841 0.392661
H 5.67654 2.46134 7.02201 -0.073795 0.749721 1.375102
H 6.88153 2.85523 12.3867 0.829681 1.925022 0.455088
H 9.93382 10.4192 5.61825 0.525203 -0.893604 0.096898
H 9.35064 11.4278 4.66278 -0.128824 0.275488 -0.869643
H 6.48072 2.08218 4.80723 0.196746 -0.112244 -0.009523
H 7.2266 1.662 3.44174 -0.385512 0.559441 0.674246
H 11.3696 11.6103 12.116 -1.033713 -1.410819 -0.513399
H 10.2366 6.30668 0.89638 -0.253247 -0.269831 0.629375
H 8.95342 7.34513 0.8226 -0.13292 -0.370392 0.680939
H 5.23091 1.08852 6.50217 -0.852578 -1.71089 0.918681
H 11.3942 0.71039 12.2632 0.190605 0.216619 0.051133
H 1.52535 6.1836 3.61388 0.507115 -0.33751 -0.91104
H 2.972 6.27601 2.86373 -1.145044 -0.237839 -0.545767
H 0.17759 7.14718 4.90923 -0.722797 0.832232 0.113752
H 1.10013 5.56997 8.5603 -0.547229 -0.103661 -0.597868
H 4.78041 3.13567 12.2377 0.771745 0.151776 0.740254
H 5.07873 6.60146 4.05843 0.008334 -0.236129 0.15864
H 4.43972 5.73052 5.31306 1.367892 0.531171 -0.438668
H 4.62742 6.86827 1.2504 -0.34531 -0.344044 -0.132404
H 5.18181 5.67217 2.20755 -0.07473 -0.249831 0.064184
H 3.30844 4.11654 6.14288 -0.96272 -1.79068 -0.682602
H 11.3699 4.84049 2.68749 -0.239709 -0.09155 0.003061
H 11.0994 4.26729 1.1912 0.550453 0.91926 0.900948
H 2.16 12.2195 2.59672 -0.096749 0.738278 -0.22768
H 8.05042 11.1082 0.29999 -0.237754 -0.570169 0.677444
H 0.12885 9.79995 10.7852 0.582392 -0.324508 0.217077
H 11.3931 8.87825 10.3729 -0.975549 -0.640297 -1.046673
H 4.69328 10.8483 5.1938 -0.766921 0.470598 -0.525187
H 12.1488 9.98142 3.71321 -0.097847 0.33216 0.147393
H 7.68715 9.76312 1.18993 -0.246254 -0.562764 -0.29061
H 7.76943 8.08998 2.79157 0.269101 -0.024706 0.520854
H 1.67687 10.9059 3.16781 -1.006357 -0.555254 0.030612
H 6.4126 12.1486 1.52187 0.194422 -0.012292 0.856809
H 0.03929 9.83249 2.22653 -0.011991 0.479495 0.240307
H 6.83158 9.74598 4.50449 0.141857 -0.259939 -0.754364
H 7.03889 10.3857 5.81802 -1.29327 0.830916 -1.151831
H 10.399 4.55629 4.68588 -0.408753 -0.104484 0.29205
H 12.3017 0.0063 8.20297 0.372373 0.198711 0.404383
H 11.9141 5.09934 4.5964 0.533852 0.579534 0.630538
H 1.94709 1.82264 5.8464 0.369296 0.849756 -1.000869
H 1.86687 2.6316 4.48338 -0.525626 -0.121135 -0.226598
H 3.96804 2.34656 2.63507 -0.50733 0.275795 0.577164
H 3.81995 1.78689 4.10156 -0.426239 0.265409 0.414134
H 8.56047 4.75087 5.74941 -0.606141 0.702728 -0.175968
H 10.5676 12.0987 6.82619 -0.295687 0.033378 -0.403445
H 1.05932 11.4952 7.89507 0.244094 -0.183791 0.245081
H 8.4662 0.0517 3.14531 0.349804 -0.280379 -0.259964
H 10.3721 1.10066 7.5065 0.50536 -0.519132 -0.274718
H 8.93511 11.2314 2.36286 -0.398073 0.117562 -0.088669
H 1.15902 6.38788 5.83875 -0.632263 0.080495 -0.487328
H 2.10512 7.44052 7.71208 0.146264 -1.47823 -0.791624
H 12.3416 4.59355 9.29286 -0.715817 0.183452 -0.269655
H 4.90847 7.68854 6.08464 0.318956 0.173039 0.199533
H 7.64882 8.02272 8.41622 0.032354 -0.078262 0.395044
H 5.38221 9.16453 6.4117 -0.328851 -0.583843 0.270997
H 6.42413 6.79425 9.9206 -0.442774 -1.699351 1.014605
H 4.51462 4.56329 7.00278 0.252194 -0.193124 0.616521
H 7.68512 6.49868 6.86944 -0.317817 -0.345499 -0.736571
H 6.86782 6.1033 5.56844 -0.740399 -0.081439 -0.095052
H 8.00398 7.75903 4.95089 -0.266352 -0.39323 0.027868
H 9.27246 8.4285 4.6556 0.741314 0.445952 -0.124144
H 3.40402 11.3504 4.22621 0.625628 -0.245128 0.797216
H 6.30695 7.80244 7.83224 -1.478175 0.537111 -0.789961
H 5.63628 0.8454 2.40771 -1.341964 0.13075 0.720109
H 6.6225 5.30647 11.8525 1.450862 -0.512893 1.222416
H 8.05018 5.37252 0.28846 -1.01586 -0.623466 -0.440289
H 3.68515 8.42241 8.04935 -0.105423 0.605529 0.320818
H 10.8392 8.55683 7.93773 0.828532 0.151123 -1.905038
H 2.56057 9.41636 7.68407 0.218964 -0.195296 0.952612
H 10.0367 7.85617 9.01711 -0.34094 -0.79409 0.777227
H 1.30809 9.75826 6.36579 -0.885989 -0.460719 -0.564032
H 2.84201 2.52067 9.93487 -0.382242 -0.203054 0.077121
H 7.01054 2.05276 10.5317 -0.201212 -0.476932 -0.378625
H 10.8466 3.49094 10.6498 -0.649547 0.623664 -0.616832
H 2.11707 3.98855 9.78374 0.879572 -0.800005 0.099762
H 2.6479 5.97085 6.99661 -0.126571 0.758792 0.505971
H 6.21896 0.58467 8.54599 -0.358017 -0.217198 -0.169556
H 6.24092 2.61218 9.24236 1.185266 -0.766176 0.465876
H 8.06217 10.8624 7.97119 -1.728753 -0.670582 0.096911
H 4.32893 3.76354 9.10804 0.143441 -0.134544 -0.415834
H 6.46714 10.9105 8.23662 -0.361823 0.904611 0.187284
H 10.3209 3.27079 9.16585 -0.106309 1.040533 0.700004
H 2.56552 10.6778 5.9622 -0.091819 0.41119 0.338737
H 8.36276 2.13038 8.60673 0.394499 0.449568 -0.395276
H 1.37337 5.97781 10.6352 -0.192813 0.937862 0.428002
H 0.92004 7.46698 11.0721 0.050888 -0.258294 -0.214643
H 3.08519 7.26792 11.7458 0.552637 -0.209647 0.127869
H 5.29261 6.69905 10.932 -2.628256 1.533675 1.591094
H 3.99169 8.32458 12.3839 -0.005904 1.638577 0.53446
H 8.51624 3.45465 4.83094 -0.327846 -0.066733 0.052389
H 6.30564 3.67558 3.07894 0.415877 0.397841 -0.610578
H 5.53803 4.68221 9.2961 -0.367104 -1.267415 -1.64143
H 9.16558 11.8905 10.6818 -0.015967 -0.150268 1.111809
H 6.58998 4.64387 1.6582 -0.01251 -1.145006 0.743706
H 9.74343 5.63857 9.87613 0.003451 -0.188502 -0.32881
H 8.92695 3.00756 7.34997 0.219841 -0.776734 0.50938
H 11.0463 1.36632 5.13552 -0.914841 -0.732652 2.343751
H 11.1749 2.66818 4.29545 0.086707 0.668555 0.226324
H 9.4962 6.67355 10.968 -0.206666 0.169947 -1.233553
H 4.41858 11.2215 11.8884 0.167658 0.570523 -0.334199
H 1.36709 11.2502 10.0929 -0.220794 0.160795 -0.545298
H 3.39929 0.31011 10.4082 -1.090702 0.766152 -0.481773
H 2.21995 9.92918 9.71315 -0.434301 0.678486 0.658275
H 2.07855 0.22422 9.40214 1.023391 1.725332 0.774686
H 4.8931 0.17398 9.07364 -0.312539 -0.321132 -0.161568
H 5.59061 12.2117 11.5949 0.352078 0.271864 -0.058908
H 8.98697 0.66909 11.6793 -0.023883 1.343526 0.423647
H 6.53141 7.44807 2.00989 1.82243 0.788885 -0.258343
H 10.7344 11.5809 9.11456 1.762138 0.933653 -0.659966
H 11.3767 8.01232 1.41219 0.428929 0.388374 -0.732153
H 12.2266 8.64981 0.15756 -0.823331 -0.445427 1.305832
H 10.1078 10.1978 9.36175 -0.121103 0.201953 -0.393821
O 3.43081 10.1557 0.56607 -0.357955 0.337743 -0.803897
O 6.5776 1.99762 12.1511 -0.785939 -1.579923 0.490615
O 2.51842 3.40929 2.01687 1.017572 -1.140899 -1.533875
O 9.41082 11.2163 5.59532 -0.217129 0.46731 1.306837
O 7.17498 2.33731 4.15643 0.368161 -0.086179 -0.719654
O 11.9436 12.3019 12.3737 0.751487 1.232731 0.588982
O 9.70024 6.92231 0.36683 0.135032 0.241083 -0.972518
O 2.01295 6.00638 2.72601 0.900275 0.563736 1.389973
O 4.2497 3.93867 0.0039 0.199315 -1.021609 0.029546
O 0.62692 6.30469 4.97714 1.274337 -0.749203 0.17647
O 0.86137 4.89565 9.22395 1.108476 0.097108 0.954908
O 5.20815 6.33857 4.99217 -0.861087 0.280668 -0.095188
O 4.79485 6.58842 2.17147 0.153249 0.591652 0.419693
O 3.83709 4.85825 6.3742 -0.062884 1.265581 0.468055
O 11.4609 5.06739 1.71913 -0.659582 -0.608239 -1.365906
O 2.48373 11.3637 2.93575 1.577975 -0.024381 -0.218441
O 11.986 9.04334 11.0959 1.028879 0.673734 0.501354
O 7.57768 10.7154 1.10024 0.531422 1.019696 -0.561811
O 0.01144 10.5314 2.94464 -0.431865 -1.176433 -0.238413
O 12.2557 8.35184 1.14176 0.133678 0.101516 -0.216103
O 6.41574 10.454 5.00312 1.146596 -0.437097 2.32553
O 11.2587 4.50889 4.21771 0.056 -0.729984 -0.939113
O 1.86697 6.55625 7.21526 0.3583 0.554774 0.909595
O 0.68212 11.974 8.67437 -0.673097 0.095729 -1.187276
O 2.40219 2.48454 5.26481 0.112373 -0.54401 1.254998
O 5.64119 1.8936 6.27973 0.807355 1.099026 -2.327396
O 4.29942 1.70576 3.27831 1.152201 -0.744196 -0.94303
O 11.0694 0.44933 7.18984 -0.523932 0.829558 0.539564
O 9.26197 11.9021 2.99531 -0.440217 0.223599 0.038902
O 6.95608 7.34407 8.35926 1.498107 -0.282309 0.585215
O 5.00648 8.34827 6.82834 0.166661 0.312576 -0.65712
O 7.76479 6.16052 5.93328 0.509358 0.765199 1.064158
O 8.34553 8.47969 4.38918 -0.366756 -0.349026 0.161936
O 3.767 11.212 5.17187 0.097686 -0.187613 -0.285151
O 5.42795 0.0576 8.27263 0.536233 0.202691 0.544946
O 2.84106 8.78428 8.42881 -0.210397 0.028797 -1.380811
O 10.4995 8.68241 8.80265 -0.441656 0.260537 1.36522
O 6.48164 0.57196 2.05483 1.055679 -0.212743 -1.085185
O 1.27569 0.97286 1.81029 -1.304426 -2.937927 -0.569077
O 2.95985 3.49453 10.0675 -0.434863 0.660792 -0.422431
O 6.95487 1.94556 9.54588 -0.863532 1.159504 -0.471288
O 7.18897 10.3613 7.92483 2.275304 -0.397674 -0.542424
O 10.6092 3.9952 9.81008 0.757775 -1.408162 -0.179009
O 1.47808 6.70276 11.3269 -0.111469 -0.50282 -0.795596
O 4.01676 7.44494 12.0412 -0.479019 -1.149077 -0.578189
O 9.08274 4.02533 5.38249 0.525426 -1.060015 0.306852
O 5.20053 3.95351 8.62276 0.134439 1.559912 2.244349
O 5.96285 6.1574 10.6082 2.98194 -0.344393 -2.868831
O 6.03904 4.40394 2.47321 -0.16491 0.315753 -0.213968
O 9.40241 6.54956 9.96685 0.273849 0.032689 1.571993
O 9.17494 2.35729 8.0569 -0.225966 0.275372 -0.287453
O 11.3974 1.73467 4.36579 1.091175 -0.104474 -2.527591
O 2.7001 0.85645 9.91995 0.320326 -1.699432 -0.240553
O 1.81443 10.4761 10.4451 0.799622 -1.469984 0.548178
O 7.21596 4.83971 0.18481 -0.20113 1.205802 -0.992105
O 4.72741 11.948 11.2757 -0.492717 -0.756704 0.339752
O 7.46471 7.87663 1.89571 -1.857022 -0.704628 -0.485382
O 8.95587 12.1247 11.6447 0.038659 -1.370452 -1.218401
O 1.75804 10.565 6.59588 0.955238 0.004114 0.205728
O 9.94403 11.1686 9.37669 -1.968519 -0.83566 0.688731
Na 0.78878 6.14879 0.9033 -0.038915 0.046703 0.485084
Na 11.308 0.21633 2.59678 0.539701 0.386035 -0.071151
Cl 10.4488 2.62954 0.19361 0.019095 -0.254995 -0.1111
Cl 11.3734 8.73316 5.60523 -0.005919 0.18875 -0.053752
184
energy=-999.61243204 config_type=nep2xyz pbc="T T T" virial="1.6125976053672548 -4.701868604984469 -0.9359159019210279 -4.701868604984469 -4.5161539106492805 0.6708029991657205 -0.9359159019210279 0.6708029991657205 -4.823179356878158" Lattice="12.4 0.0 0.0 0.0 12.4 0.0 0.0 0.0 12.4" volume=1906.6240000000003 Properties=species:S:1:pos:R:3:force:R:3
H 1.13896 3.18668 2.87595 -0.141914 0.07119 0.49626
H 1.86372 0.49239 10.718 -0.466115 -0.115047 0.005164
H 0.51666 5.06145 3.11709 0.637938 -0.553339 0.628404
H 1.27455 3.15518 4.42349 0.061609 0.107487 -0.027496
H 3.28576 0.24783 11.178 1.403074 -0.993899 0.013506
H 3.63536 4.9753 1.47745 0.836138 -0.498028 2.936818
H 4.4395 5.33815 0.1659 0.839331 -0.167228 -0.341644
H 8.38949 8.29351 2.06396 -0.119512 0.426845 0.240584
H 10.5081 8.45669 11.6023 0.083907 0.31136 -0.267988
H 9.6649 1.70835 0.49117 0.5527 -2.655757 -0.119294
H 8.8633 0.31999 0.26053 -0.297338 -0.274851 0.188872
H 10.7694 4.23579 0.2008 -0.832134 -0.469034 -0.068745
H 2.44072 3.81274 12.3151 -0.678464 -0.213067 -0.236619
H 2.19014 9.9692 4.51275 0.078472 0.161588 -0.559033
H 5.02311 3.46524 3.74451 0.479254 -1.123376 0.089112
H 6.95883 2.78401 1.26498 1.143711 1.127743 -1.44169
H 6.1582 2.18077 3.46207 -0.680031 0.759539 0.046451
H 8.26127 3.47095 0.61895 -0.645607 0.141744 0.034618
H 10.8693 5.13859 2.88194 -0.853389 -0.490222 0.160074
H 0.98828 8.77298 3.41032 -0.432406 0.373113 0.151542
H 0.44503 5.85012 1.76973 -0.677672 -0.070475 1.314432
H 9.85884 4.40339 3.91383 0.239418 0.051516 -0.786676
H 2.01574 11.8674 3.1046 -0.048326 -0.329773 0.776395
H 11.2299 11.8502 4.90854 0.121461 -0.013435 -0.00534
H 1.82242 0.11002 0.63311 -0.017438 -0.844639 0.457066
H 1.46122 11.0144 0.69646 0.024228 -0.518215 -0.41846
H 3.04607 12.1112 4.25563 -0.006965 -0.103185 0.093313
H 3.30897 10.5187 11.7767 -0.627822 -0.23784 0.072301
H 3.38658 7.45086 4.46906 1.364487 -0.771983 -0.003249
H 4.7692 7.31138 3.77475 0.790231 0.84572 -0.521178
H 9.26385 7.62074 3.836 -0.145899 0.060732 -0.043531
H 11.4018 9.78148 2.25284 0.548697 -0.693239 0.101479
H 9.9168 9.9799 1.89642 -0.565156 -0.338233 -0.255228
H 8.68782 6.43604 2.97667 0.527485 -1.581254 -0.36803
H 6.6633 7.94836 3.31958 0.16738 0.068093 -0.022465
H 1.56745 2.92368 8.7502 0.688769 -1.416667 -0.684835
H 2.87026 1.90492 8.46422 0.421553 0.034866 0.031662
H 8.22346 2.46722 11.1099 -0.266097 0.505295 1.436044
H 1.62386 0.77852 5.31126 -1.361954 1.699166 1.246612
H 1.53186 1.81153 6.56911 -0.10306 -0.146348 0.536635
H 3.02444 4.15655 3.41186 0.392525 0.163522 0.136593
H 10.4636 5.02091 10.5389 -0.538225 0.294196 -0.168623
H 8.19143 1.56257 9.90633 0.105989 0.420972 -0.53371
H 6.0582 9.99314 4.02603 -0.227176 -1.068012 -0.42393
H 6.60938 11.2051 3.38416 0.228085 0.558267 -1.028368
H 6.04285 5.12184 6.41955 0.632646 -0.580256 -0.630108
H 9.51421 10.9645 6.00795 -1.389179 0.572379 0.411857
H 7.05518 0.75395 2.06845 -0.118747 -0.594151 -0.290085
H 11.8129 4.62546 8.1078 0.732797 0.023843 -0.302889
H 9.64939 1.12989 4.3708 1.062106 -1.16023 -0.509151
H 10.1105 3.83868 1.60267 -0.016588 0.126719 0.278722
H 9.35763 2.50067 4.89974 -1.184343 -0.495752 -0.242066
H 3.97492 5.38976 3.78196 -0.009518 -0.293188 -0.352219
H 11.3172 8.62092 4.01982 -0.115094 -0.485425 0.013601
H 1.89215 8.79523 5.43302 0.161913 -0.361383 -0.217424
H 3.01055 7.61844 7.78625 -0.497583 0.786222 -0.380026
H 0.30943 4.33613 10.2398 0.08481 -0.180011 -0.383072
H 6.56217 3.64811 6.87612 0.383888 -0.596878 -0.19641
H 6.40822 3.38109 5.27691 0.271788 -0.130566 0.076777
H 4.98841 6.21749 6.12264 0.572516 -0.01753 0.554322
H 6.8371 7.02268 6.77943 -0.403856 0.001012 0.143602
H 3.53834 8.99341 7.14455 -1.700297 -1.502548 0.485908
H 0.11518 7.6327 2.92026 -0.264884 0.607418 -0.347316
H 8.67212 3.94703 5.83725 0.019649 0.010366 0.380594
H 10.3955 9.28903 5.06357 -0.260926 -0.179479 0.04317
H 10.2932 4.02638 6.29992 -0.701283 -0.011499 -0.346654
H 12.1767 0.75691 4.88057 -1.480998 -1.282051 -0.87004
H 4.53369 1.05237 7.19776 -0.083016 -0.564206 -0.493996
H 4.7517 0.50846 8.72351 0.117593 -0.434733 -0.297386
H 7.84932 1.5506 3.23228 0.570015 0.156581 -0.04953
H 8.12627 12.17913 7.8892 -0.295063 0.49316 0.304717
H 4.93864 1.30648 5.13312 -0.232821 -0.393315 0.148078
H 6.03548 9.00848 7.14396 0.533897 -0.52242 -0.150896
H 5.22272 9.55744 5.97884 0.031936 0.047603 -0.11063
H 4.99335 12.2194 5.76121 0.195793 0.177676 -0.433593
H 10.8042 10.3781 6.7612 -0.322555 -0.054549 0.554701
H 0.18777 9.57065 8.66874 0.4544 0.852421 0.619865
H 1.67647 9.29048 8.45776 0.871499 -0.123081 -0.430893
H 5.76896 8.50857 2.18431 -0.102813 -0.267154 -0.983801
H 10.5859 7.68482 6.03549 -0.503599 0.422005 0.33121
H 10.3722 6.58197 7.0561 0.229349 -0.064103 0.576986
H 11.8573 2.65019 1.3962 -2.666783 1.281534 -0.644822
H 0.85332 2.48194 0.95434 -0.331481 -0.332014 0.641556
H 11.1458 6.26058 11.233 0.129936 0.656706 -0.062847
H 8.13651 0.20393 5.52388 0.073526 -0.617179 0.771433
H 7.31642 11.306 5.45165 0.115886 -0.150287 0.152134
H 6.19184 4.44184 11.7903 0.80558 0.113817 0.639659
H 6.27456 6.06 11.7922 0.258094 -0.437183 0.173776
H 11.8963 11.9743 10.8055 0.828684 0.813274 -0.919979
H 6.55888 2.77195 8.94958 0.491354 -0.311691 0.528964
H 11.8919 9.22628 11.758 0.411369 1.262347 0.407362
H 8.50033 5.69133 9.36392 -0.797118 0.476401 0.155177
H 10.3508 4.88719 8.11814 -0.107022 -0.04619 -0.500211
H 10.737 12.2715 11.853 0.401875 -0.225201 -0.269669
H 5.10139 2.7431 8.42621 0.659522 -0.158301 0.097804
H 1.40427 4.97087 9.38826 0.235937 0.323705 -0.221792
H 2.22472 2.40583 11.6902 -0.289757 -0.104682 0.013435
H 2.92774 6.8624 0.10495 -0.031794 -0.79022 0.098141
H 3.06319 7.30981 11.0024 0.094351 -0.075089 0.709002
H 7.45175 7.3954 8.851 0.213259 0.130252 -0.054814
H 5.98777 8.94334 0.25198 0.608955 0.910169 -0.475927
H 8.03877 7.2901 10.3434 0.190103 0.653731 0.42546
H 8.75651 8.4643 12.2839 -0.036012 -0.361343 -1.040989
H 8.25882 7.68966 6.75015 0.200729 0.354652 0.280185
H 8.57135 4.08001 9.36883 0.208266 0.197245 0.244351
H 8.78232 9.12908 10.87 0.49825 -0.138191 -0.076996
H 1.99325 9.00777 11.8046 0.735136 -2.041168 0.636762
H 0.7724 11.6657 9.17437 0.360768 -0.465195 -0.424108
H 1.1356 0.85098 9.01681 -0.908422 -0.873579 0.300195
H 1.42213 9.90891 10.7476 -0.246997 0.228758 -0.248544
H 5.53973 10.5217 8.79249 -0.077009 0.56942 -0.488676
H 6.94669 12.1565 8.89687 0.115175 -0.193733 0.360648
H 4.76988 8.08671 0.3223 0.062782 -0.435008 -0.15852
H 4.65463 11.1702 0.0107 -0.550609 -0.559215 -1.062217
H 5.39924 10.966 10.1966 -0.632506 0.126803 1.635614
H 8.62752 11.2686 9.51274 1.041064 -0.638408 1.524133
H 7.71311 9.66916 1.45446 0.375194 -0.196337 0.058821
H 10.3201 9.92455 8.90242 -0.109011 0.010119 0.505217
H 9.94519 11.1487 10.5897 -0.389738 -0.542365 -0.577762
H 10.6987 8.74108 7.90917 -0.249023 -0.627779 -0.03454
O 2.52052 0.74867 11.4068 -1.117278 0.879031 0.083636
O 1.46048 3.73638 3.65355 -0.437021 -0.831473 -0.373536
O 3.59348 5.13411 0.56917 -1.888902 0.352288 -2.52023
O 9.74642 0.65217 0.46749 -0.220254 3.32633 0.332322
O 0.07208 5.80985 2.69705 0.085434 0.802305 -1.972119
O 10.3159 3.49359 0.70047 0.298304 -0.327846 -0.400637
O 5.59559 2.69767 4.13227 -0.62173 0.305055 0.268306
O 7.28693 3.38449 0.49052 -0.141906 -1.110525 1.161192
O 10.0101 4.61769 2.94414 0.48836 0.842132 1.111096
O 0.12317 8.62512 2.93463 0.466867 -1.272035 -0.04011
O 10.5536 8.39549 4.62455 0.208949 0.340637 -0.539405
O 11.5431 0.16762 4.31981 0.859183 1.41323 0.727124
O 2.16015 11.7417 4.09189 0.366385 0.417011 -0.860678
O 4.19435 10.8532 11.5749 1.290987 0.773798 0.83128
O 1.57155 11.7847 1.27077 -0.113505 1.327177 0.209176
O 4.21401 6.86883 4.4221 -2.357031 0.141464 1.016875
O 8.46181 7.26791 3.35311 -0.384506 1.308946 0.55302
O 10.7475 10.444 2.03677 -0.054724 0.771338 0.04808
O 8.50196 9.08016 1.4712 -0.144182 -0.032836 -0.497786
O 8.17825 2.51192 10.1687 -0.087652 -1.034809 -1.309034
O 1.03789 1.49755 5.79074 1.521434 -1.519342 -2.160962
O 6.2698 10.9096 4.22286 -0.245657 0.44806 1.13935
O 7.16193 1.60378 2.51813 -0.111357 0.192884 0.010777
O 1.92587 2.06647 8.30042 -1.26025 1.561032 0.627202
O 8.87961 1.68367 4.4425 0.243714 0.78408 0.789737
O 3.93262 4.53705 3.25241 -0.244622 0.134807 0.217419
O 2.09219 8.99014 4.48899 0.413047 0.22076 1.141907
O 2.67854 8.42291 7.27962 2.095757 0.64546 -0.189644
O 10.8865 5.34345 11.349 0.586463 -0.564441 0.285973
O 6.96146 3.84048 5.99151 -0.314274 0.013208 0.449344
O 5.67261 5.93279 6.78436 -1.494897 1.087776 -0.121095
O 7.33983 7.83037 7.05444 0.424286 0.08467 0.017393
O 9.613 3.78585 5.58871 0.700261 0.327024 -0.16493
O 4.45133 1.23339 8.15547 -0.512282 0.830193 1.268688
O 5.22935 9.51156 6.94032 -0.448619 0.555473 0.092339
O 4.46306 0.62859 5.70068 0.183809 0.316628 -0.632621
O 1.10741 9.92937 8.90647 -1.213312 -0.330499 0.292566
O 10.3756 10.5732 5.90199 1.623747 -0.139962 -0.794156
O 10.1888 7.5317 6.94976 0.042249 -0.765937 -0.753533
O 5.84485 8.45401 3.14807 0.312369 -0.071477 1.355838
O 0.22041 2.23216 1.72149 3.148601 -0.774376 -0.312943
O 7.97797 11.7559 6.03817 0.076581 1.173492 -0.750444
O 5.83264 5.27062 11.4426 -0.69024 0.34512 0.077969
O 11.1938 11.5801 11.3056 -0.873907 -0.278872 1.324469
O 11.4767 8.41711 11.5262 0.231353 -1.970401 -0.265727
O 11.1098 4.8452 7.46345 -0.961875 0.002032 0.802169
O 9.06705 4.9134 9.24018 1.159123 -1.135096 -0.477504
O 5.88556 3.33515 8.5699 -0.626519 0.900441 -0.502143
O 0.64609 4.36084 9.31868 0.043342 -0.198844 0.57808
O 3.03685 7.63789 11.9511 0.232287 0.939626 -0.38139
O 1.72029 3.18017 12.0306 0.905828 0.527325 0.513566
O 7.46548 6.86271 9.67326 -0.652976 -0.337251 -0.668559
O 5.72441 8.08896 0.58019 -0.972625 -0.368271 -0.072337
O 8.94524 8.24076 11.3032 -1.075432 0.898105 1.331208
O 1.6347 9.8734 11.7054 -0.587568 1.821369 -0.461425
O 0.60853 0.14421 9.54785 0.82333 1.281458 -0.04689
O 7.88731 0.04078 8.81368 0.129187 0.052881 -1.054569
O 5.60541 11.3259 9.33986 0.077869 -0.486144 -1.366358
O 9.18773 10.6442 10.1229 -0.64399 0.344052 -0.991891
O 11.0123 9.57441 8.30355 0.248421 0.630298 -0.28656
Na 11.6431 12.336 1.94031 0.264246 0.444812 0.132813
Na 5.55572 5.53667 9.34688 0.519699 -0.183468 -0.674124
Cl 6.5956 11.4442 0.86361 0.237696 0.019881 0.353979
Cl 3.25429 6.30047 9.37516 -0.749762 -0.117058 -0.372705
184
energy=-998.72760484 config_type=nep2xyz pbc="T T T" virial="-5.917725072684105 -2.825395718815697 -5.9954096507066685 -2.825395718815697 -12.916334418838083 4.108619281519275 -5.9954096507066685 4.108619281519275 -4.707640207365127" Lattice="12.4 0.0 0.0 0.0 12.4 0.0 0.0 0.0 12.4" volume=1906.6240000000003 Properties=species:S:1:pos:R:3:force:R:3
H 0.92668 0.69655 0.57347 -0.113607 0.508731 -0.075697
H 7.14258 1.82687 0.87165 -0.318439 0.49111 0.070374
H 3.1728 10.9241 12.0084 -0.394193 -0.317773 0.38857
H 3.20253 10.5891 10.5128 -0.863348 -0.269188 -1.227839
H 1.47754 1.23282 2.02954 -1.367981 -1.08506 -1.077769
H 3.81169 3.38614 0.18 0.351278 -0.297697 0.84929
H 2.94874 2.85702 2.18528 -0.807771 -0.772666 0.247354
H 1.74855 3.347 3.00892 -0.076428 -0.256309 0.004991
H 5.00053 3.77232 5.83423 -0.090604 0.005038 0.288149
H 5.5029 2.12212 0.96843 1.369926 -0.323727 0.090938
H 8.3884 10.0853 4.9683 0.308516 -0.564225 0.183686
H 7.62803 11.305 4.26265 0.550376 -0.187774 1.197672
H 6.87305 3.0896 4.20398 0.054757 0.064199 0.397781
H 8.32313 2.42167 3.91689 -0.231436 0.134111 -0.375331
H 1.19392 0.64121 10.6906 -1.211852 1.010544 0.508441
H 9.99415 6.14893 1.06353 0.084879 1.42929 -0.822399
H 9.29705 7.53346 1.2311 -1.938131 1.510754 1.802821
H 5.08754 2.54854 4.87927 -0.158767 -0.224426 0.223178
H 12.1593 0.45389 11.3368 1.169604 0.94696 -0.273925
H 1.59673 5.51708 3.97093 -0.292524 -0.200475 1.014873
H 2.79676 5.5214 3.00844 2.691903 0.543964 -0.062519
H 0.59451 6.25642 5.70577 0.056203 -0.529464 0.085117
H 0.94491 5.23162 9.88329 0.111102 -0.94862 -0.421289
H 4.43568 4.12651 1.52468 -0.408421 -1.002286 -0.851048
H 4.88216 6.38279 4.26405 -0.280162 0.121482 2.034563
H 4.65185 6.14788 5.94996 -0.62084 -1.322647 -0.082179
H 4.72575 6.6808 1.92061 0.441033 -0.422517 0.11214
H 5.71161 5.45747 2.49411 -0.784386 1.294273 -0.447241
H 3.21793 4.31805 7.22984 -0.201213 -0.223219 -0.674948
H 11.0819 5.02585 2.58719 -0.183841 -0.366264 -0.137444
H 10.7352 4.05596 1.40264 0.343647 0.544458 -0.175199
H 1.85416 11.3524 1.28246 -1.045299 1.548703 0.436321
H 7.524 10.293 0.1677 0.01694 -0.001657 -1.277743
H 11.9931 9.84064 11.1437 -0.553898 1.127138 0.46032
H 12.0842 8.69848 10.1575 -0.573384 -0.59523 -1.324965
H 3.71586 10.0181 4.06996 0.369388 0.113232 -0.114118
H 11.8213 9.20912 3.80094 0.092094 0.826935 -1.08507
H 7.54626 9.74674 1.61382 0.30961 -0.27088 0.178398
H 8.37231 8.28202 3.42014 0.53012 -0.019263 1.234178
H 2.83899 10.2845 1.53964 -0.139019 -0.199862 0.099801
H 6.53505 11.5549 2.23656 0.823614 -0.531256 -1.663891
H 12.318 9.36839 2.30495 0.03502 -0.811078 -0.739051
H 7.18182 10.9408 6.62205 -0.744765 -0.093955 -0.050312
H 5.90792 11.5732 7.36727 0.463719 -0.7268 0.009756
H 10.2607 4.73526 4.94261 0.324225 -0.225216 -0.58784
H 12.1675 0.37804 6.90928 1.814357 0.883494 -1.02622
H 11.8218 4.86293 4.64767 -0.783503 -0.494206 -0.117632
H 1.01702 2.55912 6.7489 0.470396 0.699068 0.385888
H 0.99332 3.65654 7.87249 -0.572025 0.265455 1.591622
H 3.34013 1.27416 4.20819 -0.507087 0.226208 -0.356019
H 4.1737 0.58273 5.30103 0.133185 -0.099001 0.538792
H 8.29239 5.18794 6.42636 -0.029804 0.13456 -0.242058
H 9.25358 11.9162 6.19331 0.335233 0.556029 -0.28287
H 1.01539 0.21994 5.82089 -1.358676 1.028743 1.376186
H 9.63346 0.49786 0.86018 0.297716 -0.040159 0.500622
H 9.5558 0.96646 6.80017 -0.301666 0.436851 0.512219
H 9.05391 11.4644 1.16523 0.169407 0.043244 0.315095
H 1.17666 4.74495 6.1105 -0.461839 0.276403 -0.544241
H 2.38901 7.5741 8.57125 -0.535058 1.451007 -1.119426
H 0.0902 3.964 10.0565 -1.515934 -0.698226 0.201473
H 4.43771 8.43132 5.53785 0.925822 -2.990105 -0.724686
H 7.01522 9.05826 9.68369 0.112182 0.231196 -0.226322
H 4.89302 9.64973 6.35838 -0.082298 0.142996 -0.439161
H 5.64645 7.59287 9.57891 0.079748 -0.019153 -0.08585
H 4.56327 4.40082 7.9043 -0.044513 0.042556 -0.974891
H 7.14164 7.15361 7.63533 0.735413 0.203106 0.643483
H 6.56557 6.77845 6.34511 -0.08317 -0.389284 -0.859008
H 8.47668 7.80629 5.76449 1.044547 0.808355 -0.108743
H 9.99079 8.46646 5.52697 -0.805689 -0.372159 0.027737
H 4.57222 10.9943 3.1718 -0.951801 -0.525619 0.286557
H 6.73364 9.36989 8.2332 -0.375451 1.500569 -1.065296
H 5.81386 0.2632 2.96987 0.46553 -0.779792 0.399982
H 7.748 5.25441 11.0536 0.167987 0.636817 -0.61276
H 8.31703 3.96776 11.6373 0.590807 -0.635942 0.150335
H 2.77642 8.97586 6.6227 0.823298 0.385585 0.212364
H 11.3389 8.01919 7.92019 0.306177 -0.020758 -0.773526
H 1.29557 8.79004 6.72233 -0.448579 0.066856 0.609071
H 10.7803 7.53949 9.29724 -0.291108 0.114619 -0.387641
H 0.69008 10.9757 3.77113 -0.064454 0.13212 0.44394
H 3.05397 2.22122 10.3906 0.506381 -0.672523 0.067605
H 6.45671 1.41953 10.074 -0.137836 -0.530416 -0.074772
H 10.5168 3.17822 10.8364 -0.246231 -0.800297 1.616552
H 2.36872 3.43247 10.7572 0.423304 0.327852 0.250823
H 3.47219 6.7715 9.29292 -0.678116 -0.098069 -0.137839
H 5.32202 1.49171 7.86664 0.462591 -0.422685 -0.400543
H 6.47955 2.84837 9.56556 -1.096714 2.316326 0.33988
H 8.42921 10.7796 10.0085 1.52519 0.516861 -1.239821
H 4.35619 3.85265 10.0702 -0.593743 -0.264501 0.626598
H 7.17773 11.5281 10.6537 0.041505 -0.602315 -0.212182
H 10.1708 2.99559 9.33992 0.3036 0.669886 0.079961
H 2.1323 11.3893 4.04519 -0.390443 0.400082 -0.084943
H 8.28801 2.26967 8.27561 0.822474 0.327461 -0.17369
H 2.03592 6.56576 10.7685 0.40966 0.490057 -0.478425
H 1.58192 7.85157 11.5253 0.18066 -1.030295 -0.111484
H 3.45023 7.66011 0.159 1.59883 -0.199554 -0.216737
H 5.13045 7.11003 10.9724 -0.312244 0.642167 1.824804
H 4.53196 8.72634 0.12291 0.275278 1.507266 -0.28233
H 8.21077 4.15304 5.2498 -0.818631 -0.653287 -1.123794
H 7.63881 4.52445 2.63606 -0.286321 0.498843 -0.544449
H 5.24109 5.19401 9.88167 -0.336585 -0.817053 -0.371179
H 10.5464 11.2489 10.5571 0.263446 -0.111252 0.415797
H 7.34596 5.11046 1.1556 0.256873 -0.239222 -0.120663
H 10.2093 5.32742 10.1096 0.179471 -0.714683 -0.203151
H 9.02348 3.28794 7.2371 0.130815 -1.054524 0.735869
H 10.0777 1.2784 4.50626 0.371907 0.153261 0.74622
H 10.4116 2.34442 3.38924 0.448268 0.97834 0.308312
H 10.0679 6.5203 11.1012 -0.321903 -0.072827 -0.449963
H 5.07554 11.8698 11.0838 -0.052331 0.090129 -0.024971
H 1.27972 10.1244 9.80851 -0.35883 -0.092116 0.594325
H 2.19592 12.2646 9.12777 -0.254766 0.502765 -0.30927
H 2.17564 9.88533 8.61835 0.044835 -0.025636 -0.897156
H 1.81458 0.89822 8.03074 -0.543044 0.02718 0.064105
H 3.99689 0.95049 8.102 -1.611461 -0.343909 0.73857
H 5.96446 0.54834 11.8856 -0.231028 -0.268409 -0.187256
H 10.4528 11.5157 12.205 1.507047 -0.738363 -1.476141
H 7.53554 7.36283 2.45962 0.500242 0.643255 0.265134
H 9.97782 11.4838 8.28643 -0.189895 -0.289512 0.309851
H 11.1745 7.78259 0.89486 -2.15224 -0.675638 -0.411368
H 12.3227 8.4951 0.15638 -0.067282 -0.004546 -0.335819
H 9.97919 9.99413 8.73616 0.664409 -1.70153 -0.451588
O 3.7601 10.662 11.2799 2.076825 0.412469 0.953149
O 6.25726 1.45005 0.99435 -0.97352 -0.039862 -0.156701
O 2.15047 2.51143 2.703 1.038764 0.608911 -0.05897
O 8.2054 11.0349 5.04583 -0.99795 0.943705 -0.962177
O 7.77245 3.22094 3.82677 0.245433 0.05807 -0.339644
O 0.52591 1.12297 11.2615 -0.271391 -2.02506 -0.158239
O 9.80226 7.06266 0.61912 1.259112 -3.135291 -1.061785
O 1.90782 5.27548 3.08389 -1.846745 -0.52416 -0.972845
O 4.15189 3.25205 1.11542 0.279035 1.365927 -0.069609
O 0.83865 5.3551 5.37847 0.21175 0.481552 0.606229
O 0.95783 4.249 9.7955 1.370614 1.417582 0.00789
O 4.86879 6.74254 5.23531 0.747944 0.920701 -1.927739
O 4.77518 5.91894 2.54516 0.373105 -0.635578 0.208699
O 4.14694 4.44081 6.96822 0.184793 0.588778 2.038264
O 11.1521 4.94441 1.59573 -0.232776 -0.201038 0.440371
O 2.14834 10.5367 0.89468 0.80412 -1.21385 0.014538
O 0.15884 9.10211 10.8784 1.449761 -0.168382 0.855357
O 7.6135 10.5579 1.07855 -0.122733 0.231201 0.867656
O 11.8639 9.83237 3.00959 -0.162721 0.179804 2.00694
O 12.079 8.02636 0.9683 3.276746 0.572674 0.847206
O 6.41215 10.7273 7.20926 -0.122941 0.822324 -0.254489
O 10.9549 4.53285 4.25756 0.338606 0.52081 0.504688
O 2.51491 6.75323 9.01609 1.171128 -1.65835 1.220194
O 0.63642 0.81362 6.59013 -0.577635 -1.916157 -0.818787
O 1.44461 3.40574 7.08312 0.198591 -0.800559 -1.703215
O 5.61748 3.27441 5.25868 0.287476 -0.323263 -0.825396
O 4.23354 1.02399 4.45172 0.334069 0.150773 -0.295443
O 9.94754 0.11522 6.56454 0.193451 -0.80495 -0.046613
O 9.88248 12.011 1.24016 -1.888638 -0.226549 -1.792187
O 6.71195 8.64867 8.84727 0.217583 -1.568371 1.372375
O 4.2138 9.30721 5.73711 -0.585968 2.803031 0.919317
O 7.40234 6.67825 6.82847 -0.648808 0.462126 0.035927
O 9.01611 8.53059 5.32436 -0.608362 -0.658766 -0.082284
O 3.66935 10.5443 3.2459 0.750378 0.344403 0.024052
O 4.74725 0.76226 7.55776 1.271064 0.457944 -0.41977
O 2.07463 8.95064 7.3006 -0.165358 -0.50991 -0.539739
O 11.1164 8.33305 8.79811 -0.492224 -0.303305 1.122377
O 6.20217 11.7596 3.09391 -1.18604 1.258737 1.250067
O 0.90452 0.50468 1.53305 1.148673 0.70766 1.012784
O 3.24635 2.9951 10.9471 -1.571656 0.278591 -0.456059
O 6.87772 2.01929 9.43525 1.109088 -1.580691 -0.806493
O 7.69173 10.6797 10.5779 -2.01422 -0.28216 1.808685
O 10.6551 3.57691 9.99174 -0.055211 0.296301 -1.656827
O 1.98538 6.94699 11.6602 -0.708712 0.895409 1.038067
O 4.44693 7.80298 0.30102 -1.757794 -1.441075 0.277906
O 8.78495 4.52076 5.91042 1.055061 0.552509 1.693903
O 5.05297 4.26597 9.55139 1.251444 1.090127 -0.82617
O 5.17933 6.87347 10.0647 -0.015195 -0.557777 -1.653137
O 7.2571 5.2957 2.1137 0.100328 -0.53334 0.603877
O 9.98586 6.26803 10.1529 0.069005 0.819233 0.824257
O 9.17643 2.51142 7.8785 -0.984348 0.586144 -0.594512
O 10.1244 1.45803 3.56932 -0.563413 -1.232619 -0.587274
O 2.07205 0.84291 8.97041 1.131083 -0.735192 0.260325
O 2.04542 10.5065 9.35532 0.041545 0.491752 0.234597
O 7.63089 4.62235 11.752 -0.812323 0.0771 0.789741
O 5.80298 0.13877 10.994 0.148125 0.127115 0.596069
O 7.9883 8.23947 2.55069 -0.920919 -0.833712 -1.388204
O 11.0759 11.221 11.3947 -1.311077 0.925422 1.166651
O 1.20503 11.6749 4.24188 0.652447 -0.494016 -0.095984
O 9.83301 10.8705 9.04884 -0.158701 2.024855 -0.338886
Na 0.8733 5.9759 1.32127 -0.586901 0.321973 -0.595068
Na 11.422 12.0648 2.47307 1.146537 0.30243 1.062898
Cl 9.79623 2.47858 0.42925 -0.276255 0.100952 -0.135037
Cl 11.9612 8.17863 5.83811 0.09291 -0.096505 -0.330553
184
energy=-999.52314778 config_type=nep2xyz pbc="T T T" virial="-11.299940646131796 1.3566597653655315 -2.6343854305436154 1.3566597653655315 -12.662348213455799 -3.3768158002849797 -2.6343854305436154 -3.3768158002849797 1.0242987697172243" Lattice="12.4 0.0 0.0 0.0 12.4 0.0 0.0 0.0 12.4" volume=1906.6240000000003 Properties=species:S:1:pos:R:3:force:R:3
H 0.02455 3.3458 4.19812 -0.973189 2.588919 -0.82316
H 6.46574 5.17237 3.06114 -0.69723 -1.132095 -2.511837
H 8.67172 11.3557 0.52791 -0.132213 0.277073 -0.277655
H 8.98872 0.44449 0.98641 0.520756 -0.216794 -0.14172
H 12.0521 1.92382 4.49355 0.671428 0.438201 0.117578
H 2.54517 4.40716 10.576 0.740483 -0.200063 0.386557
H 0.62285 3.6162 1.13767 -0.833214 -0.339616 -0.249031
H 1.95251 4.28919 1.42748 -0.132561 -0.95192 0.315397
H 4.99863 1.91564 8.92294 0.021098 0.381046 0.649387
H 6.34663 6.57173 3.87377 0.667807 -1.213347 -0.410656
H 10.1596 0.94409 3.82465 0.155701 0.201078 0.469588
H 10.3262 0.26901 5.26673 0.089569 -0.968393 0.496451
H 10.0087 9.33072 10.1229 -0.251063 -0.585984 -0.433327
H 8.86085 9.73383 9.08337 0.818032 -0.411456 0.023567
H 3.20644 0.4158 0.36244 0.107651 -0.045556 -0.396759
H 7.51489 8.32598 11.8484 0.671258 -0.227065 0.658998
H 7.41688 6.67738 11.6337 -0.17086 1.841927 0.120938
H 4.44903 0.93102 10.0144 -0.959996 0.166246 0.370296
H 4.38628 0.52302 1.32698 0.349252 -0.099159 0.262545
H 7.39715 7.21641 6.04014 -1.246634 0.144624 0.284245
H 8.51832 6.18883 5.57893 0.069475 0.874165 0.321633
H 11.3754 5.05436 8.52206 -0.381603 1.418596 0.523881
H 12.0559 2.97771 9.30873 -0.05638 -0.156886 -0.082641
H 3.46631 4.28855 11.9446 -0.637493 -0.36721 -1.765121
H 5.98795 4.39379 4.52959 0.267309 0.812311 -0.274587
H 6.57181 3.19993 5.28405 -0.371303 -0.0924 0.023079
H 3.10869 8.51573 2.38688 0.430838 -0.960272 -0.212979
H 2.26688 7.38867 3.07449 1.181484 -0.545567 -0.189549
H 4.7767 4.64138 6.49772 0.516462 -0.753474 -0.976025
H 1.2148 5.7688 9.8237 1.204597 -0.444729 -0.199898
H 2.71578 6.1742 9.45517 0.038399 -0.113149 -0.260688
H 3.00341 1.43983 4.94991 0.634739 0.571177 0.460652
H 9.29223 9.02665 0.37963 1.042226 -0.27586 -0.718441
H 1.13244 7.37583 7.40164 0.232506 -0.448061 -0.145889
H 12.3215 7.1014 8.41664 0.142726 0.092782 -0.297623
H 6.7747 0.97588 1.00837 1.461627 -0.916358 -1.428161
H 11.2596 1.13571 1.88171 -0.847728 -0.526241 0.032626
H 8.3762 9.43683 1.48836 -0.682263 -0.03062 1.4235
H 5.49371 7.98087 11.7212 -0.840102 -0.35441 -0.41507
H 4.25876 2.37696 4.55854 -0.008015 0.209279 0.295755
H 8.6114 11.4311 7.77923 1.233317 0.33498 -1.125046
H 10.1384 2.15657 2.00176 -0.221902 0.365625 -0.237034
H 5.23991 0.12327 7.82515 -0.561383 0.121097 0.847194
H 6.39117 11.5427 7.79954 0.773243 -0.551891 0.05531
H 9.06234 1.72215 5.54356 -0.503313 0.571018 -0.358921
H 0.25771 11.5472 6.63669 0.077725 -0.087814 0.215921
H 8.30969 2.11349 6.85754 -0.100864 0.217455 -0.947073
H 1.79141 6.54341 4.88034 -1.330459 0.25983 -0.91501
H 0.47671 6.03061 4.00676 -0.427702 -0.653617 -0.180615
H 10.3711 9.02726 7.8246 -0.322367 -0.179354 -0.265776
H 11.4932 8.30298 7.0895 -0.628174 0.641912 -0.455718
H 6.62179 12.0349 4.37253 -0.797038 -0.37746 0.214836
H 1.77639 0.72278 6.70914 -0.186813 -0.789345 0.74165
H 0.3374 11.4613 8.22711 0.838466 -1.148257 0.684854
H 0.53312 0.31774 0.63296 -0.150737 0.379386 -0.05545
H 1.45574 1.76762 5.73144 -0.493339 0.809918 -0.515102
H 0.18466 11.9241 1.84743 0.079088 -0.356958 0.365525
H 10.1752 6.14245 8.68238 -0.292406 0.146092 -0.032536
H 1.26147 4.32665 8.30773 -0.732086 -0.760214 -0.527927
H 11.1395 2.86223 10.6247 0.379673 -0.254821 -0.333495
H 5.49469 7.963 4.94881 -0.124416 -0.245987 0.066821
H 5.16742 6.69028 7.0219 0.433562 0.690416 -0.297453
H 4.74426 7.8958 3.58297 -0.872048 -0.046042 -0.358764
H 8.07522 3.82799 9.37038 0.007097 1.008129 -0.153507
H 4.25298 4.55652 7.96366 0.811257 1.0103 -1.181821
H 8.78622 4.12373 5.51039 0.241063 -0.365763 -0.286866
H 8.28699 5.03893 4.36281 -0.52161 -0.014166 -0.513112
H 4.50336 4.91924 1.1957 -0.001191 0.693736 -0.136538
H 3.81323 6.28435 1.62743 -0.519671 -0.313406 -0.304702
H 6.63741 1.02285 2.5611 -0.182064 -0.027512 -0.516835
H 5.09272 8.3023 7.03588 0.628106 -0.888508 -0.088389
H 8.00096 11.7477 9.22263 -0.113713 -0.586748 -1.182999
H 7.70073 4.565 11.406 0.749678 0.313755 0.165295
H 8.75738 4.61625 0.25897 -0.117686 -0.033617 -0.607701
H 3.09218 6.08411 6.7379 0.483822 -0.313788 -0.042194
H 11.6584 6.02667 10.6349 -0.139616 -0.293541 0.194248
H 2.90048 7.59147 6.33755 0.681902 0.908851 -0.211069
H 12.3465 5.49131 12.0042 -0.7996 0.687237 -0.829827
H 4.7391 12.3797 4.61741 -0.341939 0.23764 -0.435975
H 0.47867 11.9359 10.3305 0.527242 -0.213678 0.539224
H 7.85448 0.37914 11.1674 0.239582 -0.04113 0.395383
H 9.85027 2.26442 8.82072 -0.396922 0.533134 -0.615586
H 12.3375 0.9451 10.4484 0.32065 0.321959 0.528613
H 0.663 3.18608 7.27092 0.252594 0.534241 0.597984
H 3.59782 9.31642 0.40866 0.469454 -0.03573 -0.522266
H 6.66482 0.65987 10.0862 0.459688 0.215501 0.096467
H 7.00235 9.26615 3.8648 -0.210062 -0.069749 -0.2224
H 4.39165 3.97779 9.74864 0.427878 -0.512904 0.468912
H 7.98521 10.4862 3.86069 -0.202512 1.949531 0.399772
H 8.42799 1.90599 9.10698 -0.236626 -0.226352 -0.229182
H 5.13276 11.6802 5.91714 0.61242 -0.203377 0.544515
H 10.7314 11.799 7.28275 -0.645531 -0.543675 -1.29326
H 2.05001 10.2149 9.16097 3.30027 0.356378 -0.127385
H 0.88344 9.47978 8.82302 -1.077462 -1.608194 -0.602015
H 4.10539 7.51969 10.2001 0.514551 0.26009 1.310032
H 7.72644 5.43162 9.19233 0.491815 -0.915677 0.54005
H 3.67271 8.09261 8.89084 -0.127503 0.895518 -0.939619
H 7.5383 0.76908 4.84615 0.084337 0.409638 0.032148
H 11.3389 4.61343 2.4528 0.082362 0.210459 0.864678
H 5.91985 4.10929 9.40467 1.087608 0.572207 0.301112
H 10.9499 7.6187 12.0373 0.684057 -0.532979 -0.168224
H 10.5456 4.89878 3.77983 0.080156 -0.148027 0.253225
H 8.72316 7.02591 7.43201 -0.163083 0.270407 -1.512826
H 10.2902 10.5869 6.38867 0.146952 -0.117753 0.467186
H 6.06142 3.04596 1.66299 0.493447 1.432166 -0.146881
H 6.78493 4.32925 0.91909 0.27666 -0.07613 -0.130162
H 8.77116 7.56809 8.86789 0.116439 0.188348 0.335034
H 3.17713 2.18817 11.4292 -0.47278 -1.553672 -0.979467
H 4.6576 10.314 7.78772 -0.156862 -0.128248 0.20702
H 1.03859 9.909 1.10472 0.819628 0.078435 -0.164443
H 3.57174 9.73411 6.84321 -0.239332 -0.391245 0.076479
H 12.295 9.44824 1.96501 -0.693371 -1.226575 1.833186
H 3.50042 10.7826 1.17138 -0.79786 -1.563441 -0.437137
H 2.09036 1.00448 10.9849 1.771882 0.154864 0.314627
H 11.54 9.07423 12.3061 -0.838645 -0.674365 0.03992
H 4.14918 7.25327 12.1589 0.358133 0.298931 -0.20611
H 3.69219 10.5249 5.16985 -0.741284 -1.250778 -0.298288
H 0.0411 9.62928 4.00563 -1.055925 -0.193723 -0.143568
H 0.14963 8.10764 3.94827 -0.808572 -0.030597 -0.168384
H 2.17908 9.95248 5.03736 1.134946 0.226124 0.375452
O 8.6149 12.3008 0.26509 -0.487358 -0.101025 0.151854
O 6.82683 5.63986 3.78205 0.164434 2.431292 2.031649
O 1.46272 3.43672 1.56825 1.121885 1.483048 -0.245564
O 10.3037 1.10704 4.80381 0.134465 0.751755 -1.020265
O 9.61112 9.07519 9.25693 -0.71206 1.283823 0.881436
O 3.53085 0.07466 1.22667 -0.062565 0.274138 0.288196
O 7.10107 7.60062 11.3623 -0.466891 -1.5728 -0.361566
O 8.33297 7.13168 5.88373 1.108713 -0.43604 -0.944764
O 3.23134 3.83255 11.0686 0.358772 0.710273 1.772167
O 11.1056 5.92654 8.95441 1.01476 -1.625347 -0.507345
O 11.4658 2.37812 9.82653 -0.538975 0.181809 0.434342
O 5.72322 3.64265 5.06864 -0.15886 -1.236336 0.910053
O 3.19424 7.56005 2.70042 -1.037539 1.538509 -0.012874
O 4.28935 5.15556 7.13594 -0.829148 -0.208098 1.490257
O 2.07718 5.36694 9.50067 -1.758123 1.082787 0.211341
O 3.56724 1.78749 4.22296 0.29039 -0.71166 -0.690801
O 0.45145 7.79727 7.95029 -0.331257 0.218368 0.462162
O 8.42455 9.42048 0.54332 -0.3852 0.609404 -0.546142
O 10.2739 1.20732 2.10845 0.779489 -0.099762 0.290724
O 11.8698 8.82283 3.77412 1.187611 -0.198991 0.225591
O 5.47822 11.6509 7.48037 0.104721 0.138993 -0.649029
O 8.18698 2.14165 5.86041 0.490648 -0.243167 1.098537
O 0.45632 3.79725 8.01087 0.502022 0.32426 0.089489
O 0.06058 11.9897 7.49016 -0.699956 1.302304 -1.196781
O 1.15213 6.70991 4.07759 1.333967 0.39158 1.109693
O 5.06623 1.00822 9.27462 0.830675 -0.028344 -0.536166
O 10.6217 8.77514 6.90002 0.926546 -0.129797 -0.111223
O 2.13836 1.54046 6.37645 0.064394 0.119296 0.062626
O 0.39063 0.43922 1.59167 0.023887 0.042461 -0.6424
O 5.60765 7.51154 6.65054 -0.896288 0.380212 0.38822
O 5.62559 7.9673 3.9702 0.947633 0.110672 0.619887
O 9.07781 4.82509 4.89804 0.112325 -0.062567 0.365867
O 3.8198 5.59017 0.91265 0.520124 -0.467541 0.578543
O 6.22662 1.2926 1.68959 -1.346662 0.730471 2.108027
O 3.10318 9.83349 1.05173 -0.03149 1.528523 1.028555
O 2.47921 6.74202 6.33134 -1.222231 -0.271261 -0.076511
O 12.135 6.2857 11.4533 0.733177 -0.44109 0.414382
O 7.98715 11.1055 8.41605 -1.283234 0.321423 2.361405
O 0.43078 2.54978 4.44315 0.124198 -3.336278 0.733171
O 0.56334 0.32069 10.9045 -0.720077 0.04236 -0.834508
O 7.64563 0.636 10.2478 -0.561585 -0.02373 -0.612471
O 7.87755 9.59682 3.594 0.537625 -1.751618 -0.426789
O 8.93393 2.42516 8.43875 0.572086 -0.548841 1.468979
O 1.14256 10.2648 9.28259 -2.277131 1.065334 0.798782
O 3.78524 7.25647 9.32968 -0.535775 -1.286194 -0.77632
O 7.28482 0.2567 4.05822 0.849304 0.143188 -0.609757
O 5.09601 3.73383 9.09685 -1.676797 -0.523134 -0.147096
O 7.63064 4.61614 9.7801 -0.37798 -0.112403 -0.981527
O 11.4495 4.85666 3.41338 -0.001232 -0.172517 -0.865229
O 8.68327 6.75261 8.34819 -0.014633 -0.988604 1.879563
O 9.99356 11.4818 6.64562 0.662439 0.731946 0.722216
O 6.15423 4.05974 1.62863 -1.24016 -1.281857 0.595692
O 0.10082 10.0451 1.27489 0.119557 1.13711 -1.784965
O 4.06611 9.52676 7.68462 -0.003391 -0.105405 0.359762
O 7.88122 4.8992 12.3233 -0.268396 0.135486 0.264373
O 3.09515 1.18199 11.1997 -1.383527 1.102299 0.423652
O 4.47722 8.02547 11.6406 0.600987 -0.295132 1.094303
O 10.7337 8.5548 12.0236 0.238198 1.46827 0.120156
O 5.1015 11.5427 4.94581 -0.687735 -0.021128 -0.37913
O 3.09829 9.72113 5.37706 -0.314766 0.996677 -0.682776
Na 9.71896 8.61236 4.66979 0.148642 -0.251431 0.295886
Na 2.05811 1.6304 2.64677 -0.215447 -0.309309 0.014811
Cl 10.8479 3.69148 0.42387 0.129834 0.201099 -0.001979
Cl 0.72849 11.3377 4.38897 0.155101 0.463003 0.403762
184
energy=-999.48213821 config_type=nep2xyz pbc="T T T" virial="-5.696214543377736 2.3187204310603904 -5.310850007516118 2.3187204310603904 -8.355507115741391 -3.781958486985062 -5.310850007516118 -3.781958486985062 -0.3644082641248327" Lattice="12.4 0.0 0.0 0.0 12.4 0.0 0.0 0.0 12.4" volume=1906.6240000000003 Properties=species:S:1:pos:R:3:force:R:3
H 0.50993 3.77352 4.28581 0.244466 0.288971 0.30503
H 2.59445 12.0431 11.7391 -0.06812 -0.133599 -0.236899
H 12.0281 7.47125 3.64354 -0.27712 -1.491379 -0.71493
H 0.34449 5.24837 3.89487 -0.271204 0.772749 -0.267837
H 3.853 11.6555 0.13 -0.410098 0.739752 -0.319229
H 2.96174 5.95359 0.66167 -0.493476 -0.409461 0.28333
H 4.00288 5.21549 12.3572 0.647638 -0.397659 -0.20974
H 8.64489 9.2853 2.18977 -0.374702 -0.548348 0.456767
H 10.0926 8.745 0.4894 -0.189754 0.784417 0.055824
H 9.01835 0.9688 0.60916 -0.27336 -0.596198 0.091095
H 9.97656 2.09679 0.70357 0.35804 2.076974 -0.097146
H 10.3531 4.30591 0.32553 0.345445 0.185202 -1.047787
H 2.59383 3.44409 0.21447 -0.569705 -1.61961 -0.300391
H 2.21472 10.5173 5.69018 0.569475 -1.439046 0.020275
H 3.9366 4.16608 4.41316 1.007165 -1.165027 -0.839873
H 6.72588 3.11763 0.3473 -0.839601 -0.584057 1.009935
H 4.32417 3.17374 3.1094 0.314496 0.432252 1.50406
H 8.15693 3.75865 0.12076 -0.055444 -0.276979 -0.029433
H 10.3477 5.95136 3.07606 0.239616 0.140261 -0.362512
H 2.57353 8.38107 2.19039 -0.643427 -0.703917 -0.435662
H 12.0903 6.73628 2.22786 0.310409 0.101571 -1.676959
H 9.38833 4.81674 3.49845 -0.447038 0.039158 0.035168
H 2.66561 11.7361 3.68447 -0.924738 0.329898 -1.343064
H 11.7354 11.5016 5.61324 0.095389 -1.710982 1.422758
H 2.13258 12.0473 1.53383 2.36732 -0.136534 -3.281232
H 0.83547 11.5022 2.18601 1.242345 1.259765 0.407024
H 4.03129 11.1101 4.06901 0.765764 -0.14168 -0.362429
H 4.87733 9.65348 11.4993 -0.779394 -1.286379 -0.336228
H 2.79107 8.414 4.74676 -0.053727 0.994864 1.177724
H 3.98574 7.89579 3.84578 0.044955 0.165493 -0.102539
H 8.10654 7.83826 4.03774 -0.064845 -0.475034 -0.970862
H 11.9726 10.2149 3.45455 0.219255 0.069936 -0.117221
H 10.9131 10.2523 2.36683 0.238732 0.429084 -0.491022
H 8.48075 6.93518 2.75648 -0.567013 0.670348 0.762757
H 6.32054 7.76117 2.48855 -0.656579 0.240475 0.214567
H 1.19577 2.34135 9.25563 -0.181273 0.147276 0.16709
H 2.40528 1.59709 8.60871 -0.18621 -0.254577 0.265355
H 7.47958 2.68391 10.6933 0.553711 -0.033435 -2.169782
H 1.458 1.86596 5.96279 0.826089 0.049528 -0.899101
H 0.85967 1.77428 7.26322 -0.291034 -0.146819 1.214334
H 2.31926 4.96204 5.0963 -0.82453 0.047967 0.22806
H 11.7726 7.67811 0.39534 -0.106022 0.087512 -0.601891
H 7.68249 1.83365 9.21614 0.008572 -1.230751 -0.00135
H 5.39839 9.62737 2.84114 0.197083 0.694905 0.796852
H 6.15658 11.0527 2.89526 -1.365934 -0.848543 0.705071
H 3.8807 6.13358 6.84801 -0.661357 -0.228805 -0.682859
H 10.214 11.028 6.08399 0.438799 -1.4527 1.103108
H 5.48527 1.45676 1.23118 0.308855 -1.843007 -0.591635
H 11.7771 3.19643 6.43763 0.518226 -0.45878 -0.149348
H 8.16815 0.99207 2.98895 -0.198448 -0.122815 -0.11696
H 9.63588 4.21354 1.66771 -0.035299 -0.049645 -0.346788
H 8.75374 2.04404 4.10889 0.362561 -1.735488 -0.839233
H 3.10956 6.25817 4.79178 0.03601 -0.71516 0.670276
H 0.66586 9.11226 5.10498 -1.178496 -0.01507 -0.551369
H 1.90042 9.72178 6.98571 0.247389 -0.684576 -0.056221
H 4.63845 8.12905 7.72501 0.215346 0.327444 -0.79974
H 1.45664 3.25054 10.905 0.162356 -0.13253 0.526289
H 6.48239 3.9165 6.44946 -0.142208 0.008404 0.492837
H 5.97872 3.58896 5.03695 0.70941 -0.273872 -0.008286
H 5.39253 6.26732 7.1026 0.400123 -0.219138 -0.021089
H 7.82828 6.97766 6.17474 -0.12448 -0.115848 0.376413
H 5.50322 9.32001 7.11037 1.307135 0.469691 -1.935708
H 1.69992 7.66304 0.96539 -0.252956 0.393018 0.784389
H 8.40545 3.715 5.0835 -0.596014 -0.021304 -0.072796
H 11.5809 9.24601 5.41578 -1.543742 0.599072 1.623723
H 9.99986 3.56394 5.17364 -0.942916 -0.136565 -0.573641
H 12.0748 0.59947 5.72333 0.538531 0.813605 0.668756
H 4.10626 1.44641 7.4321 -0.288542 -0.326919 0.052828
H 4.49287 0.74874 8.79113 0.213507 -0.019575 -0.174793
H 4.54513 2.5123 0.45795 -0.440276 -0.617097 -0.773604
H 7.96919 0.16619 7.44632 -0.071865 0.335484 0.551195
H 3.62098 2.18495 5.58088 -0.003803 -0.588618 -0.368809
H 7.40952 9.30848 5.84394 -0.500094 0.532657 0.116497
H 6.366 10.1534 5.033 -0.631994 0.060809 -0.999426
H 3.24614 0.66386 5.3681 0.408856 -0.486476 -0.434669
H 10.3887 10.4247 7.51407 0.576296 -0.032417 -0.653469
H 1.94873 8.56145 9.09331 -0.447196 -1.688769 0.710961
H 3.18846 9.26161 8.44339 -2.271062 0.65427 0.835461
H 5.02766 7.84789 1.5354 0.008658 -0.171927 -0.319627
H 11.8475 6.68362 6.2525 0.004775 -0.293151 0.204367
H 11.2589 5.26541 6.63125 0.056626 -0.576982 -0.31976
H 0.41113 2.62793 2.18364 0.088294 0.229293 -0.201082
H 1.03504 1.24933 2.50041 -0.044327 0.251205 0.630516
H 12.1286 6.19366 12.33867 -0.057171 0.748152 0.821995
H 8.45388 0.20408 5.15572 -0.371597 -0.842528 1.397086
H 7.82073 11.2839 5.87156 -0.683715 -0.50603 -0.060557
H 6.40577 4.85674 11.6365 0.540418 -0.39536 0.232436
H 5.96896 6.35791 11.2862 0.134731 0.13561 0.083177
H 12.3647 11.4087 11.0623 0.758917 0.303078 0.040222
H 6.54303 3.60555 8.44239 1.678785 -0.882047 1.169264
H 10.9505 9.6145 11.8848 -0.236984 -0.526359 0.463944
H 9.75169 4.95796 8.89306 -0.447426 0.041915 -0.319882
H 10.3982 3.54019 7.21906 0.261354 0.425206 -0.527851
H 11.3525 12.1919 12.0476 0.178156 -1.087965 -0.689473
H 5.08322 3.05878 8.31777 0.800811 0.090111 -0.01241
H 1.44638 4.47374 9.90637 -0.410752 -0.397976 0.375753
H 2.63276 1.76695 12.34239 0.542089 -0.206992 0.339313
H 11.8849 4.30942 11.0187 1.166132 -0.716258 -0.963227
H 10.847 5.43092 10.665 -0.046034 0.58951 -1.006305
H 7.91836 5.3324 7.75701 0.739557 -0.612855 0.039665
H 7.17046 7.92515 9.83102 -0.155816 -0.020115 0.118414
H 7.08608 6.55576 8.2142 -0.110082 0.028238 -0.144733
H 9.3062 8.35915 10.9434 -0.467299 0.441243 -0.375504
H 9.31813 7.29474 6.02787 -1.497208 0.958962 -0.474225
H 8.80274 3.69499 8.94032 -0.599829 -0.847649 0.777616
H 8.83048 9.08756 9.62561 0.269878 0.626549 0.033971
H 3.54341 8.23803 0.03621 0.243494 0.379069 0.048299
H 1.91513 10.804 9.89897 0.15603 -0.178197 -0.77921
H 1.50719 0.0089 9.86104 0.37743 -0.546869 -0.358803
H 3.87599 7.61378 11.1024 0.085587 -0.059468 -0.264809
H 5.2561 10.7232 8.47752 -0.282256 -0.171108 0.36242
H 6.92383 12.2667 8.61197 0.493414 0.250902 0.159211
H 5.88573 8.36323 9.01122 -0.094198 0.32721 -0.072385
H 5.69245 10.6429 12.2821 0.045069 0.710349 -0.886938
H 5.23743 11.204 10.0304 0.440388 -0.034936 -1.057278
H 9.15323 11.7597 8.99515 0.023684 -0.303331 0.068012
H 8.55297 10.7129 1.47418 1.166074 -1.554018 0.251253
H 9.85708 7.22208 9.62058 0.229962 -0.666919 -0.788769
H 10.3206 11.1951 9.92362 0.350859 0.261084 0.502351
H 10.8329 6.52064 8.46535 0.018478 0.352746 -0.187852
O 3.12248 12.3245 0.12271 0.52815 -0.485342 0.237112
O 0.64548 4.686 4.61978 0.269106 -1.341849 0.009243
O 3.2883 5.041 0.59168 0.077269 0.44885 -0.049348
O 9.91627 1.17696 0.89585 0.332489 -2.195421 0.198645
O 11.8955 6.58371 3.15201 -0.057027 1.575776 2.702122
O 9.73961 3.73146 0.80523 -0.542628 0.380272 1.021762
O 4.48819 3.35844 4.08407 -1.222536 0.875595 -0.383213
O 7.26649 3.57767 12.1155 1.079933 0.425288 -0.582275
O 9.50004 5.52329 2.80472 0.030562 -0.156822 0.322374
O 2.33997 8.35666 1.23691 0.509819 0.068386 -0.307063
O 12.1355 9.03389 4.6876 2.916633 -0.804067 -0.775427
O 11.8083 12.2941 5.13829 -0.261936 1.319264 -2.444925
O 3.27022 11.5967 4.40234 -0.215111 0.188679 1.783038
O 5.10634 10.5895 11.4873 0.734056 0.809135 1.377311
O 1.62086 12.1719 2.28177 -3.765093 -1.339327 2.843565
O 3.05004 7.78637 4.08518 0.246745 -0.992226 -1.257966
O 7.95067 7.75421 3.0432 0.574609 -0.407395 0.219492
O 11.7808 10.661 2.59738 -0.69789 -0.1765 0.243271
O 9.17858 9.9113 1.68585 -0.752335 1.830507 -0.523373
O 7.73476 2.67253 9.68788 -0.353894 1.306696 1.911427
O 0.59733 2.00993 6.35814 -0.745465 0.078009 -0.14003
O 5.49702 10.469 3.41023 1.402138 0.109714 -1.401264
O 5.11408 2.31639 1.186 0.290292 2.508431 1.407063
O 1.43818 1.49049 8.82018 0.527535 -0.248507 -0.253341
O 8.76087 1.02827 3.75107 -0.136633 2.007367 1.065574
O 3.14034 5.41799 5.36012 0.519154 0.684994 -0.805393
O 2.18894 9.57275 6.05356 -0.880795 1.927809 -0.450875
O 4.87804 9.10609 7.77198 -1.69705 -0.72203 2.122826
O 12.297 6.8927 0.64376 0.680781 -1.028287 -0.586153
O 6.79434 3.5691 5.60684 -0.514106 0.157421 -0.697753
O 4.52917 6.6055 7.38545 0.270773 0.08193 0.215585
O 8.40506 7.66916 5.77829 1.712211 -0.588469 0.083789
O 9.19252 3.52991 4.5204 1.0558 -0.070517 0.642839
O 4.15966 1.58666 8.40586 0.029546 0.145112 0.347469
O 6.7663 10.0703 5.90276 0.838826 -1.514988 0.734285
O 3.25429 1.38606 6.02088 -0.062207 1.10594 -0.10635
O 2.20662 9.40844 8.77573 2.807076 1.267308 -1.452115
O 10.7412 10.3033 6.57822 -1.612314 1.41069 -0.046053
O 11.2767 6.21241 6.87583 -0.132601 1.36144 -0.083112
O 5.34328 8.01559 2.43015 0.720544 -0.024359 0.158966
O 0.58225 2.04258 2.92705 -0.388378 -0.244728 -0.302561
O 8.32977 12.0814 6.04429 1.549764 1.709995 -1.609053
O 5.67416 5.4479 11.3954 -1.163355 0.476503 -0.426742
O 11.519 11.357 11.5275 -1.095635 0.559922 0.611888
O 10.6546 8.68187 12.0983 -0.01578 0.480286 -0.587138
O 10.954 3.71306 6.40385 -0.787222 -0.134704 0.651234
O 9.2436 4.3103 8.341 0.620027 0.498754 -0.584266
O 5.68143 3.8442 8.17135 -2.815393 0.4889 -0.639796
O 0.93501 3.66988 10.1865 0.207419 0.623399 -0.569633
O 11.205 4.87564 11.3579 -0.633963 0.493077 1.996472
O 2.12511 2.58543 12.3019 0.035417 2.046199 0.16191
O 7.25792 5.96671 7.44027 -0.572906 0.930277 0.00466
O 6.32261 7.61109 9.43831 0.093852 -0.704806 0.228015
O 8.65722 8.31365 10.178 1.003026 -0.187746 0.704911
O 4.29775 8.16703 11.7908 -0.347133 -0.330503 0.607066
O 1.72245 11.6061 10.4026 -0.77954 0.874478 0.762065
O 7.78461 0.33832 8.43477 -0.400084 -0.565668 -0.340169
O 5.40127 11.4784 9.06225 -0.126501 0.702396 0.765404
O 9.81384 11.025 9.12554 -0.631848 -0.284668 -0.624409
O 10.3845 6.43038 9.33338 -0.079779 0.194942 0.852524
Na 10.8246 0.62074 3.08186 0.530438 -0.198891 -0.041047
Na 4.62202 5.5481 9.32628 0.809728 -0.344261 0.096018
Cl 7.06493 12.1911 0.97436 0.006765 -0.131845 0.419138
Cl 2.49152 6.4479 10.0719 -0.672563 0.171173 -0.017073
184
energy=-998.12007672 config_type=nep2xyz pbc="T T T" virial="-2.481063110806683 3.529721612633617 -5.455925480964811 3.529721612633617 -14.788047220569197 7.124620681429853 -5.455925480964811 7.124620681429853 -19.726158816194584" Lattice="12.4 0.0 0.0 0.0 12.4 0.0 0.0 0.0 12.4" volume=1906.6240000000003 Properties=species:S:1:pos:R:3:force:R:3
H 12.0552 1.68488 4.37115 -0.098605 0.168019 -0.2912
H 5.45084 8.24916 3.85094 0.704008 -0.834467 0.545204
H 8.50684 2.87677 11.4073 -0.233217 -0.181811 0.197153
H 7.66322 2.21472 10.262 0.107493 -0.164009 1.482832
H 11.5406 2.22256 2.966 0.203694 0.101181 -1.464663
H 2.45231 3.41351 12.0555 0.210542 -0.164061 -0.023761
H 1.02399 6.36333 1.63782 0.079662 0.11455 -0.174342
H 0.73601 7.41073 0.54402 0.184974 0.206865 -0.506492
H 5.75776 0.82021 8.10867 0.191522 -0.814873 0.151432
H 6.76428 7.19455 4.19215 -1.8125 1.544391 -0.246548
H 11.2496 4.02049 4.32511 -1.02877 1.268793 1.167955
H 11.1378 5.58218 4.12566 -0.474471 -0.081344 0.375496
H 7.32899 8.67028 7.53813 0.176774 0.209708 0.108445
H 8.80232 8.38252 7.06186 0.412154 0.058465 -0.940601
H 5.41938 11.1461 0.5615 -0.342822 -0.174197 0.388529
H 6.73356 8.10378 9.88309 -0.241041 -0.156697 0.22717
H 7.43224 7.34552 11.0533 -0.922637 -0.163003 -0.463609
H 4.70523 0.22332 9.04277 0.159308 -0.043803 0.070464
H 6.02967 10.6311 11.6733 0.310596 -0.602583 -0.318856
H 9.28232 3.56709 6.82877 0.013783 0.192112 0.539975
H 8.24838 4.64532 7.44315 -0.579895 0.287286 -0.012892
H 0.14009 2.44602 8.70765 0.241692 -1.030262 0.350621
H 0.82917 4.58359 10.9755 -0.343527 -0.565254 0.923849
H 4.05823 3.36551 12.1984 0.627716 0.614455 0.326578
H 3.94882 3.19825 4.86135 0.294138 0.645842 0.045948
H 3.7326 2.57136 6.30158 -0.135683 0.333928 -0.45004
H 4.04125 8.58731 2.20093 -0.239613 -0.164592 -0.361559
H 3.31917 7.66137 3.20448 -0.981954 -1.239474 0.104997
H 5.44485 4.4241 3.69706 0.521082 0.064775 -0.157383
H 2.34429 5.29508 9.32904 -0.104858 -0.034236 -0.82562
H 3.58724 5.63233 10.101 0.897854 -0.277937 -1.183451
H 1.21388 1.97999 2.43379 -1.939223 0.437507 0.64053
H 12.1217 11.3997 2.76118 0.150195 0.721347 -0.862401
H 0.98703 11.6416 0.82455 -1.307584 0.418732 0.733077
H 1.43305 11.7974 11.6733 0.17941 -0.312827 1.839202
H 6.0738 3.6913 1.72117 1.131353 0.743339 1.257536
H 10.2159 4.00396 0.65755 0.045411 0.117233 -0.368234
H 10.9482 12.1636 2.12446 0.978785 0.145993 -0.666151
H 6.27718 11.1937 9.41993 -0.221054 -1.343875 0.344647
H 2.31429 2.02281 1.48083 0.604137 -0.300468 0.269342
H 7.48304 9.94598 4.99118 -0.747843 0.302865 0.368169
H 9.66437 5.46187 0.36351 -0.158071 0.242486 -0.079057
H 3.2183 10.8303 6.28468 1.067214 0.723479 1.310303
H 4.22345 11.569 7.45801 0.562187 0.716625 -0.428671
H 9.48853 1.38083 6.17172 -0.743264 0.100747 0.120842
H 0.8356 11.9038 9.54231 0.580117 -0.392142 0.167045
H 10.174 2.3295 5.29432 0.17486 0.599649 -0.815671
H 1.65594 6.21357 4.22224 -0.598689 0.073726 0.741188
H 2.96986 5.63231 3.70979 0.417891 -0.449796 -0.032535
H 9.35271 8.40399 9.2988 0.025697 -0.284339 0.924311
H 9.61286 7.83996 10.816 -0.795519 -0.719958 0.913121
H 6.95657 1.00291 3.98857 0.306863 0.641365 0.162515
H 0.40478 12.3346 5.6134 0.802145 1.984083 -1.090143
H 0.43022 0.80499 10.1216 0.243024 0.67699 0.476173
H 11.4069 1.74572 1.23658 0.025625 1.645735 -0.503263
H 0.73811 1.35354 6.23381 0.572333 0.413307 -0.330984
H 12.0581 2.90639 0.3789 0.562548 0.284705 -0.628447
H 11.4339 2.92626 9.59981 -0.152336 0.23504 0.874929
H 10.1573 11.2673 6.30382 -0.273695 0.460411 0.037352
H 0.645 4.83716 0.11177 0.176557 -0.624122 -0.993313
H 7.77722 8.62819 3.69841 -2.746021 -0.459653 -0.035795
H 4.32905 5.95394 7.8106 -0.542244 0.14613 -0.370757
H 8.7612 9.33976 2.66287 -0.188544 -0.273968 0.83969
H 10.1895 4.43226 10.7379 0.326518 0.319442 -1.060008
H 4.88455 5.38807 4.93209 0.112015 -0.919682 -0.740049
H 12.3586 4.99132 5.98302 -2.341502 0.194757 -2.165541
H 0.45288 5.36111 7.3336 0.410329 -0.310892 0.29212
H 5.4416 6.74308 10.9358 -0.990703 -0.260723 0.031789
H 4.23874 6.82832 12.0234 0.603038 -0.426587 -1.340372
H 6.89802 2.7782 2.80044 -0.084057 1.219906 0.214311
H 4.78382 7.17965 6.85822 -0.379477 -0.727922 0.227052
H 7.98072 10.8179 6.09988 0.730023 0.84441 0.801076
H 3.90534 2.31976 8.8159 -1.821669 1.256194 -1.364263
H 3.45832 3.83042 8.56727 -0.037367 0.343262 0.03329
H 1.94843 2.43301 7.68019 -1.283832 -0.086537 -0.506316
H 0.31546 6.52675 9.59434 0.336367 0.324942 0.093796
H 0.82566 3.29495 6.98678 -0.094266 -0.135726 -0.196131
H 11.9013 5.21383 9.61999 -0.297397 -0.499956 0.079154
H 5.18696 0.81778 5.31081 -1.041755 2.362953 1.567425
H 2.73617 0.78681 10.2525 -1.538453 -0.81089 -0.28557
H 8.99267 11.2536 11.8591 -0.262705 1.301014 -0.521271
H 10.5899 1.18738 9.17641 0.140763 -0.324922 -0.258152
H 3.51899 1.86877 10.9761 -0.050186 0.315204 0.332889
H 9.60294 12.0923 7.53437 0.166038 -0.055308 -0.185069
H 3.30518 8.72102 12.1909 -0.563741 -0.417797 0.066523
H 8.47953 0.4095 11.6797 -0.061794 0.056206 0.228797
H 8.705 9.28449 0.78412 -0.091478 0.676049 -0.176127
H 7.98136 2.751 8.1064 0.388973 0.74407 -0.260844
H 7.61633 10.4645 0.87406 0.304474 -0.63383 -0.224738
H 9.4883 0.25563 9.82128 0.389566 -0.363768 -0.122548
H 6.02588 11.9445 5.33523 -0.12942 -0.144466 -0.618403
H 9.03829 12.0177 1.47486 0.578771 -0.47431 -0.48171
H 1.09475 8.72528 10.9076 -0.506647 -0.094889 -0.282964
H 1.62585 9.73551 12.054 -0.213797 -0.736391 -0.325667
H 11.4883 8.3564 9.90066 0.573009 0.611202 -0.401668
H 10.0067 4.56003 9.01122 0.072474 -0.487231 0.966584
H 0.43585 8.98796 9.07294 -0.909995 -0.016461 0.120854
H 8.08903 2.16163 4.26928 -0.288553 -0.806994 0.079509
H 10.4824 7.41851 3.04428 0.534373 -0.399179 0.12006
H 8.22589 1.28004 8.39905 0.193475 0.07774 -0.009444
H 9.22765 8.46245 4.7298 1.47974 -0.532311 1.133269
H 11.5965 6.70082 2.17653 -0.386522 0.344899 1.354993
H 6.02984 5.89825 7.07076 0.024649 0.324143 0.233826
H 8.93825 0.73293 2.37704 -1.267747 1.616965 2.059157
H 6.29651 3.47729 12.0151 0.900603 -0.454205 -0.757758
H 5.50888 4.89522 11.9494 -0.073595 -0.507113 0.295083
H 7.44608 6.47316 7.74622 -0.259147 1.06295 0.673974
H 4.258 0.7144 0.85002 -0.276413 2.024083 -0.736991
H 4.55726 9.54312 7.28134 -0.164342 -0.159359 0.367832
H 3.0224 9.83402 4.1484 0.738699 -1.051019 -0.714442
H 5.74164 9.30085 6.39676 0.198336 -0.449439 -0.031534
H 1.67405 10.3881 4.61967 -0.93906 -0.211918 0.111972
H 4.76223 8.9576 0.12725 2.128063 1.492456 -0.300219
H 3.39839 11.8442 0.97052 -0.487865 0.166025 -0.367336
H 10.6614 8.37373 5.48614 -1.641836 -0.466397 0.085496
H 7.47705 10.9148 10.2081 0.267779 -0.5124 0.466989
H 0.14781 10.3815 7.2063 -0.347813 -0.120581 0.267515
H 7.33087 5.14712 3.12304 -0.175387 -0.376619 -0.604915
H 8.18083 6.44036 2.62679 -1.234159 -0.794989 1.157394
H 1.57066 10.415 7.57988 0.131655 0.188097 0.861186
O 7.80892 2.20666 11.2702 -0.054328 0.571827 -1.637415
O 6.25775 8.07375 4.43713 1.039618 -0.918978 -0.542552
O 0.44377 6.54136 0.86975 0.160192 -0.369927 0.848367
O 10.8888 4.87244 4.79499 1.182743 -1.229469 -1.361197
O 8.22787 8.43568 7.83165 -0.46103 -0.301566 0.935394
O 5.9094 10.3643 0.21006 0.327184 0.683059 -0.001286
O 6.68326 7.27165 10.3951 1.768135 0.741965 0.252585
O 9.12183 4.23052 7.57069 0.301942 -0.327922 -0.364107
O 3.24891 2.83929 12.2036 -1.039016 -0.297909 0.24973
O 12.0827 2.18848 9.57231 -0.388515 0.507976 -1.030613
O 0.79129 4.08807 11.8562 0.310926 1.358593 0.070428
O 3.69436 2.39367 5.33314 0.067308 -1.063217 0.64926
O 3.92509 8.38655 3.14859 1.032814 1.587885 0.186668
O 4.68353 4.7216 4.22494 -1.043717 0.872269 0.990522
O 3.313 5.26388 9.17618 -0.675561 0.844335 2.025748
O 2.08282 1.65179 2.35739 1.634704 -0.150809 -0.823815
O 1.6833 11.4346 0.21856 1.129783 -0.099412 -2.426909
O 11.9386 12.0019 1.9891 -0.690069 -0.83366 1.613794
O 9.82001 4.58655 12.3745 0.031586 -0.801779 -0.00061
O 7.61578 6.0462 3.37861 1.72139 1.132741 -0.461198
O 3.53995 10.9256 7.24651 -2.045901 -1.686128 -1.570986
O 9.36555 2.30034 5.82849 0.437535 -0.869662 0.126965
O 9.43492 11.8754 6.58061 0.402199 -0.356258 -0.022566
O 1.11964 0.1141 10.2559 -0.758753 -0.651075 -0.818654
O 2.22085 6.1915 3.46079 0.290255 0.212912 -0.85657
O 5.36195 12.3451 8.35684 -0.084428 1.431386 0.342573
O 9.93842 8.3598 10.0997 0.491815 1.039803 -1.804431
O 0.78092 0.86604 5.35184 -1.239754 -2.858583 0.532529
O 11.5405 2.74797 1.17489 -0.603723 -2.1843 0.773504
O 4.62514 6.17668 6.89865 0.084763 1.041925 -0.069616
O 8.67712 8.80359 3.50063 1.932135 1.300268 -1.715981
O 0.64195 4.784 6.57224 1.780622 0.355922 1.906328
O 4.58195 6.26583 11.242 -0.024689 0.266128 1.451781
O 6.61109 3.7441 2.59272 -1.13418 -1.237927 -1.368436
O 4.0438 8.40911 0.35754 -1.625136 -1.263594 0.68127
O 0.97202 2.35836 7.31104 1.519861 0.653496 1.294692
O 0.42194 5.55552 9.51468 0.582938 0.517834 -0.257827
O 7.15462 10.4945 5.73646 -0.198416 -0.64324 -1.002307
O 11.3817 2.25597 3.88927 0.133102 -0.04588 2.343327
O 3.54271 1.27651 10.1954 2.079401 0.004695 -0.614782
O 8.83528 12.0292 11.2299 0.160595 -1.299909 0.081226
O 8.59359 10.2749 0.97147 -0.557193 0.036294 0.232678
O 9.89263 0.52504 8.95543 -0.413649 0.353549 0.406856
O 1.67846 8.80194 11.6899 0.680936 0.927012 1.529469
O 0.09497 8.39425 9.78484 0.099771 -0.69937 -0.376402
O 7.59662 1.65202 3.58704 0.144972 -0.530685 -0.032134
O 7.51178 1.93592 8.28341 -0.590033 -0.831904 0.607057
O 10.5991 4.38376 9.80354 -0.886536 0.073702 0.23547
O 11.2725 6.84165 3.13275 -0.092991 0.282296 -1.720695
O 7.02952 5.81516 7.20288 1.31561 -1.43558 -1.026693
O 9.51893 0.42812 1.71781 0.416435 -1.04135 -1.337805
O 5.66977 4.04187 0.05263 -1.021578 0.775911 0.230614
O 2.58877 10.6252 4.44609 0.536711 1.401316 0.710021
O 5.24245 8.85486 7.10802 0.122248 0.147594 -0.259328
O 3.44134 2.95136 8.12078 1.523267 -2.134303 0.853245
O 4.27729 12.229 1.12295 0.475898 -2.010176 1.022628
O 6.63681 10.4542 10.009 0.054077 1.856485 -0.884057
O 9.7148 8.00478 5.54082 0.970133 0.980358 -0.271761
O 5.52845 0.16966 4.75052 1.314879 -2.136115 -1.008653
O 0.69559 10.4144 8.02362 0.514462 0.072942 -0.699187
Na 8.81823 6.01308 5.55684 0.140665 -0.448886 -0.17085
Na 3.08856 0.51609 4.18192 -0.374668 0.045164 -0.214978
Cl 8.88453 7.42506 0.57856 -0.078312 -0.414899 -0.155053
Cl 12.0893 10.0866 5.15925 -0.308149 0.212552 0.040681
184
energy=-998.98208144 config_type=nep2xyz pbc="T T T" virial="-1.1910445275683499 0.600294248432926 -1.7616239488992016 0.600294248432926 2.506208256848606 1.0060200454766215 -1.7616239488992016 1.0060200454766215 -12.582414495536444" Lattice="12.4 0.0 0.0 0.0 12.4 0.0 0.0 0.0 12.4" volume=1906.6240000000003 Properties=species:S:1:pos:R:3:force:R:3
H 0.75641 4.06015 3.89445 -0.07671 -0.691381 0.019846
H 1.91559 0.15153 11.8741 0.938719 0.110711 1.708918
H 11.798 7.47466 3.88829 0.031372 0.754795 0.033424
H 0.33727 5.53625 3.70116 0.517999 -0.595865 1.323635
H 3.36278 12.3277 0.05446 -0.463789 0.266269 -0.043978
H 2.8642 5.79645 0.1265 0.143096 0.739051 0.287123
H 4.03825 5.12922 11.6619 1.357912 0.840689 -0.47897
H 8.65673 9.33023 2.61666 -0.524495 0.35285 -0.491173
H 9.65323 9.49813 0.3463 -0.42373 -0.237422 0.529347
H 8.36944 0.93766 12.39006 -0.082496 0.013979 0.173816
H 9.49984 1.96983 12.2421 0.600598 1.341946 0.889786
H 10.4664 4.34492 0.05499 -1.334048 -1.04668 0.309727
H 2.94934 3.62843 0.67515 -0.162451 0.054079 -0.228929
H 2.0393 10.0583 5.77118 0.009303 1.485095 -0.143134
H 4.14634 4.06434 4.42093 0.649629 -0.166958 -0.061619
H 6.49398 3.86053 0.70526 0.406324 -0.098918 -1.534081
H 4.94015 3.25488 3.18697 -0.620371 -0.34458 1.441995
H 7.87264 3.87306 12.3793 1.09782 0.008641 0.060684
H 10.3514 6.03138 2.97115 -0.820251 -0.760834 0.01114
H 2.42645 7.6135 1.82314 -0.112731 -0.866314 -2.257489
H 11.8716 7.1686 2.18089 -0.30248 0.42541 1.44467
H 9.45174 4.74639 3.50144 0.078119 0.641595 -0.234021
H 2.84583 11.4728 3.96546 0.170163 0.053892 0.823732
H 11.6386 11.2659 6.24915 -0.187929 -0.318982 -0.025458
H 1.64103 11.7255 1.91687 0.442703 0.493396 -1.66523
H 0.5907 10.8567 2.71902 -0.269083 -0.462214 -0.303674
H 4.29579 11.3359 4.67299 -1.356432 -0.037295 0.384351
H 4.826 10.7583 11.7075 -0.34726 0.792593 0.147081
H 3.0769 8.64145 4.16011 0.072233 -0.853563 -0.481708
H 4.14359 7.86869 3.17663 -0.826901 0.556208 0.575891
H 8.36932 7.68004 4.0443 0.079622 0.118926 1.44543
H 11.4589 9.83352 3.93613 -0.338437 -0.785247 0.720525
H 10.4216 10.4054 2.81066 -0.181898 -0.585184 0.094506
H 8.40712 6.91338 2.79084 0.584387 -1.128487 -0.556964
H 6.68122 8.20218 2.72866 -0.992815 0.125063 0.222396
H 1.86397 2.88065 9.79032 -0.653046 1.858451 0.436463
H 2.90346 1.9566 9.15232 1.691804 -0.173924 -0.960735
H 8.38303 1.64513 10.1385 -0.104293 -0.556609 0.647498
H 1.68365 1.6641 6.54215 -0.224362 0.334719 -0.710151
H 1.32568 1.58904 7.96957 -0.002975 0.189567 1.673117
H 2.37434 5.10862 4.96915 0.289132 0.260184 0.20702
H 11.2118 8.27934 12.2875 1.076108 -0.187032 0.961445
H 7.82553 0.83572 8.84782 0.027042 -0.329579 -0.31847
H 5.92079 10.1484 3.72967 0.5244 0.881797 1.947469
H 6.36911 11.4665 4.59793 0.878799 0.629883 -0.454579
H 3.02032 6.76547 8.21101 0.145133 -0.618592 -0.202006
H 10.3721 9.73864 7.56172 -0.530128 0.517622 0.710991
H 5.90809 1.98881 1.90253 0.714676 -0.986261 -0.070339
H 11.7821 2.43617 6.7676 -0.174328 0.469666 -0.323103
H 9.22873 0.92281 2.72577 -0.831832 -0.482153 -0.420642
H 9.61119 4.36082 1.33047 0.028934 -0.712011 -0.497578
H 9.74497 2.18586 3.33766 -0.444429 2.076195 0.846444
H 3.17987 6.35405 4.58657 0.493895 -1.217037 0.905417
H 0.54059 8.3541 5.35157 1.283233 0.680571 0.660371
H 2.58899 8.87154 6.53304 0.006745 0.062556 -0.10086
H 5.16103 6.24353 5.82492 0.668911 -0.3418 0.927317
H 2.1338 4.68087 10.9194 0.04112 0.396258 0.471515
H 6.68153 3.1365 6.49175 -0.302926 -0.062683 -0.162851
H 6.15266 2.89966 4.97496 0.216285 0.408017 0.925796
H 3.20587 5.72143 7.04766 -0.241526 0.041652 0.691319
H 7.75347 6.59998 6.18885 1.502809 0.913357 0.254433
H 5.92549 7.4204 6.48593 -0.224471 -0.596481 0.840201
H 1.38977 7.48265 0.61691 -0.414276 0.399541 -0.218318
H 8.40558 3.23423 4.91678 0.228509 0.295639 0.082913
H 11.4412 8.65233 6.01894 1.113101 0.086999 -0.753486
H 9.97978 3.24212 5.32154 -1.019995 0.375903 -1.214129
H 12.3305 0.25292 6.29401 0.332313 0.310914 0.365484
H 3.57784 1.44458 6.95764 0.8461 -0.189072 0.835894
H 4.26093 0.43444 8.14652 -0.433708 0.871579 -0.519085
H 4.50201 2.40545 1.44565 -2.154562 -0.428826 -0.716173
H 7.67546 12.2059 6.91809 -0.610711 0.285795 -1.090613
H 3.666 2.25927 4.85086 0.682259 0.888204 -0.240258
H 7.4155 8.21467 6.91248 -0.084351 0.873629 0.320418
H 6.50727 9.38161 6.377 0.060657 -0.314891 0.54003
H 3.24134 0.787 5.11753 -0.690685 0.895983 0.521398
H 11.9508 9.62888 7.54 0.178224 -0.061508 0.987102
H 0.93934 8.8693 9.16141 2.250549 -0.581062 -0.287466
H 11.9112 8.32262 9.16004 0.127901 -0.294571 0.316943
H 5.60245 8.60378 1.61155 0.045883 0.170613 1.432786
H 11.7847 6.24694 5.98317 1.061934 0.84632 -0.939689
H 11.2153 4.88993 6.40673 -0.205548 -0.009739 0.217339
H 1.49723 2.39234 2.50971 0.176462 -0.204656 0.504556
H 1.63323 2.1506 4.0745 0.784589 -0.208924 0.354293
H 11.8976 6.8952 12.3255 -0.021986 0.04758 0.025257
H 8.87688 0.29962 5.38768 2.134917 0.520002 -0.227205
H 7.55129 1.14649 5.32974 0.262443 0.761003 0.180192
H 6.11488 5.22117 11.3055 -0.061211 -0.955764 0.296877
H 5.6363 6.53589 10.6931 -1.061657 -0.642945 -0.042097
H 11.3384 11.3235 10.5757 -0.216687 0.439382 -0.066751
H 6.47354 3.07568 8.84167 -0.272133 -0.801877 -0.097902
H 10.045 9.90045 11.3502 0.142027 0.176547 -0.25992
H 10.2798 3.84175 9.70936 0.713454 0.482793 0.695705
H 10.4198 2.84225 7.36532 -0.23064 0.431965 0.654359
H 10.0856 12.2195 10.934 -0.332845 0.642942 0.421408
H 5.14064 2.54805 7.99543 0.427918 -0.253406 0.818011
H 1.53649 5.2238 9.58562 0.241269 0.098919 -0.420193
H 2.5753 2.0848 0.46567 -0.017054 -0.347527 0.056737
H 12.2857 5.18986 10.9906 1.483316 -0.492272 -0.612195
H 11.1492 6.10776 10.497 -0.309465 0.578107 -1.280243
H 8.45674 4.85011 8.72958 0.418236 0.22148 0.03198
H 6.76904 8.07301 9.61775 -2.194096 0.090587 0.124848
H 7.87766 6.29409 8.79667 0.569886 0.559828 0.018255
H 8.76881 8.01762 10.4607 0.794348 0.295445 2.556445
H 9.34311 6.65806 6.18887 0.381353 -0.103951 0.180803
H 9.11511 3.13296 9.05157 0.701482 0.156453 -0.566774
H 8.71354 9.00519 9.22459 0.26174 0.648505 0.131756
H 3.95423 8.68171 0.11488 -0.001774 -0.026308 -0.205104
H 1.28319 11.1456 10.1269 0.150155 -0.488271 -0.168892
H 1.2693 0.27513 10.0052 0.340393 1.030777 -0.497809
H 5.12431 8.50658 11.4684 -0.218638 0.506526 0.342468
H 4.48569 10.5291 8.59585 -0.237677 0.120825 -0.014057
H 6.42158 11.9467 7.99509 1.133954 -0.12403 -0.574769
H 5.13598 8.32942 9.21781 -0.558607 0.611768 -1.081162
H 5.53744 12.0727 12.1205 -0.648554 -0.080212 -0.389442
H 5.07088 11.5108 9.67199 -0.149656 0.177563 1.031924
H 8.62826 10.912 8.26197 -0.436426 0.151949 -0.072211
H 8.22528 10.8449 2.0394 0.082256 -0.683303 0.158877
H 10.126 7.51451 9.10104 -1.624637 0.641942 0.231431
H 9.8925 10.8911 9.22982 -0.608983 -0.374456 -0.078695
H 10.8749 6.62958 8.07327 0.299881 -0.07183 1.474259
O 2.48147 0.31555 0.31293 -0.823526 -0.79193 -1.750625
O 0.75341 4.89248 4.38367 -0.542704 1.15401 -1.23296
O 3.21576 4.98735 12.1283 -1.755705 -1.46466 0.615018
O 9.04791 1.28174 11.7798 -0.339438 -1.43459 -1.034826
O 11.6652 6.86873 3.12837 0.366914 -1.013068 -2.05391
O 9.75713 3.77489 0.51942 1.264 2.001365 0.089879
O 4.66815 3.24166 4.21049 0.340241 0.843868 -1.711915
O 6.94054 3.99249 12.2131 -1.319857 0.130852 1.274418
O 9.49715 5.48325 2.81723 0.431003 -0.03172 0.068003
O 2.32251 7.31155 0.82152 0.66272 0.835194 2.583001
O 12.0025 8.2519 5.25344 -1.858837 -0.812429 -0.694352
O 11.9914 11.9787 5.69516 -0.072996 0.174692 -0.456126
O 3.32656 11.5853 4.83677 1.050933 0.001196 -1.260392
O 4.76701 11.7592 11.577 1.240527 -0.978073 0.587372
O 1.37865 11.4128 2.76534 0.19674 -0.045527 1.706429
O 3.19809 7.87632 3.52953 0.830206 -0.036177 -0.09307
O 8.10601 7.76132 3.13647 -0.088284 0.643219 -0.327648
O 11.3242 10.4043 3.18843 0.434293 1.196125 -0.927996
O 8.83855 10.0654 1.98754 0.693621 0.449704 -0.006527
O 7.96572 1.7004 9.27045 0.227465 1.746905 0.072791
O 0.89994 1.66749 7.12226 -0.232653 -0.36693 -1.119655
O 6.06872 10.5665 4.66853 -1.301503 -1.803556 -1.613803
O 5.33211 2.73382 1.73425 1.496363 1.715447 1.044414
O 2.08664 1.98543 9.62359 -1.249474 -1.928645 0.563725
O 9.99573 1.30709 3.13857 1.003379 -1.787134 -0.482491
O 3.28216 5.49712 5.16438 -0.945182 1.282938 -1.366608
O 2.159 9.12667 5.68582 0.089129 -1.491727 0.136493
O 5.80526 6.4216 6.5594 -0.831333 0.247858 -1.720978
O 11.9826 7.77509 0.36078 -0.745281 -0.326785 -0.44381
O 6.93513 2.81703 5.59926 -0.260526 -0.38985 -0.529007
O 3.10469 5.79372 8.03629 -0.05018 0.586089 -0.466654
O 8.56172 7.23065 6.28628 -1.715056 -1.479196 -0.785863
O 9.30058 3.49605 4.58281 0.871507 -0.445078 0.935306
O 4.01246 1.38076 7.87148 -0.319515 -0.582816 -0.50021
O 6.58038 8.71562 7.10607 0.386658 0.864748 -0.949479
O 3.04144 1.76668 5.41693 -0.527562 -2.494856 -0.103246
O 0.06172 9.11016 9.35557 -1.913925 0.920967 0.067503
O 11.1631 9.70961 6.99499 0.317107 -0.028204 -1.264373
O 11.077 5.8585 6.46355 -1.221727 -0.761515 0.990417
O 5.72553 8.52582 2.61271 0.306069 0.058864 -1.650859
O 1.02289 2.12373 3.3373 -0.794051 0.425938 -0.907331
O 7.95494 0.26567 5.28765 -2.225636 -1.049612 0.118722
O 5.30909 5.60933 10.9056 1.31399 1.220901 -0.221976
O 10.3538 11.3721 10.558 1.284196 -0.232621 0.151577
O 9.92997 9.1047 11.9004 -0.222209 -0.10026 -0.07116
O 10.9549 2.95379 6.57681 0.84042 -0.501258 -0.525293
O 9.87788 3.76256 8.84922 -1.777713 -1.08147 0.091344
O 5.71925 3.30219 8.27748 0.022404 0.854716 -0.779391
O 1.31485 4.70783 10.3661 0.067577 -0.674399 -0.321059
O 11.4276 5.54074 11.2049 -1.389809 -0.553457 2.244532
O 2.73019 2.7814 1.12607 -0.015267 0.19105 0.504502
O 7.64432 5.36925 8.80948 -0.797584 -0.317434 0.055882
O 5.74912 7.93723 9.82936 3.310637 -0.556512 1.191705
O 8.49249 8.11612 9.58337 -1.465583 -0.734062 -2.413709
O 4.80836 9.06107 12.2331 0.12425 -0.536823 -0.23543
O 0.82469 11.935 10.4146 -0.51124 -0.388794 0.670744
O 7.4058 12.0963 7.83912 -0.94796 -0.855606 1.468821
O 4.77878 11.4517 8.76131 0.635482 0.150494 -0.937409
O 9.3529 10.3369 8.57664 -0.160292 -0.067195 -0.030658
O 10.8793 6.94667 9.05187 1.23976 -0.820379 -2.264319
Na 11.8656 0.29308 3.48642 0.414003 0.074137 0.320642
Na 5.33501 5.4719 8.67193 0.095887 -0.2075 -0.401426
Cl 7.0698 0.19312 1.7135 0.106309 -0.034395 -0.132564
Cl 3.28145 8.9165 8.54033 -0.462525 -0.171236 -0.067337
184
energy=-999.85740206 config_type=nep2xyz pbc="T T T" virial="-11.40259186702987 0.21293047710749238 4.341482612209456 0.21293047710749238 -8.2642681972826 2.350255990459868 4.341482612209456 2.350255990459868 -14.02849244706336" Lattice="12.4 0.0 0.0 0.0 12.4 0.0 0.0 0.0 12.4" volume=1906.6240000000003 Properties=species:S:1:pos:R:3:force:R:3
H 1.6934 6.50359 11.2439 0.26266 -0.018644 0.107963
H 2.4504 11.7999 6.59455 0.376017 0.670269 0.120103
H 3.57325 0.37706 2.0518 1.669877 0.047063 0.970372
H 0.47664 1.58912 3.1868 -0.22191 -0.446098 1.939218
H 2.91274 4.08541 0.93546 0.183836 -0.329003 -0.866695
H 2.34597 3.36473 12.04 0.985467 0.655396 -0.152606
H 9.93797 3.83001 4.2045 -0.087955 0.287542 -0.077173
H 10.7952 2.63962 4.6128 0.252515 0.101361 0.47443
H 1.0582 4.99978 11.0404 0.347324 0.261364 -0.41667
H 8.58346 4.64747 10.2388 0.08479 0.52626 -0.031323
H 10.6885 1.67046 1.32047 -0.014634 -0.304872 0.056268
H 6.68733 6.17396 2.26908 0.292714 -0.202078 0.201882
H 9.31787 3.56107 11.0031 0.386621 -0.162071 -0.252306
H 6.11037 4.24714 11.1582 0.123857 0.445132 0.335046
H 7.38565 11.0606 1.66287 0.393189 0.019893 0.28267
H 0.38891 8.9647 2.14228 -0.158773 -0.348262 -0.234228
H 8.945 11.1365 1.13656 -0.54778 0.256753 0.852499
H 3.02963 5.99151 5.91548 0.104035 0.096105 -0.592623
H 5.08341 3.94062 12.312 -1.560991 0.082551 0.001821
H 7.05351 8.90544 11.507 0.025263 -1.254717 0.244454
H 8.11523 8.00674 12.2274 0.294185 -0.231625 0.253415
H 4.60723 0.8509 10.4769 -0.110494 0.737202 1.045931
H 6.9095 6.04828 9.36637 0.342388 0.006861 1.386047
H 6.66327 5.1344 1.14878 0.528412 -0.181313 0.480128
H 9.12924 7.32334 4.58747 1.334315 -0.365401 0.989314
H 2.42027 10.8026 1.99544 0.551856 1.422451 0.267649
H 5.01596 1.54278 9.08707 -0.418151 -0.100367 0.417105
H 0.17452 1.83111 1.74364 0.899209 -0.060075 0.236985
H 10.125 9.70163 4.33288 0.465137 0.008097 0.053932
H 11.4884 8.90732 3.00005 0.933196 -0.57186 -0.919494
H 11.3818 11.3232 6.73086 -1.276679 -0.338018 1.632631
H 5.64657 10.8246 0.50202 -0.024374 -0.318034 0.471018
H 5.54869 9.64402 1.58376 0.103893 0.410805 -0.0851
H 5.41146 12.0287 2.46686 -0.382117 0.582801 0.55615
H 5.62116 1.097 2.16264 -0.023726 0.203865 0.375118
H 4.01667 8.18679 6.77805 -0.125764 -0.174686 -0.551038
H 3.82489 11.7162 9.86881 -0.328688 -0.259165 -0.219425
H 11.4137 10.4885 4.69733 0.20414 -1.098392 -0.32592
H 10.2767 2.80234 2.23131 -0.097848 0.11842 0.326827
H 0.30106 11.6014 11.2758 0.165001 -0.371897 0.989088
H 2.66272 10.2573 6.71356 -0.12194 -0.119655 0.209003
H 5.08776 1.37927 6.03106 -1.189857 1.135254 0.978624
H 5.57703 0.95642 4.67647 -0.434638 -0.053045 -2.007391
H 11.3631 4.52261 5.57124 0.06306 -0.091227 0.146195
H 8.62355 10.5129 3.54146 -0.640776 -0.277937 0.649131
H 0.39062 5.14058 5.93027 -0.497446 -0.326669 0.052128
H 1.10308 4.77043 2.19685 0.390609 0.428647 0.066259
H 6.62972 3.28696 4.4613 -0.339593 0.675297 1.618304
H 8.37181 9.10255 4.11406 -0.348053 -0.994782 0.277246
H 0.70726 11.1034 0.4492 0.101534 -0.047119 -0.158491
H 1.46229 3.36831 2.55489 0.065246 -1.299118 0.016606
H 8.48246 11.9008 5.34124 0.204779 -1.270645 -0.138344
H 11.2578 6.77959 5.85312 -0.382345 0.066193 0.00976
H 11.7023 6.66405 10.4992 -0.869289 -0.241047 0.176363
H 3.8358 6.36553 7.11006 0.374091 -0.51942 2.214236
H 5.50692 6.27363 5.49789 -1.872989 0.066636 -0.086217
H 6.10768 3.75769 7.05734 -0.509211 -0.112806 0.564739
H 6.67604 6.58706 6.41115 -0.07053 0.251174 0.106306
H 6.96097 4.75176 6.19322 -0.177783 -0.567241 0.231101
H 11.1972 8.1357 4.98032 -0.552955 -0.225563 1.202886
H 6.98718 3.7893 3.05715 -0.014233 1.777641 -0.841244
H 12.015 0.63683 12.2622 -0.01735 0.032284 -0.104336
H 12.0176 2.13206 8.37902 -0.312427 0.34972 0.045643
H 1.11419 1.74921 8.03166 -0.456977 -0.057309 0.291345
H 4.06786 2.12316 12.1247 -0.447834 0.623537 0.296146
H 4.7587 9.62312 7.1129 -1.806158 -2.040474 0.366441
H 3.64509 0.64945 0.14693 -0.044107 0.362734 0.205066
H 10.2379 6.05399 10.6167 -0.442605 -1.725732 0.145597
H 0.44188 0.02972 9.30594 0.484994 -0.045365 0.367917
H 4.37473 3.97539 8.78406 0.997368 -0.907501 -0.491669
H 10.3797 9.90802 8.36745 -0.358291 0.178407 0.271057
H 11.5444 10.8559 8.85696 -0.84593 0.009963 0.225682
H 4.38326 8.24096 8.93152 -0.674091 0.357228 0.078438
H 4.37883 7.68092 10.4855 -0.410194 0.911863 0.038189
H 3.3929 10.3671 10.5992 -0.127161 -0.011249 -0.078682
H 10.0485 8.09134 7.33465 0.746618 -0.606424 -0.865399
H 9.94102 7.67077 8.87921 0.598205 -0.335513 0.289381
H 7.9525 7.45126 7.86703 -0.418254 -0.352706 0.406933
H 6.49816 7.70469 8.40718 0.205044 -0.805559 -0.306677
H 8.3683 0.10469 8.60753 0.622208 0.296135 -0.176916
H 9.9377 0.27636 8.55294 -1.10495 0.130312 0.007747
H 6.51185 11.227 7.93325 -0.066007 -0.279215 -0.422454
H 12.083 6.68995 1.83847 0.22414 1.023782 0.248062
H 3.91039 2.89523 7.77111 1.132305 0.150981 0.104017
H 2.04379 4.70073 4.29846 -0.133605 0.520524 -0.499416
H 6.29018 12.1544 9.13826 -1.759336 1.461148 0.846056
H 6.10026 1.11526 0.05429 -0.818799 0.132026 -0.270812
H 6.69946 2.51995 0.4778 -0.401743 -1.942535 -0.154719
H 9.92197 9.80336 12.3226 -0.332916 -0.47875 0.234591
H 8.17697 1.75923 11.7503 -0.159801 -0.497602 0.281471
H 8.90215 1.29558 10.4066 -0.006437 0.334468 -0.16823
H 10.7031 11.1093 12.269 0.488046 0.388699 0.126161
H 9.13372 4.97386 2.27952 0.330048 -0.156341 0.252571
H 10.7421 5.15094 2.26646 -1.257733 -1.218939 0.254587
H 2.22787 3.93131 5.57053 -0.230225 0.958769 0.352149
H 0.80616 1.75442 5.5124 -0.453316 -0.09435 -0.975548
H 7.60962 10.8204 11.6203 1.105701 0.491503 0.179571
H 12.0995 0.67029 5.21947 0.873712 1.424899 -0.784239
H 6.96509 10.5728 10.1894 -0.011116 0.176626 0.941194
H 1.43307 11.2149 9.73538 1.267229 0.11433 -0.189238
H 3.50791 4.82123 10.681 0.348067 0.279221 -1.502836
H 2.17279 0.76234 1.80399 -0.062215 -0.807183 -0.585125
H 5.43525 11.5705 6.14504 0.794588 -1.144348 0.052875
H 7.10666 6.47889 10.9792 -0.141803 -0.725966 -1.593768
H 6.51045 10.4422 5.75749 -0.734044 0.104855 0.630308
H 7.60179 7.18583 4.46338 -0.051729 -0.237585 0.044258
H 10.6824 1.37949 11.6957 1.106961 0.459248 0.494371
H 2.43045 9.57536 1.09005 -0.270698 -0.208551 -0.002063
H 10.3253 7.72009 11.978 -0.301414 0.15136 0.27587
H 10.6086 8.26386 1.04866 -0.505896 -0.038738 -0.495932
H 0.42026 11.2775 6.19257 -0.16382 -0.002695 -0.193361
H 4.0224 6.00741 9.73549 0.203884 -0.234467 -0.25807
H 0.0332 5.77465 0.62347 -0.162222 0.169152 -0.178069
H 6.06745 7.89922 0.82303 -0.882963 0.197792 0.365707
H 0.3551 2.82169 11.3485 -0.128687 -0.18581 -0.086812
H 4.52201 8.1686 0.95102 -0.778669 -0.340189 -0.565101
H 1.11013 2.65862 10.0416 -0.182404 0.11512 -0.203852
H 7.4043 0.55942 5.65934 -0.316741 -0.09555 0.177347
H 11.0876 3.92378 7.52654 -0.032146 0.019804 0.459728
H 10.4068 3.59036 9.00213 0.400791 -0.396796 -1.96431
O 0.90951 5.96868 11.0543 -1.016182 -0.127836 0.355101
O 2.02736 10.9557 6.47006 -0.267051 -0.478305 -0.16024
O 0.93805 1.78081 2.37239 -0.511854 0.337652 -2.323367
O 3.18872 3.7929 0.008 -1.08127 -0.212536 0.820884
O 10.2565 3.35833 5.00325 -0.168938 -0.5506 -0.374734
O 9.49926 4.35098 10.4509 -0.305508 -0.153304 -0.046804
O 7.10806 5.33304 2.01302 -0.673028 0.137338 -0.865005
O 10.4087 1.82662 2.25063 -0.251425 0.395011 -0.476199
O 11.9847 8.40069 2.24476 -0.403718 0.568294 0.375569
O 3.75118 5.05886 9.72984 -0.48357 -0.167912 1.687215
O 8.29184 11.3714 1.92111 0.379563 -0.299247 -0.384096
O 5.99735 3.91975 12.0774 1.569946 -0.024434 -0.051722
O 7.22146 7.93568 11.8495 -0.240532 0.972416 0.043384
O 4.91897 0.68963 9.57841 0.699297 -0.058202 -1.517473
O 8.40208 7.52962 4.01839 -1.257452 0.249546 -1.01586
O 3.08305 11.1059 10.0499 0.427659 -0.216615 0.13364
O 11.8876 11.5654 5.97684 1.327527 0.222592 -1.461222
O 5.72456 10.6432 1.46219 -0.080723 -0.06632 -0.39273
O 5.2148 0.53971 2.86398 0.693374 -0.83723 -0.83268
O 11.1205 9.64022 4.22079 -0.766618 1.646561 0.703614
O 5.70825 0.82137 5.6033 1.049206 -1.062483 0.781273
O 11.8415 5.09802 6.21181 0.351886 0.41127 0.002152
O 4.77253 3.21677 8.182 -1.760983 0.615297 0.517277
O 8.49748 10.0301 4.42204 0.366785 1.817331 -1.145361
O 1.88384 4.23151 2.47243 -0.195877 1.261518 -0.0638
O 10.7206 6.85758 10.5011 1.364839 1.833766 -0.307322
O 3.7697 6.58368 6.20836 -0.239866 0.007614 -1.610488
O 6.44924 6.2794 5.49934 1.872163 -0.00653 -0.081475
O 6.98163 3.88091 6.66509 0.819737 0.027767 -0.840688
O 6.91735 3.03175 3.60843 0.653967 -2.606097 -0.712008
O 10.7236 7.59709 5.68427 0.639809 -0.335258 -0.553931
O 0.4023 1.6455 8.71549 0.82166 -0.310367 -0.348074
O 4.32097 1.19978 12.0683 0.335438 -1.00623 -0.658993
O 4.01402 8.91692 7.41118 1.732886 2.655494 -0.138554
O 10.5898 10.8452 8.56895 1.337033 -0.148209 -0.4184
O 4.75626 7.63023 9.59552 0.968464 -1.01691 -0.230018
O 0.06979 11.5909 12.2963 -0.211434 -0.077798 -0.605234
O 9.58731 8.21573 8.16499 -1.197039 0.709113 0.367669
O 7.05107 7.01315 7.95933 0.343575 1.469434 0.028331
O 9.09128 0.79402 8.57985 0.119012 -0.545495 0.42474
O 6.89468 11.5381 8.76706 1.910274 -1.364462 -0.307856
O 2.87031 0.10723 1.47686 -1.765939 0.771384 -0.019715
O 8.99788 1.8142 11.2367 0.287347 -0.147758 -0.149988
O 6.78397 1.49845 0.61147 1.280664 2.082535 0.590982
O 9.79372 10.7777 12.3533 -0.237863 0.211985 -0.348087
O 9.96267 4.55713 2.60863 0.642997 1.165741 -0.784069
O 6.88898 10.3853 11.1818 -0.943965 -0.17754 -1.216582
O 0.13633 1.51737 4.80577 -0.90368 -1.427939 1.687605
O 2.00076 4.86321 5.26351 0.339739 -1.492052 0.064148
O 7.06984 5.71054 10.2993 -0.020544 0.209442 0.226663
O 5.79832 10.658 6.41643 0.253079 1.075869 -0.831689
O 1.91927 10.0307 1.7897 -0.957515 -1.347437 -0.344492
O 11.6084 1.53592 12.0708 -1.252797 0.165742 0.012099
O 9.89578 8.19909 0.34511 1.035631 -0.300702 -0.03398
O 12.1084 5.76695 1.54291 0.19419 -0.780786 -0.079259
O 0.55501 11.592 9.82692 -1.805797 0.222361 -0.499199
O 5.31386 8.04914 1.48554 1.761893 0.046089 -0.101723
O 1.07462 3.24159 10.8293 -0.062851 -0.201933 0.69674
O 8.35927 0.37221 5.69058 0.074994 1.245669 -0.310032
O 10.6917 3.20846 8.07711 -0.463222 0.642877 1.448792
Na 8.32308 0.97761 2.92645 -0.090086 0.368518 -0.156251
Na 8.83551 2.3245 6.80048 0.24964 0.306664 0.158816
Cl 2.55953 2.05412 6.52696 0.13797 -0.23004 -0.06533
Cl 2.82758 8.31224 11.9201 0.3503 -0.085549 -0.13147
184
energy=-999.53744492 config_type=nep2xyz pbc="T T T" virial="-14.671496553113165 -1.1204762757800844 -4.352478407260444 -1.1204762757800844 -4.520437986643172 -1.6164413735506629 -4.352478407260444 -1.6164413735506629 -9.2687055146837" Lattice="12.4 0.0 0.0 0.0 12.4 0.0 0.0 0.0 12.4" volume=1906.6240000000003 Properties=species:S:1:pos:R:3:force:R:3
H 0.73797 1.09438 0.30694 0.630406 0.367191 -0.356917
H 3.16899 1.22092 12.2512 0.607981 0.328727 0.237933
H 2.40613 11.1821 2.12356 -0.04262 0.453036 1.188071
H 2.4429 12.0023 0.82801 -0.188752 0.672596 -0.418177
H 1.13556 0.509 11.3095 0.760833 -0.010247 0.661337
H 3.63417 2.66287 1.61137 0.296899 0.160414 0.615676
H 4.09689 3.68996 3.9771 0.030501 0.244912 0.675599
H 4.03711 4.62425 5.28326 -0.407879 0.517042 -0.158916
H 5.87513 3.53781 4.79305 1.141792 0.601865 -0.275286
H 4.80711 1.38579 12.3237 0.494978 -0.111363 -0.521545
H 7.22793 1.71711 1.83655 -0.088876 -0.237939 0.252711
H 6.83692 0.75655 3.10057 0.809985 1.985982 -0.929876
H 11.2683 1.64878 1.78983 -0.527241 -0.659886 1.265275
H 11.2323 2.63966 0.72463 -0.878398 1.467284 -1.182581
H 9.36203 1.44303 3.02657 -1.621945 0.024733 -0.695318
H 9.51539 4.29512 0.01514 -0.181405 -0.716081 0.203106
H 10.8043 4.93428 0.46085 0.281916 0.096817 0.517184
H 7.05585 2.99433 3.8697 -0.258108 0.78933 0.484665
H 10.4654 1.47647 4.02812 0.418341 0.396349 -0.422232
H 1.861 4.20715 2.20074 -1.58205 -0.320315 -0.084115
H 0.48553 3.43377 1.78379 0.359561 0.741641 0.321067
H 0.48419 7.05753 4.34192 -0.818159 0.169658 -0.080678
H 1.9631 5.9893 9.7114 0.511388 0.971326 -1.516626
H 4.2973 4.00447 1.78812 0.863991 1.057329 -0.329761
H 6.24124 6.57402 2.43059 0.321461 0.29767 0.50062
H 7.5161 6.94802 3.3879 -0.318455 -0.268552 -0.249387
H 5.20548 6.12983 0.47448 0.253641 0.263335 -0.299146
H 6.44623 5.18876 0.75785 0.411021 -0.210419 -0.565725
H 9.7506 5.70375 4.12242 -0.073589 0.39211 -0.157911
H 10.397 6.24126 2.12387 0.536035 0.109003 -1.25865
H 10.127 6.78959 0.6228 0.055707 -0.182123 -0.242382
H 11.3634 12.2717 3.0978 -0.03044 -0.079259 -0.124523
H 3.87525 10.0857 0.54709 0.174452 0.166208 -0.17074
H 1.58569 10.1749 0.08086 0.065324 -0.168829 -0.115326
H 1.05703 9.80059 11.0348 -0.010818 0.735302 -0.316133
H 2.45273 10.9591 4.27644 -0.363889 1.794045 -0.709861
H 10.545 7.51305 3.75823 0.038752 0.437472 0.280905
H 5.45946 9.55786 0.73053 -1.577161 1.006353 -1.239383
H 7.45717 9.61822 1.29282 -1.491982 -0.323168 0.922995
H 0.37888 11.4739 3.23951 -0.823593 0.356089 -0.074548
H 5.97303 11.1634 2.68412 -0.205047 0.779717 1.261598
H 11.1149 8.6148 2.7522 0.34774 -0.411145 0.480091
H 7.79478 8.98388 4.77197 0.121571 0.087797 0.129218
H 7.63622 10.2023 3.91782 -0.3142 0.389782 -0.564323
H 1.41671 1.27977 5.87351 -0.435898 0.0097 0.750858
H 12.0718 12.1978 6.52684 -0.433035 -0.311859 -0.887412
H 0.62419 1.70269 7.19788 -0.293937 0.281368 0.392475
H 3.19597 6.43274 6.37052 -0.869832 -0.419852 1.239127
H 4.08572 6.84446 5.28352 -1.287941 -0.547081 -0.525342
H 3.10835 2.33549 5.18593 1.087389 2.222923 -0.453149
H 3.62967 1.06613 5.95707 0.551171 0.289765 0.438055
H 8.79773 3.59905 7.6386 0.144399 -0.708248 -0.435899
H 7.79585 2.9982 5.77365 0.666011 -0.899887 0.497628
H 11.7078 10.7069 6.76963 0.340391 -1.13649 0.812185
H 11.7989 1.91443 5.60191 -1.279257 0.5383 -0.064422
H 7.97039 1.5403 6.40407 -0.116119 -0.558727 0.217985
H 10.2573 2.45998 5.92498 0.118799 -0.405052 -0.525154
H 1.83948 6.39336 4.52648 0.682285 -0.028001 0.020696
H 2.60489 7.68163 7.91835 0.005262 -0.810762 0.590921
H 0.59977 5.51972 10.3253 -3.11241 0.284265 -0.77359
H 5.81732 7.69801 4.57969 -0.587557 0.533225 0.1353
H 7.66646 7.44318 7.3273 0.601662 -0.634412 -0.217935
H 5.67557 8.09102 6.11687 -0.089755 0.157108 -0.711178
H 6.05643 7.06772 8.43121 -0.726818 -0.218399 1.223984
H 8.91249 6.44108 5.19528 0.98065 0.461516 -1.794288
H 9.31311 5.76385 7.44947 -0.45069 -1.789075 1.00807
H 9.97859 7.09392 7.25346 0.964614 1.024708 -0.0784
H 12.2821 4.65679 3.53408 1.030869 -0.39281 -0.869809
H 11.322 3.97035 4.57778 0.258491 0.645876 -0.719582
H 2.51008 0.2814 4.29214 -0.126241 -1.28149 -0.335124
H 7.05963 8.80411 7.71633 -0.324396 0.227864 0.679528
H 4.86877 12.1192 3.19749 -0.036031 0.11163 0.221316
H 8.56341 12.1971 10.5513 -0.313881 -0.005004 0.456745
H 8.41432 10.7861 9.86584 0.92374 0.885172 0.897923
H 3.29907 9.05794 4.79328 0.028829 -0.103973 -0.178353
H 7.44114 11.6119 5.88814 -0.019349 -1.111776 -2.117533
H 1.93972 8.70468 4.1826 -1.120527 -1.867704 -1.121146
H 6.37704 0.01195 6.77051 -0.438075 -0.04078 -0.379689
H 0.95943 9.1552 7.57295 1.063197 -0.29477 -0.055454
H 1.78476 2.3268 9.14581 0.199981 0.04229 0.207201
H 4.06574 2.27338 9.31987 0.518643 0.042346 0.455407
H 11.7497 1.43335 8.97539 0.861437 0.843366 -0.218408
H 2.21034 3.5556 9.95938 0.596833 -0.372356 -0.328857
H 3.92778 6.90485 8.36277 -0.285136 -0.557577 0.475183
H 4.78475 1.20899 7.74501 0.596318 0.328164 0.292635
H 5.39042 1.55075 10.0446 -0.570544 0.953313 -1.460096
H 7.3305 10.9171 7.87981 0.140106 -0.083412 0.037591
H 5.99382 3.47242 9.30073 1.120139 1.418595 0.613072
H 6.43948 10.4803 9.07241 0.113586 -0.293268 0.374838
H 12.0979 2.97228 9.32336 -0.070425 -0.637709 -0.511297
H 2.14572 9.18121 6.50001 -0.552104 0.015212 1.507939
H 10.7444 4.07758 10.826 0.196555 -0.299623 0.722995
H 1.67101 6.25578 11.795 0.595655 1.075086 0.428145
H 1.68312 7.85392 11.9447 0.04355 -0.103333 0.697147
H 3.55924 6.99677 11.8778 0.122331 0.220853 -0.015942
H 5.27186 6.78876 9.91165 -0.070167 0.71664 1.22432
H 4.57545 8.2087 11.8734 -0.231925 -1.445722 -0.283439
H 8.02267 4.11977 8.82853 -0.286635 0.56643 0.33264
H 7.2206 3.35855 12.0344 0.579753 0.425406 -0.135189
H 6.03912 5.09379 9.18292 0.355341 -0.119585 0.288368
H 8.75581 10.4483 11.9586 -0.08205 0.007126 -0.081834
H 7.60187 4.57048 11.18 -0.422604 0.005718 -0.232678
H 9.18493 8.05158 11.9345 -0.610025 -0.071095 0.223565
H 10.3147 4.0782 9.29743 0.747202 0.078579 0.664174
H 11.1491 7.16148 9.13627 0.168784 0.558037 -0.398456
H 10.9908 5.84223 9.90477 0.158518 -1.923241 -0.207129
H 9.73472 7.04342 10.9656 0.708973 -0.356429 -0.824832
H 4.91 10.6819 11.1817 0.844377 0.145135 -0.609297
H 4.11496 11.2481 9.10429 0.736082 0.256054 0.852785
H 1.84837 11.5958 9.62364 0.764543 0.069889 -0.859825
H 3.21682 10.4349 8.1778 -0.725579 -0.424669 -0.409821
H 0.24792 11.6708 9.55126 1.273463 -0.104786 0.985545
H 4.23531 12.2436 7.39154 0.266334 -0.061961 -0.062477
H 5.81654 11.879 10.6753 0.603154 0.959749 0.507097
H 9.72467 9.89176 0.64144 -0.328955 -0.348144 0.190383
H 6.48424 8.72892 2.40601 0.528633 0.264346 -0.752056
H 10.1854 11.9059 9.50688 -0.142043 -0.334286 0.596657
H 11.893 9.48479 0.51641 -0.149109 0.423348 1.083469
H 11.4593 10.415 1.82324 0.777258 0.727856 0.176286
H 10.6572 11.9868 8.01863 0.598402 0.255403 1.040374
O 2.4577 11.1069 1.17504 0.298411 -1.178982 -0.951642
O 3.98084 1.38403 0.4041 -1.109081 0.134008 0.663341
O 4.26494 3.74051 4.96233 -0.208969 -0.95954 -0.91172
O 7.34271 1.6374 2.80066 -0.722279 -1.919033 0.58135
O 11.8226 2.00525 1.09831 1.84261 -0.651778 -0.00143
O 10.2738 1.19149 3.0727 0.883948 -0.491991 0.884638
O 10.4625 4.06441 0.16973 -0.691422 0.298357 -0.853967
O 0.85007 4.29786 2.14827 1.556978 -0.858787 -0.552162
O 3.73515 3.41283 2.27654 -0.977132 -0.969848 -0.423433
O 1.26725 6.7975 3.85513 0.02412 0.423117 -0.385049
O 1.5111 5.47262 10.3629 2.593093 -1.622973 1.736842
O 6.59594 7.21246 3.14952 0.104074 -0.300381 -0.326776
O 5.68323 5.61901 1.16443 -0.534695 0.087505 0.934809
O 9.20081 6.52584 4.19813 -0.676561 -1.053288 1.885454
O 10.828 6.416 1.2444 -0.414023 -0.038268 1.401541
O 11.8173 11.4073 3.00509 0.721181 -0.155706 0.50453
O 1.20937 9.45436 11.9164 -0.415057 -0.465144 0.38976
O 4.65119 9.80266 0.0114 1.337448 -0.961127 1.760124
O 11.232 8.21106 3.6573 -0.302811 0.393654 -0.436258
O 11.3219 9.5873 1.32814 -0.456377 -1.183402 -1.559042
O 8.2344 9.82021 4.55757 0.146669 -0.327472 0.507749
O 0.5161 1.23463 6.3524 0.57073 -0.281285 -0.629282
O 2.95539 6.77839 8.21878 -0.280299 1.031131 -0.817322
O 11.4425 11.4608 6.25537 0.225956 1.735398 0.215953
O 3.24642 6.27008 5.41919 2.366242 0.814085 -0.072222
O 6.84341 3.71815 4.53416 -0.32067 -1.338573 0.028637
O 2.86733 1.4942 5.50743 -1.240204 -2.38769 -0.255704
O 8.39215 2.40294 6.38338 -0.525003 1.720179 -0.879666
O 10.9178 2.32681 5.20446 0.94225 0.015646 1.017495
O 6.81177 7.88197 7.45457 0.146853 0.348647 -0.600279
O 5.25353 8.23049 5.22314 0.427781 -0.821414 0.293646
O 9.24384 6.56732 6.9562 -1.092031 0.801082 -0.979852
O 11.5187 4.81448 4.07318 -1.982413 -0.258828 1.729025
O 2.31366 11.8447 3.75667 0.231217 -0.662673 0.987041
O 4.80803 0.56739 7.00095 -0.297542 -0.368974 -0.418079
O 2.38126 9.36692 4.67149 1.630942 1.5299 1.500863
O 7.29805 12.0652 6.68192 0.274452 1.248181 2.320235
O 5.76226 11.824 3.43554 0.47075 -1.012362 -1.624859
O 1.53468 0.90078 12.1378 -1.389795 -0.247058 -0.233725
O 2.59031 2.77276 9.49288 -0.933531 0.413387 0.169759
O 5.03983 2.02439 9.21033 0.143321 -0.51423 1.050555
O 7.25029 10.2069 8.57859 -0.077765 0.581288 -0.117811
O 0.0059 2.17947 8.78661 -0.757511 -0.541777 0.617457
O 1.92419 7.01617 0.02914 -0.441958 -0.978944 -0.925139
O 4.49633 7.20614 11.6458 0.261059 1.11898 0.282681
O 8.91387 4.20454 8.38576 0.503349 0.197814 0.063827
O 6.58005 4.31287 9.50717 -1.216348 -1.866998 -0.677158
O 5.40606 6.51094 9.01195 0.491029 -0.055353 -1.953756
O 7.68638 4.23084 12.0842 -0.185515 -0.441997 0.421434
O 9.21606 7.08425 11.7773 -0.821634 0.909866 1.223807
O 11.1248 4.17467 9.93308 -1.107284 -0.018242 -1.315225
O 10.9133 6.78132 9.98521 0.278666 1.639404 0.03169
O 1.06211 11.5702 10.1617 -2.339707 0.04255 -0.670268
O 3.45191 11.3432 8.40411 -0.441203 -0.061132 0.00193
O 9.01064 11.3297 10.5137 -1.22364 -0.843921 -1.443068
O 5.33133 11.1255 10.3514 -1.194879 -1.202068 -0.283673
O 6.5358 9.55058 1.82021 1.310641 0.15114 -0.613085
O 8.80081 9.78865 0.28763 0.225788 0.014729 0.288595
O 1.97465 9.13774 7.50324 0.063721 0.422999 -1.661068
O 10.939 12.1911 8.95749 0.202087 0.142645 -1.701557
Na 0.60444 6.52359 1.7114 -0.065774 0.080551 0.347848
Na 10.4926 10.0311 5.00901 0.081475 -0.349469 -0.58291
Cl 6.94389 1.09992 11.5426 -0.105777 0.160665 0.106872
Cl 11.5398 8.67552 7.38627 -0.612276 -0.197005 0.044193
184
energy=-1000.1112227 config_type=nep2xyz pbc="T T T" virial="-2.4879295326080033 -5.44434657557021 -5.194430242382122 -5.44434657557021 -5.400363395366258 1.6754664205776097 -5.194430242382122 1.6754664205776097 -3.4328419941162025" Lattice="12.4 0.0 0.0 0.0 12.4 0.0 0.0 0.0 12.4" volume=1906.6240000000003 Properties=species:S:1:pos:R:3:force:R:3
H 1.11706 3.05811 1.93707 0.330756 -1.07149 -0.145905
H 2.08618 2.03671 1.2555 1.197662 -0.010643 -0.542273
H 0.94238 0.58768 2.06544 -0.035748 0.38748 -0.106688
H 4.16089 2.73985 0.54724 -0.237937 -0.285334 -0.059009
H 4.56786 1.02105 2.02437 -0.463612 1.31199 -0.3717
H 5.02511 0.85733 3.6182 0.201944 0.427876 -0.224872
H 7.57747 4.00362 3.98085 0.130952 -0.486613 -0.221796
H 8.77008 2.95731 3.59686 -1.278804 0.110349 1.011361
H 10.262 2.50698 1.92918 0.066914 0.062947 -1.021312
H 10.3376 1.37043 2.99908 0.530072 -2.785728 0.3788
H 1.31527 4.21191 3.48878 -0.264633 0.767955 -1.188725
H 3.34403 6.95165 2.40373 0.454645 -0.919803 0.104601
H 3.65289 5.8404 3.5474 0.29713 -0.079405 -0.791392
H 1.89221 5.32081 2.50579 0.077269 -0.530108 0.095881
H 11.334 6.11288 1.02969 0.583228 0.806312 -1.202881
H 11.802 5.25447 2.25327 1.076219 -0.101402 0.220503
H 3.81364 5.01421 1.07695 0.35363 -0.211537 -0.014792
H 6.6268 5.0505 1.5247 0.50856 0.315696 1.261968
H 5.82002 4.95205 0.28483 -0.83134 -0.051067 -0.223538
H 6.33913 6.23233 3.6033 0.305161 -0.72204 -0.497111
H 7.09916 7.89546 1.00077 -1.120489 1.107876 1.748927
H 7.33549 6.76154 0.07711 0.220127 -0.356276 0.059672
H 9.54528 3.44701 12.1973 -0.654258 0.066502 -0.060655
H 10.4816 4.15838 0.88543 0.167062 0.722383 -0.046621
H 7.84014 6.03592 3.32386 -0.322082 -0.552832 -0.364058
H 9.89882 6.10736 2.94128 0.968247 -0.204207 -1.332642
H 9.39724 7.39023 3.7364 0.457279 -0.018939 -0.133333
H 2.22106 11.3614 2.69827 0.24492 -0.122224 -0.309801
H 3.76261 11.7188 2.6233 0.357712 -0.163453 0.108071
H 3.03664 9.42368 2.19829 -0.006097 1.189061 0.559801
H 3.42098 8.73751 0.90047 -0.160023 -0.110197 -0.130774
H 0.56504 11.5995 1.31373 0.017287 0.512474 1.098128
H 6.45372 8.64315 3.64456 0.271102 -0.486053 1.471315
H 6.13003 12.0305 1.69716 0.515943 -0.230462 0.461762
H 6.39605 9.91959 1.69267 -0.575214 0.545662 -0.0802
H 6.62566 11.6219 0.25061 0.875392 -0.569086 1.273336
H 5.17576 8.89475 2.10149 -1.051968 0.273671 -0.333417
H 8.47477 10.8791 1.78648 -1.326007 0.791581 -0.216542
H 10.2849 11.6267 2.94537 0.253118 -0.24569 -0.310552
H 9.31347 9.54689 3.21062 0.225065 -0.450476 0.918867
H 12.3521 9.83351 12.1998 0.582633 0.676567 0.100998
H 9.60949 10.0748 1.18984 0.311179 -0.596439 -0.769092
H 11.7659 12.1078 3.12665 2.27532 -0.442097 -1.290845
H 3.54517 2.54885 6.83084 2.423486 1.676194 -0.233628
H 12.2619 2.66852 5.25553 0.377342 -0.597782 -0.197741
H 0.43434 0.19279 7.24848 0.577583 -0.506176 -0.061947
H 6.71224 1.86279 4.96147 1.056488 0.653297 -0.584411
H 6.50738 0.32966 6.53767 -0.009182 0.404547 -0.538546
H 4.86831 3.44133 7.45951 0.403792 0.291492 1.754709
H 5.44203 2.1483 5.80354 -0.340175 0.280285 0.246289
H 7.82584 0.22603 7.39723 -1.022071 -0.208775 -0.397331
H 11.22 2.82473 3.94247 0.33439 -0.131413 0.339816
H 8.80773 3.59526 5.73193 -0.755081 -0.345174 -0.668785
H 9.28837 2.40313 7.55065 -0.830686 -1.610321 0.000493
H 10.2424 3.12288 5.87815 -0.226541 0.367609 0.239826
H 9.66657 1.16102 8.5434 1.091956 -0.437825 0.515973
H 4.07087 4.55553 5.71894 0.206043 0.637956 -0.146123
H 3.20915 5.86318 5.68816 0.417644 -0.172006 0.049558
H 0.65609 6.37659 6.04336 1.60372 0.765231 0.587125
H 1.73671 7.5477 6.51867 -0.342428 0.79387 -0.181723
H 6.23564 8.66457 5.32277 0.369071 0.127374 -0.967066
H 4.80877 10.1904 6.24248 -0.184024 0.663767 -0.480729
H 8.45577 6.22892 6.92356 -0.452261 0.593303 -0.52008
H 4.93229 8.92344 7.01253 0.632783 0.279965 0.033397
H 8.22675 7.18151 5.65813 -0.431748 -0.279014 -0.060592
H 10.5838 5.88647 4.94937 0.088145 0.413623 -0.322605
H 11.6357 4.74448 5.08321 -0.08004 0.528482 0.168305
H 2.69614 11.8341 5.55148 0.030731 0.024763 -0.1487
H 3.22976 10.8422 4.43199 -0.335566 0.167347 -0.62349
H 2.00981 9.89798 6.32186 -0.02961 -0.105233 0.112537
H 2.30855 9.29089 7.74393 -0.57008 -0.049077 -0.462801
H 0.516 10.9795 7.592 0.010786 0.656057 -0.054837
H 7.57896 10.2716 7.44995 -0.447331 1.202899 -0.726994
H 7.57009 9.11597 8.41358 0.86908 -0.003908 -0.131274
H 5.57798 11.5587 8.30399 1.504685 0.6694 -1.679843
H 8.31136 8.79289 4.14836 -0.40735 0.129519 0.449369
H 10.6929 11.5112 5.15373 -0.494073 0.335542 0.427737
H 10.9307 11.6903 6.68399 0.166942 -0.041902 0.102418
H 1.97525 2.14522 8.69868 -0.884173 -0.838039 2.352679
H 0.90114 2.2461 9.9911 1.072073 -0.501285 -0.152457
H 2.93258 0.78547 10.2514 -0.851626 0.390307 0.025491
H 3.81829 1.29885 12.2691 0.138352 -0.000886 -0.386643
H 6.00962 3.07368 9.29069 0.109674 0.342559 -0.444457
H 6.97919 0.86014 10.0486 -0.165583 -0.348194 0.063426
H 7.86214 1.6308 8.87411 -1.173878 0.115462 0.924948
H 11.4764 2.78629 11.6605 0.446757 0.472043 -1.215568
H 7.64343 2.75802 10.9581 0.356796 -0.129848 -0.550775
H 11.5134 3.42822 10.2101 -0.451093 0.939547 -0.297049
H 11.2223 1.24082 10.0481 -0.017207 -0.156774 -0.204902
H 1.55739 6.18065 8.05772 -0.138862 0.136171 -0.66716
H 1.95821 5.63659 9.46597 0.159501 -0.371347 0.365447
H 0.78694 7.63499 9.71333 1.056606 -1.094684 -0.522098
H 6.39079 4.55269 8.78662 -1.060313 -1.035161 0.158662
H 3.733 4.53883 11.9138 0.448047 -0.121637 0.838961
H 2.6879 3.52021 10.244 0.056195 -0.580576 -0.294404
H 3.95552 4.42414 9.86084 0.369153 -0.497309 -0.382942
H 7.91588 6.45466 9.01195 -0.167583 -0.822285 -0.423768
H 6.96599 8.06942 10.6923 0.047719 0.086834 1.343038
H 8.44927 5.0835 9.44179 0.074735 -0.351768 -0.191274
H 7.30152 3.92871 11.9541 1.778289 -0.165887 -0.368361
H 12.0214 5.64493 9.32988 -0.140731 -0.292094 0.321149
H 11.8471 7.53185 11.1992 0.925824 0.07242 -0.48592
H 10.6661 7.76344 12.0483 -0.043364 -0.792978 0.018003
H 10.9956 5.80909 10.5059 0.003027 -0.078516 -0.809462
H 0.0226 8.52625 7.25691 0.739962 0.394704 -0.225766
H 4.19256 12.3091 10.1453 -0.273176 -0.094849 0.470951
H 1.11488 8.96126 10.5391 0.193315 0.034591 -0.244086
H 2.93292 10.985 11.1218 -0.171438 -0.941083 -0.384088
H 3.07072 9.54893 10.468 0.981115 -0.626197 -1.128644
H 6.09334 8.27044 9.42774 0.105776 -0.27499 0.311239
H 4.95623 10.2595 8.94841 -0.347269 -0.69783 -0.446869
H 6.27432 11.2127 10.2821 0.707703 0.549134 0.224558
H 7.84849 11.4574 10.6525 0.028375 -0.643626 -0.140523
H 8.75848 8.5052 12.30864 0.754354 0.52681 0.017046
H 1.33902 10.6542 12.2131 -1.457033 -0.67182 -0.496416
H 9.67661 9.57221 11.5045 -0.271528 1.295042 -1.937998
H 11.5596 8.65551 8.48126 0.168458 0.242786 0.738913
H 8.98588 10.3289 9.23286 0.364162 0.513386 0.969905
H 11.6574 0.18909 8.86982 -1.462495 0.249042 1.087196
H 9.86496 11.4438 9.92783 1.41436 1.577398 -0.449587
O 1.31066 2.08269 1.80578 -1.229851 1.180177 0.499344
O 3.85025 1.81013 0.69786 0.024487 0.136256 0.279117
O 4.94734 0.47668 2.72184 0.402379 -1.390627 0.478146
O 8.00428 3.15622 4.25176 0.707411 0.466328 -0.943842
O 10.1364 2.27126 2.8517 -0.516015 2.585077 0.512348
O 1.17092 4.64351 2.59891 -0.036714 -0.275527 1.315104
O 3.5457 5.97327 2.5549 -0.717417 1.073131 0.854494
O 11.0485 5.5965 1.77186 -1.405926 -0.794863 0.770282
O 4.25889 4.47188 0.3845 -1.056268 0.15726 -0.922905
O 6.73804 5.08149 0.57331 0.359533 0.25935 -1.311096
O 6.7582 8.26031 4.55836 -0.551309 0.352149 -0.776453
O 6.93975 5.63582 3.0888 0.023845 1.019035 1.405088
O 7.50487 7.72444 0.1715 0.510178 -1.144922 -1.955284
O 10.3868 3.39236 0.29986 0.289486 -0.891483 0.343173
O 9.40747 6.39294 3.70175 -1.232518 0.149311 1.222317
O 0.79546 12.0235 2.20752 -0.141669 -1.085421 -0.88784
O 3.14237 10.9558 2.73877 -0.694077 0.352747 0.281392
O 3.31184 8.57115 1.84735 0.430795 -1.261185 -0.735998
O 6.8012 11.452 1.25464 -0.97001 0.588433 -1.737779
O 6.11773 9.03787 2.03554 1.359943 -0.897484 0.756572
O 9.35348 10.571 1.98225 0.683247 -0.033908 0.9832
O 0.34495 10.731 12.2203 0.444303 0.007236 0.60743
O 10.9046 12.1554 3.48187 -2.570818 0.694974 1.498277
O 9.27395 8.9494 4.04573 0.082391 0.518971 -0.947226
O 5.92582 1.45916 5.30689 -0.815384 -1.109745 -0.117958
O 4.44153 3.1102 6.67584 -3.223251 -1.881831 -1.689439
O 11.7083 3.2431 4.711 -0.283112 0.205846 -0.174976
O 8.97922 1.4896 7.95098 -0.373343 1.716153 -0.767444
O 9.4836 3.4609 6.40715 1.36325 0.432792 0.770584
O 4.0548 5.48765 5.3557 -0.830135 -0.297508 -0.112383
O 1.55952 6.60387 6.49097 -1.354554 -1.536433 -1.070213
O 5.49473 9.57855 6.52569 -0.549042 -1.021628 0.223127
O 8.82715 6.96312 6.38234 0.063979 -0.37384 0.587317
O 11.4632 5.70152 5.34361 0.386092 -0.354853 0.498531
O 1.58876 9.36974 7.06094 1.000869 0.180863 0.260449
O 2.90866 10.9084 5.35247 0.158499 -0.097091 1.138367
O 0.01494 11.8196 7.69458 -0.165444 -0.125483 0.068909
O 6.95308 12.1791 7.19825 0.94187 -0.519107 0.744019
O 8.17386 9.6167 7.81137 -0.163189 -0.649169 0.973008
O 10.255 11.4356 6.03794 0.066802 -0.610362 -0.529066
O 1.82882 1.91753 9.71033 -0.241845 1.582841 -2.270418
O 5.62051 3.90793 8.89043 1.045475 0.688521 0.396659
O 7.04955 1.69927 9.56799 0.758177 0.671652 -0.43197
O 11.9016 2.7259 10.7246 0.035253 -1.019165 1.222728
O 8.06043 3.53069 11.3927 -1.321813 0.351261 0.475916
O 3.14292 4.36699 10.3847 -0.287846 0.986316 0.391166
O 1.23174 6.03784 8.96693 -0.168797 0.136473 0.719702
O 0.4326 8.43473 10.0886 -1.050402 1.134243 0.596161
O 7.024 8.19036 9.75291 -0.215917 -0.2569 -1.479686
O 8.10179 5.53698 8.652 -0.139025 1.304764 0.8001
O 11.2879 7.00482 11.7881 -0.964614 0.633713 0.759294
O 11.084 5.43016 9.58245 0.258491 0.177077 0.382708
O 3.50527 0.21847 10.7921 1.074972 -0.639561 -0.10941
O 2.65199 10.0103 11.179 -0.212382 1.584464 1.417167
O 5.08039 11.208 9.01717 -0.939271 0.512126 2.153611
O 6.92197 11.6424 10.9108 -0.881626 0.197016 0.282711
O 9.63429 9.04782 12.2807 -0.158852 -1.664199 1.727166
O 11.507 8.51125 7.53687 -1.109722 -0.824264 -0.243065
O 9.30435 10.712 10.1198 -1.452113 -1.913915 -0.711677
O 10.8684 0.54258 9.44916 1.344916 -0.504858 -0.523847
Na 10.4974 6.03437 7.43622 0.329683 -0.243912 0.156386
Na 9.74189 9.09916 6.33522 0.025591 0.561043 -0.258103
Cl 1.59587 1.70723 6.46373 0.150634 0.132535 0.018883
Cl 4.10753 8.44596 8.92862 -0.455992 -0.566158 0.034957
184
energy=-1000.00276158 config_type=nep2xyz pbc="T T T" virial="-8.439915313032145 0.1570708862315873 -2.2409525515601687 0.1570708862315873 -11.532542172177905 -0.5038668379370891 -2.2409525515601687 -0.5038668379370891 -11.693528227859467" Lattice="12.4 0.0 0.0 0.0 12.4 0.0 0.0 0.0 12.4" volume=1906.6240000000003 Properties=species:S:1:pos:R:3:force:R:3
H 0.85225 1.58107 0.96964 0.376764 -0.728819 0.03455
H 1.87189 2.71235 1.01395 0.853967 -0.388844 -0.109874
H 11.7926 10.0224 4.4115 0.302933 0.309515 -0.261702
H 5.66835 12.3911 11.5996 -0.258734 -0.09974 -0.170012
H 5.73932 1.21213 1.48323 -0.223048 -0.657935 0.354823
H 5.95397 1.49306 3.00464 -0.424676 -0.75007 -0.012099
H 8.78815 4.0488 3.67544 0.311149 -0.620808 0.20944
H 9.85464 2.83151 3.91831 1.138084 -0.476353 -0.477993
H 10.9312 1.5676 0.6736 1.122275 -0.983207 1.1518
H 11.2587 0.08505 1.40221 0.177775 0.509344 -0.239255
H 0.95834 5.56808 1.09284 0.12354 -0.368559 -0.050304
H 2.99347 7.98857 2.56974 0.391802 0.031189 -0.187995
H 3.9356 7.66002 3.71984 -0.086081 -0.099732 0.032558
H 0.73429 7.109 1.37073 -0.880283 -1.242339 -0.651434
H 9.61832 6.01932 0.50735 0.54139 -0.500464 1.129756
H 11.0416 5.87754 1.17674 0.456003 -0.059378 0.144831
H 3.03919 4.44938 1.35484 -0.06454 0.122143 0.207414
H 4.8615 4.79467 2.94394 0.080254 -0.758211 1.195065
H 4.24894 6.03353 2.4175 -0.483595 0.525818 -0.41593
H 5.92754 5.29075 4.93438 -0.646421 -0.429533 0.200716
H 6.36613 6.43667 0.9689 0.439079 0.080175 0.342228
H 5.83466 4.98801 1.28954 0.963953 1.022624 0.024845
H 9.30485 3.23818 12.2191 -1.466908 -0.160382 -0.324655
H 10.3727 3.99324 0.57118 0.10276 0.241302 0.451229
H 4.4783 4.47825 5.2051 0.766866 0.285848 -0.455867
H 9.16245 5.42335 2.45017 0.71409 0.081203 -0.53494
H 7.6307 5.27957 2.56874 0.869821 0.143528 0.30154
H 2.51821 0.60899 1.83334 1.579563 -0.822258 1.644416
H 3.97712 0.28894 2.44296 2.379551 0.758519 -0.245647
H 0.98092 8.73319 3.13481 -0.141139 -0.331138 0.217345
H 1.4777 9.32915 1.8611 0.235994 0.666297 -0.733961
H 12.2584 8.91795 5.39134 0.252878 0.14438 -0.80722
H 6.1232 7.23502 5.60695 -1.417964 1.654984 -0.62505
H 6.88776 11.9191 2.42463 0.532435 -0.348434 -0.202717
H 7.24337 9.51911 4.58433 -0.591009 0.657674 1.1201
H 7.05363 10.8557 1.33768 0.921302 0.46594 0.528874
H 7.79225 9.88475 3.24968 -0.133034 1.507067 -1.516898
H 10.803 10.3784 1.10218 0.480573 0.353997 0.706039
H 11.1459 12.1304 3.79896 0.408338 -0.201755 0.340445
H 10.616 7.64501 2.37533 -0.101427 0.065002 -0.706095
H 3.75509 9.90674 10.2276 -1.294569 0.499496 -0.447243
H 9.8248 10.9514 2.17629 1.926392 -0.016342 -0.198439
H 12.3662 11.9159 4.82969 -0.034265 0.605592 -0.616931
H 2.34653 3.87833 6.01937 0.799469 0.353163 0.361184
H 12.1138 2.17613 4.0957 1.034116 -0.415949 1.039449
H 1.12735 10.8263 7.7057 0.144873 -0.057833 0.498071
H 7.27646 2.59003 4.18354 1.459532 0.011168 -0.090939
H 6.26052 1.28549 5.6357 0.156217 -1.222811 1.073247
H 3.5377 4.16171 7.05978 0.145036 -0.085104 0.292548
H 5.8819 3.20947 4.37531 -0.269139 0.433635 0.225329
H 7.03185 0.91168 7.0068 -0.605096 -0.04826 -0.548202
H 11.5016 1.888 2.67197 0.156486 0.289658 0.212492
H 9.29856 3.44998 5.78261 0.464065 -0.095046 0.505606
H 8.45587 2.60341 7.76972 -0.056061 0.807009 -0.704261
H 10.546 3.11166 6.69397 0.020539 -0.267682 -0.063835
H 9.07352 1.38259 8.22871 0.151707 -0.95801 0.128075
H 3.11661 6.22816 5.80407 0.491023 1.246161 -0.294007
H 3.6463 7.79191 6.1119 -0.655768 -0.688822 -0.200019
H 3.55537 9.96338 7.19458 0.29245 -1.053765 -0.216714
H 4.45144 8.96418 8.0392 -0.016461 0.002562 0.227955
H 6.73388 6.38813 6.58251 0.275484 -0.392489 0.564251
H 6.5268 11.3422 6.31506 -0.183149 0.024054 -0.301685
H 9.15432 7.80978 7.29146 -0.578593 0.033322 0.7274
H 5.64044 10.0472 6.42583 0.123786 0.067241 -0.027303
H 10.0307 8.20192 6.1963 0.226548 -0.247386 0.105636
H 11.5471 4.39303 3.96411 0.284847 2.172355 0.961874
H 11.1314 6.00296 3.90599 0.938312 -0.988473 0.41245
H 1.42154 1.14673 5.22557 0.255204 0.535579 0.079896
H 2.22938 0.26736 4.07914 0.187674 0.266394 -0.612988
H 2.17333 11.7475 6.14169 -0.845911 0.082202 -1.813826
H 3.01289 12.1828 7.22086 0.24928 0.155037 0.95495
H 0.40145 10.0076 8.93783 0.02562 0.59494 -0.599384
H 9.14511 9.7802 7.52991 0.12854 0.04684 0.344453
H 7.68476 9.44001 7.77084 -0.40041 0.194626 0.100102
H 4.04145 1.35194 8.51179 -0.406232 0.099996 0.742038
H 11.2645 8.19745 3.67214 -0.008508 -0.151035 0.094115
H 10.5993 11.016 5.8974 -0.559162 -1.644081 1.159251
H 11.2708 10.3837 7.17856 -0.764106 -0.435203 -0.298222
H 0.22435 2.40519 9.81098 -0.361038 -0.060319 -0.546944
H 1.06206 2.34888 8.41288 -0.319482 0.06185 0.01923
H 2.28446 0.89981 11.7345 0.546665 -0.296011 -1.279464
H 4.16706 0.58934 11.2391 -0.32301 -0.135725 -0.184596
H 5.05431 3.62927 8.95712 0.419776 -0.25121 0.094714
H 7.10816 2.02108 9.45007 -0.934565 0.599556 0.150788
H 5.78607 1.78455 10.3525 0.391265 0.121889 0.41265
H 10.7975 2.9433 11.1076 -0.052454 -0.558299 -0.621039
H 7.24388 3.3341 11.1403 -0.165451 -0.439739 -0.112227
H 10.8909 3.60038 9.69701 0.490785 -0.096113 -0.458508
H 10.9504 1.17825 9.39401 -0.267855 -0.044893 -0.169663
H 1.51677 5.77557 10.5281 0.17536 -0.217215 0.087242
H 0.51383 6.38771 11.5291 0.173026 0.086651 0.350615
H 0.51239 8.37912 10.4373 0.976188 -1.209199 -0.304045
H 5.21133 5.06869 8.3922 0.16084 0.110586 0.109822
H 2.37328 4.33964 12.3398 0.380101 -0.03948 -1.454238
H 1.7921 3.60012 10.1872 1.661907 0.970247 0.543385
H 3.14504 4.48992 10.0512 0.523544 -0.193307 -0.516235
H 8.8964 6.24611 10.4732 0.112318 1.808145 1.597899
H 7.16523 6.03032 8.71526 -0.274559 0.331079 0.249921
H 8.61474 4.75894 10.279 -0.058463 0.594261 -0.120849
H 7.52056 4.38697 12.3174 0.073412 -0.321127 -0.141273
H 11.8448 5.52825 9.6593 1.212105 0.412023 0.400958
H 11.6451 9.35612 11.6029 -0.583635 0.842062 0.415764
H 10.2677 10.1877 11.4902 0.194013 -0.419535 -0.04126
H 10.3935 5.36883 9.31714 -0.219409 -0.174599 -0.438441
H 0.98545 7.15273 7.52446 -0.176744 0.199244 -0.418946
H 2.13358 1.29823 10.203 0.482986 -1.090453 0.528555
H 1.42482 9.70828 10.4677 2.370891 0.39068 -0.17541
H 5.59687 8.22881 1.8798 0.467994 -0.076883 -1.308601
H 6.06232 8.58353 0.35509 -0.56033 -0.077472 0.027079
H 5.89825 6.99959 8.9606 0.926452 -0.596286 -0.608673
H 4.69206 1.04302 7.25076 1.49303 -0.345079 -1.209
H 6.32492 10.2493 11.5722 0.747869 0.921431 -0.520817
H 7.61011 11.1956 11.3019 0.130889 -0.381262 -0.297422
H 8.13569 7.96439 11.7041 -0.286907 0.047703 0.060538
H 3.0246 11.3069 10.3627 -0.580222 -0.584409 -0.524832
H 9.6323 8.22032 12.0533 0.18764 0.310187 -0.253793
H 1.09279 7.35494 5.97361 -0.452745 -0.467544 1.130486
H 8.97258 10.2068 9.60361 0.0135 0.508983 0.021675
H 11.5156 12.3598 8.55442 -0.497448 0.093944 0.08967
H 9.83837 11.5554 9.82553 -0.79046 -0.444897 0.078719
O 1.83488 1.70673 0.92846 -1.424773 0.474611 -0.398461
O 5.10828 0.77384 11.4 1.009874 0.424975 0.270774
O 5.63414 0.76938 2.35506 0.839919 1.244122 -0.529272
O 8.97436 3.1411 4.10567 -1.569338 -0.035195 1.202365
O 11.6094 1.00559 1.20903 -1.49252 0.634285 -0.708878
O 0.31017 6.28452 0.92205 0.584749 1.589641 0.755275
O 3.94298 7.76664 2.74602 -0.054669 -0.186708 0.441615
O 10.1239 5.51963 1.23284 -0.398296 1.205554 -1.861273
O 2.20233 4.24723 0.87352 -0.525566 0.307985 1.526147
O 4.32867 5.0822 2.19822 -0.249253 0.101143 -0.733016
O 6.72701 6.52346 5.61797 1.084322 -0.791955 0.077393
O 5.3118 4.56912 4.61668 -0.562173 0.31706 0.269688
O 6.69217 5.5183 1.19893 -0.874573 -1.315477 -0.545143
O 10.202 3.13661 0.14803 1.885288 -0.879469 0.30243
O 8.48577 5.26398 3.12422 -2.191779 1.23318 0.024694
O 12.3199 9.18215 4.43663 -0.419849 -0.345171 1.132204
O 3.08474 0.04104 2.51842 -4.176847 -0.038668 -0.688586
O 1.38655 8.47664 2.27565 -0.237147 -0.273218 0.402249
O 7.53004 11.2035 2.14077 -0.92457 0.046095 -0.448529
O 7.71525 9.15667 3.84208 0.247802 -1.622221 0.663317
O 10.8319 10.8786 1.99371 -2.627019 -0.132322 -0.638613
O 2.90552 10.3968 9.97126 1.652045 0.032478 0.95485
O 11.4315 11.6784 4.61102 -0.206367 -0.137591 0.213787
O 10.6397 7.50893 3.31577 -0.178459 0.234674 0.636371
O 6.3509 2.35002 4.23517 -0.508032 -1.040405 0.127432
O 3.18986 4.39803 6.17889 -0.798415 -0.023758 -0.567283
O 11.4517 2.45884 3.48892 -0.904339 0.267317 -1.247091
O 8.18423 1.71799 8.03271 0.107817 -0.273267 0.654304
O 9.68083 3.55261 6.71849 -0.240169 0.433578 -0.649312
O 3.23877 7.16558 5.4442 0.044899 -0.522109 0.512183
O 4.07858 9.08976 7.15521 -0.289535 1.231323 -0.009959
O 6.53506 10.3623 6.19559 0.032113 -0.581985 0.19554
O 9.59785 7.39184 6.54162 0.608741 0.229243 -0.932096
O 11.662 5.31343 4.42134 -1.054551 -1.412369 -1.304587
O 2.50277 11.3849 6.95567 0.724492 -0.423169 0.823321
O 1.51337 0.30907 4.74947 -0.365193 -1.102299 0.284043
O 0.27388 10.5751 8.13669 -0.635852 -0.118803 0.085362
O 6.28127 0.60477 6.41635 0.487891 1.544759 -0.529269
O 8.55143 9.31389 8.18591 0.29719 -0.028937 -0.521794
O 10.4524 10.2463 6.58583 1.355256 1.628603 -0.644358
O 1.11105 2.27747 9.39548 0.473043 0.342358 0.580046
O 4.56203 4.35124 8.54052 -0.75277 -0.113469 0.060578
O 6.36167 2.4953 9.93134 0.526145 -0.417702 -0.511818
O 10.9327 2.7148 10.1239 0.123739 -0.007178 1.077867
O 7.93937 3.69254 11.7463 -0.793974 1.039916 -0.107529
O 2.44044 4.27285 10.6706 -1.79107 -0.85368 -0.751726
O 0.82955 6.46606 10.6091 -0.692005 0.189623 -0.399219
O 0.57849 9.31099 10.6046 -2.929241 0.262329 0.458793
O 6.31712 6.33349 8.32047 -0.129748 0.505329 0.550473
O 8.81635 5.6043 9.79652 -0.419028 -2.179743 -1.327481
O 10.7989 9.59424 12.1014 0.022996 -0.254297 -0.529091
O 11.2897 5.02416 9.05979 -0.923826 0.472309 -0.476578
O 2.6208 0.62701 10.8053 -1.384393 1.221653 1.018206
O 6.23328 8.03101 1.12799 -0.273765 0.160647 1.056574
O 3.82255 1.22799 7.58846 -0.883361 0.149493 0.44351
O 6.79447 11.0933 11.8239 -0.806058 -0.615311 0.50947
O 8.98379 7.52372 11.8173 0.239718 -0.553875 0.110708
O 0.44019 7.21956 6.72049 0.786767 0.152891 -0.772099
O 9.21114 10.9055 10.2706 0.702109 0.165521 0.068818
O 10.6856 0.40302 8.84332 0.558245 -0.283001 0.14327
Na 11.1405 5.50687 6.6616 0.100113 0.059808 0.006572
Na 8.55914 7.31832 4.32583 0.178464 -0.700997 0.205664
Cl 0.62387 2.64457 6.40055 -0.24578 0.268379 0.00725
Cl 5.57386 8.63841 10.3653 -0.011262 -0.147326 -0.068259
184
energy=-1000.1106151 config_type=nep2xyz pbc="T T T" virial="-12.154244900369195 -2.631826885158375 0.6546901133442515 -2.631826885158375 -18.191721797293656 0.5585840085479564 0.6546901133442515 0.5585840085479564 -15.747644542567567" Lattice="12.4 0.0 0.0 0.0 12.4 0.0 0.0 0.0 12.4" volume=1906.6240000000003 Properties=species:S:1:pos:R:3:force:R:3
H 1.53982 7.53707 10.8329 -0.050837 0.483675 0.259606
H 2.32405 11.0902 7.14928 0.329889 0.362619 0.825645
H 4.27796 10.8256 3.06299 -0.31008 -0.049762 0.22463
H 0.73243 1.67619 2.96571 0.159734 0.323412 -0.560936
H 3.10954 4.73376 1.65757 0.028903 0.142255 -0.278434
H 2.96974 4.52385 0.12064 0.885274 0.28045 0.676528
H 10.0347 2.84149 5.16994 -0.909034 0.312171 -1.218757
H 11.4272 2.35028 5.61045 -0.8885 0.611704 0.068946
H 1.53988 6.08316 10.7257 0.499018 -1.730928 -0.513264
H 8.65939 5.1863 10.6352 -1.668239 0.803485 0.122505
H 9.40626 0.99876 0.93428 0.46352 0.580549 -0.0512
H 8.0022 5.73024 3.06367 -0.555442 -0.305389 -0.2258
H 9.7835 4.61826 11.6721 -0.677237 0.290277 -0.21385
H 6.49422 5.11299 12.047 0.228081 0.430244 -0.369978
H 8.14418 10.2927 3.05105 0.812821 0.427988 -0.457952
H 0.92455 9.1233 0.98925 0.113227 0.153502 0.33796
H 8.86633 10.7909 1.71215 -0.012185 -0.18704 -0.868295
H 3.26458 5.68818 6.34389 0.807188 -0.220645 -0.709519
H 5.33587 5.01248 0.71649 0.294483 -0.477835 -0.544998
H 7.14182 8.47907 12.2922 -0.422093 0.849189 -0.000883
H 8.57777 7.8902 0.16399 1.364328 0.248033 0.364659
H 3.00662 0.62978 11.5243 0.238217 -0.056634 -0.033413
H 7.47556 6.70838 9.3651 -0.727231 -0.570313 1.576059
H 7.04247 5.00085 1.91239 0.439537 0.248402 -0.26865
H 9.14808 7.06329 4.71204 0.685347 0.259296 0.468463
H 2.30864 11.2094 0.54952 0.496153 0.679528 0.546743
H 3.38863 1.72959 10.4632 -0.001919 -0.28489 -0.110662
H 0.58118 2.26065 1.43113 -0.516868 -0.528882 -0.139991
H 10.5113 9.87302 3.03536 0.377741 0.141416 0.370791
H 12.3368 8.98631 2.2492 0.58343 -0.231491 -0.454231
H 11.4575 11.2224 6.21337 -0.350234 0.226924 -0.540738
H 5.228 9.97982 1.23555 0.821957 0.307222 -0.391928
H 4.26494 8.87703 1.58207 0.43781 0.261666 0.88571
H 5.42983 0.21167 3.00823 -0.096041 -0.425954 0.48386
H 6.25683 1.06252 2.03335 0.545369 -0.002615 1.289745
H 3.98377 7.69619 6.13162 0.670793 0.744949 -0.25721
H 2.88897 11.9922 9.29576 -0.027863 0.381217 0.376238
H 11.58 10.2759 4.16698 -0.192473 -0.570542 -0.920674
H 10.091 2.23929 1.57146 0.019634 1.731516 -0.312477
H 11.5919 11.9695 11.034 -0.073357 -0.089914 0.186056
H 2.40452 9.82458 6.24006 0.149501 0.414903 -0.066388
H 4.64508 1.76244 5.50524 2.131908 -0.040363 0.256329
H 5.73084 1.50235 4.42056 0.619253 0.144987 -1.321259
H 11.5527 4.30707 6.01691 0.217831 2.077901 -0.355392
H 6.23062 8.85286 3.20651 0.747984 0.461871 2.158456
H 0.45729 5.21863 5.90754 0.31511 -0.117042 -0.139368
H 1.04096 4.9258 2.16555 0.411354 -0.003277 0.412416
H 8.1371 3.17135 4.86883 -0.081429 -0.130038 0.674223
H 7.34848 8.302 4.27499 0.17659 -0.518445 -0.105249
H 0.11562 11.5895 12.1692 -1.196284 0.210448 0.287598
H 1.58751 3.50618 2.61474 -0.083646 -0.428055 -0.160902
H 9.15814 11.7184 6.53119 0.949473 0.484729 -0.066029
H 11.0826 6.69696 5.08835 0.645987 -0.748464 0.490666
H 12.025 7.17822 9.99267 -1.257064 -0.325049 0.303431
H 4.09538 6.10996 7.58729 0.686985 0.035203 -0.535221
H 5.8117 5.96045 6.19779 0.498702 -0.13728 0.261969
H 6.82189 2.77695 6.20428 -0.119007 0.941361 0.141042
H 6.97605 6.71088 7.04528 -0.092423 -0.939915 -0.549316
H 7.28985 4.32202 6.58362 -0.435778 -0.118068 -0.148316
H 10.9982 8.16801 4.53693 0.025231 0.308465 -0.162494
H 8.28669 3.58342 3.43645 0.10567 -0.255774 -0.272433
H 11.6979 1.25535 12.3269 0.242188 0.438213 0.06597
H 11.3827 2.23915 8.90389 0.113291 -0.834871 0.128128
H 0.29488 1.63164 8.1831 -0.1621 0.311303 0.184391
H 3.61299 0.04947 2.01694 -0.850116 0.043393 -0.622792
H 4.9839 8.70785 5.35171 -0.909211 -0.211402 0.530007
H 2.4534 0.9755 1.45973 0.687817 -0.850594 -0.120885
H 10.7081 6.27846 10.174 0.167102 0.788012 -0.10254
H 12.1789 12.36857 9.06765 -0.300316 0.386162 0.081179
H 3.83519 4.23007 9.34919 -0.52482 -1.4782 -0.239138
H 10.1185 9.7863 7.79443 -0.141504 0.141999 -0.031869
H 11.0119 10.9036 8.4776 -0.183772 0.198333 -0.450442
H 6.16876 10.5376 7.10561 -0.627873 -0.642074 0.473491
H 4.9931 9.52098 7.41532 0.901201 0.363768 0.140177
H 2.68045 10.4188 9.14762 0.14606 0.845128 -0.312223
H 10.298 7.81207 6.90303 -0.282462 0.156751 -1.005411
H 10.3848 7.57734 8.41535 -0.909298 1.033131 -0.084902
H 8.32327 8.07103 7.9472 0.196076 -0.441027 -0.183346
H 6.80176 8.55751 8.02625 0.009093 -0.222246 0.195344
H 7.59676 11.9952 9.32021 -0.599557 -0.358288 -0.005583
H 9.00811 11.6381 8.65997 0.963628 -1.632908 -0.688084
H 5.63101 11.008 9.3492 0.082186 0.328971 -0.022937
H 0.118 6.76097 1.36552 0.431686 1.165863 -0.219851
H 3.19647 2.8419 8.59142 0.757045 1.15773 0.972407
H 2.12734 4.66683 4.54592 -0.140613 0.281149 0.384394
H 5.06785 12.3645 9.89616 -0.079421 -0.024276 0.175119
H 5.78304 1.40133 0.14457 -0.692186 0.301335 -0.391832
H 6.19361 2.98884 0.2971 -0.090786 -0.300126 0.090337
H 9.51061 9.79031 12.32543 -0.842932 1.047488 0.520726
H 7.89402 1.5359 11.8539 -1.78527 0.774259 0.63101
H 8.64905 0.55928 10.9162 0.194952 0.567622 0.800465
H 9.90808 11.2811 12.3592 -1.432086 -0.702064 0.336259
H 9.57507 4.46696 1.84045 -0.424525 0.368237 -0.101992
H 11.0215 4.67476 1.18871 0.022299 0.575595 0.323131
H 2.34711 3.78901 5.84034 -0.180775 0.88108 -0.128721
H 1.05994 1.55222 5.24713 -0.955076 0.06397 -0.876939
H 7.19302 10.5562 0.0661 -0.557525 -0.127183 -0.496497
H 12.3176 0.56196 4.81726 0.134052 0.36366 -0.036015
H 5.88887 10.6889 11.5535 0.706983 -0.315204 0.274983
H 0.69229 11.149 9.02468 1.890613 -0.528285 -0.344011
H 3.97693 6.75865 9.80312 -0.133856 -0.051454 -0.489865
H 3.46631 11.4608 4.2702 -0.875329 -0.311923 1.204241
H 6.02152 12.2228 5.37712 0.392017 -1.28913 0.762045
H 7.43411 6.84032 11.0029 -0.001005 -0.317559 -0.598741
H 6.45167 10.7391 4.88508 -0.156219 -0.381918 0.086586
H 7.66059 6.50403 5.23588 0.921476 0.344764 -1.064295
H 11.3178 2.79632 0.10283 -0.347158 0.01992 -0.030041
H 2.15897 10.0759 11.8364 -1.165871 1.174512 1.508673
H 10.5429 7.93755 11.4869 0.468728 -0.405242 -0.972037
H 11.33 8.28091 0.43655 -1.24746 -0.556012 -0.463042
H 0.44328 11.079 5.68337 1.205082 -0.145114 0.019164
H 5.23654 5.94813 9.82558 1.610168 -0.164818 0.194732
H 0.62154 5.72379 0.25595 -0.484226 0.835145 0.544446
H 3.54406 7.99506 12.1378 0.127621 -0.028541 0.496721
H 1.15533 3.04357 11.6118 0.427544 1.861731 -0.351369
H 3.39594 6.74043 0.59795 -0.173212 -1.398801 0.431546
H 2.21095 3.47852 10.5597 0.119638 0.641928 0.077269
H 8.05721 12.0015 5.67109 -1.858281 -0.234112 -0.457688
H 9.73919 3.60653 9.65615 -0.408134 -0.146263 0.990009
H 9.34007 2.05292 10.0339 0.286746 1.038766 0.32062
O 1.00818 6.75933 11.1057 -0.315463 0.97971 -0.064514
O 2.04018 10.7267 6.30325 -0.559688 -0.79121 -1.697248
O 1.20256 2.00936 2.14526 0.376946 -0.475757 0.709281
O 3.61066 4.90553 0.80746 -1.29134 -0.482085 -0.503715
O 10.6413 2.91964 5.89622 1.854815 -1.18517 1.160796
O 9.5501 4.88052 10.7527 2.546738 -0.557536 0.166504
O 7.81173 4.92643 2.50986 1.051392 0.118944 1.079498
O 9.96889 1.31451 1.67431 -0.690631 -2.258109 0.664595
O 0.43318 8.47923 1.53324 -0.940321 0.170108 0.173165
O 4.42271 6.01853 9.33591 -1.314826 0.204629 0.303969
O 8.91229 10.8066 2.68094 -0.814913 -0.387808 1.951061
O 6.26739 4.71868 0.49065 -1.218928 -0.237567 0.356223
O 7.68887 7.69659 12.3063 -1.031627 -1.15245 -0.272588
O 3.22559 0.76925 10.5866 0.221621 0.366222 0.153299
O 8.23336 6.90271 4.44895 -1.999726 -0.637022 0.12816
O 2.56425 11.3075 8.69627 -0.210802 -0.830538 0.258454
O 11.966 11.3773 5.37978 -0.715197 -0.304447 0.76457
O 4.83674 9.58702 2.02705 -0.99281 -0.715603 -0.005356
O 6.2877 0.66681 2.95691 -0.087155 0.511767 -1.718809
O 11.3866 9.61218 3.41787 -0.4679 0.518463 0.745679
O 5.67194 1.69115 5.35428 -2.656796 -0.049467 1.342479
O 11.8925 5.28482 5.94989 -0.894817 -1.537816 0.244302
O 3.52974 3.26737 9.45498 -0.254046 0.271154 -1.038514
O 6.66997 9.00676 4.13569 -1.21293 0.435895 -2.235834
O 1.74708 4.466 2.70722 0.175957 0.873075 0.135582
O 11.0221 7.19611 9.91881 0.633587 -0.818267 -0.265645
O 4.1598 6.07068 6.59772 -1.415085 0.087746 0.989726
O 6.79608 5.94923 6.35458 -0.309514 0.850071 0.580062
O 7.54561 3.37058 6.53723 -0.099789 -0.774428 -0.222608
O 8.57011 2.85945 4.05696 -0.047254 0.219704 -0.382813
O 10.629 7.54507 5.18921 -0.056287 0.354857 -0.101632
O 12.0405 1.49191 8.88982 0.288103 0.76118 -0.543744
O 3.15019 0.29122 1.1655 -0.346538 0.865146 0.598714
O 4.17528 8.66581 5.93483 0.431228 -0.31302 -0.199118
O 10.2263 10.7731 7.84253 0.161958 -0.492919 -0.168593
O 5.82165 9.92028 7.82478 -0.442283 0.160816 -0.455807
O 11.5927 11.9911 12.0164 1.248255 -0.580492 -0.564405
O 9.84515 8.10167 7.71426 1.653469 -0.793333 1.075474
O 7.39511 7.75579 8.10946 -0.574754 0.52248 -0.146663
O 8.48365 12.2893 9.09817 -0.625987 2.321889 0.942923
O 5.81321 11.749 9.98428 -0.024097 -0.598023 -0.204639
O 4.01152 11.6693 3.53187 1.294094 -0.007504 -1.503165
O 8.76497 1.24921 11.6339 1.640994 -1.671066 -1.69223
O 6.47876 2.03584 0.3177 0.413768 -0.058036 0.365959
O 9.07109 10.6954 0.11904 2.703959 -0.52336 -1.048577
O 10.1868 4.17499 1.14747 0.444074 -0.6634 -0.635479
O 6.31718 10.1415 12.2657 0.056708 0.781923 -0.135518
O 0.24541 1.48503 4.63249 0.89877 -0.505292 1.048031
O 2.1669 4.73375 5.53683 0.113067 -0.991875 -0.374097
O 7.27472 6.1875 10.2407 0.156274 0.660296 -0.670346
O 6.41175 11.3267 5.66371 -0.165999 1.673493 -0.796909
O 1.66178 10.5907 0.18907 0.498566 -1.684716 -2.308393
O 12.0539 2.18737 0.0 0.499287 -0.129358 -0.224474
O 10.4289 8.01929 0.03438 0.684112 1.329988 1.589084
O 0.11286 5.84408 1.08821 -0.059077 -2.371634 -0.185517
O 12.2136 11.3997 9.24617 -1.549872 0.08893 0.769005
O 3.71756 7.63436 0.6357 0.181625 1.61205 -0.982293
O 1.68388 3.86983 11.3017 -0.660725 -2.123726 0.52643
O 8.89729 0.0003 5.87258 1.004947 -0.066299 0.690188
O 9.68479 2.67748 9.35966 0.328122 -0.724124 -1.066991
Na 8.91272 0.63476 3.58208 -0.039251 0.038134 -0.15049
Na 8.79892 1.90112 7.52353 0.357055 -0.271658 -0.181005
Cl 2.65669 1.90342 6.58429 0.006656 -0.035762 0.120973
Cl 2.92049 8.78871 10.1054 0.239198 -0.245032 0.338997
184
energy=-999.63928811 config_type=nep2xyz pbc="T T T" virial="-5.960387329456606 -5.911893969247975 -2.793967261316067 -5.911893969247975 -3.7458889471587162 4.1014910550738835 -2.793967261316067 4.1014910550738835 -18.1113834721971" Lattice="12.4 0.0 0.0 0.0 12.4 0.0 0.0 0.0 12.4" volume=1906.6240000000003 Properties=species:S:1:pos:R:3:force:R:3
H 1.06204 1.48145 2.15943 -0.010438 0.94245 0.454887
H 2.48398 2.00352 1.71705 0.499132 -0.340315 -0.383624
H 0.73588 8.37187 2.69952 -0.597739 0.288383 -0.199867
H 3.67271 3.15559 0.80749 1.064773 -0.516882 -0.429137
H 4.86198 1.25979 1.85683 0.984673 -0.868508 1.566515
H 5.78861 1.30853 3.24917 -0.442165 -0.96039 -1.154232
H 9.62312 4.26335 3.23653 0.167123 -0.569833 0.807814
H 10.3665 2.93977 2.93253 -0.133214 -0.195779 0.712509
H 11.2618 1.88304 1.34887 0.069652 -0.041034 0.313263
H 11.4957 0.68529 2.3111 -0.309459 -0.563503 0.056956
H 1.81761 4.59702 2.70485 -0.230195 0.76151 -0.403749
H 2.54074 7.73967 3.62675 0.64912 0.672636 0.718245
H 1.8713 6.81316 4.81505 0.370094 0.663282 -0.92298
H 1.7936 6.13329 2.6722 -0.456811 -0.063912 0.322254
H 11.3967 6.01688 0.37498 0.647121 -1.051384 0.815068
H 0.03983 5.30248 1.3715 0.686097 -0.005406 0.317016
H 2.66006 5.09913 1.03121 0.304895 -0.111734 -0.433959
H 6.18988 5.23095 1.87291 -0.014002 -0.143521 0.348199
H 5.17832 5.12852 0.70227 0.192439 0.14906 -0.034847
H 5.90376 5.26273 4.4411 -0.406407 0.358277 0.226257
H 5.68681 8.33144 12.1712 0.303143 -0.312841 0.262069
H 6.36682 6.9635 0.2112 -0.181814 0.204811 -0.151113
H 9.34094 3.49159 0.00909 -0.543519 0.307889 -0.181908
H 10.8133 3.84428 0.44814 0.005675 0.416687 -0.041294
H 4.64491 4.60467 3.62698 -0.352879 -0.177911 0.148494
H 10.4805 5.88373 2.13856 -0.050018 0.319235 0.169134
H 9.43401 6.96246 2.75238 -0.595003 0.519704 -0.234109
H 2.43221 0.14267 2.69269 0.956686 0.343434 0.09092
H 3.99495 12.2731 3.00074 -0.217202 0.490271 -0.23468
H 3.63238 10.1698 3.68172 -0.501818 -0.679025 -0.214081
H 4.03236 9.15223 2.61512 -0.149433 0.006752 0.157054
H 12.2055 8.41193 1.4461 -0.320895 -0.591991 -0.870066
H 6.1341 7.25113 5.26504 -0.076462 1.487213 -0.08661
H 6.26058 12.1715 1.58546 0.566718 -0.969755 -0.300567
H 5.24079 8.99004 4.37637 -0.585425 0.319243 -0.082363
H 6.31958 11.8518 0.0849 0.185752 -0.047286 -1.235622
H 6.15995 9.59139 5.59182 -0.188299 -0.746095 -0.964499
H 8.12858 10.8228 1.12828 -0.457905 0.827166 0.369085
H 10.3052 11.2229 2.03871 -0.606907 0.158843 -0.340882
H 8.84788 9.10132 2.81557 0.174507 1.420829 -1.480693
H 3.71616 10.0752 10.7491 0.910719 -0.55559 -1.11828
H 9.04329 9.81737 0.56238 0.569712 0.052886 0.132018
H 11.7334 10.8226 2.06459 0.533187 -0.18977 0.399781
H 2.05443 3.31906 6.76073 0.67994 0.08862 0.06887
H 3.22449 3.7533 4.67225 -0.151249 -0.318042 1.531113
H 0.58962 10.2699 8.17641 -1.559226 -0.83178 -0.270559
H 7.55239 2.36129 4.10687 0.367934 0.001726 -0.223629
H 6.30997 1.22243 5.72576 -0.139346 -0.083578 1.687646
H 3.46093 3.71853 7.468 -0.204904 0.060784 -0.997461
H 6.26435 3.27336 4.13871 -0.1464 -0.539915 -0.143079
H 6.95232 1.03673 7.28105 -1.132074 0.17089 -1.152088
H 2.81722 2.97993 3.3866 -0.337657 -0.794338 0.02776
H 9.73675 2.90031 5.71531 -0.029234 0.588896 0.213761
H 8.74105 2.14144 7.52766 -0.296441 -0.555535 0.931618
H 10.8113 2.67879 6.6842 3.201398 -1.592901 0.647924
H 8.77002 0.92571 8.6431 -0.445263 -0.233329 0.093937
H 2.38584 5.41795 6.29098 0.135568 -1.141731 0.137434
H 2.76784 6.77585 6.9343 -1.057321 0.238273 -0.559233
H 2.25928 9.08894 7.34536 0.613523 -0.039589 0.587351
H 3.33927 8.61748 8.38443 0.733196 0.625793 0.369107
H 6.29357 6.38537 6.59098 -0.355219 0.228304 -0.81549
H 6.41293 11.6116 6.66377 -0.103419 0.099438 0.376722
H 9.05473 7.45648 6.60349 0.080325 -1.550426 -0.688281
H 6.16421 10.2753 7.6138 0.647807 0.963794 -0.94876
H 8.33121 6.342 5.79203 0.360082 0.060392 0.174888
H 11.3657 4.19329 4.53097 -0.008023 0.427844 -0.029404
H 0.03239 3.8151 5.51469 0.183338 0.313552 0.022533
H 0.50093 0.18985 5.01009 -0.151517 1.063494 -0.017151
H 1.45816 11.5868 4.21083 -0.353746 0.443497 0.773548
H 1.78416 11.2986 6.44962 0.169381 0.125013 0.018961
H 2.94421 11.4485 7.49241 1.293068 1.277621 0.664099
H 0.22365 9.47217 9.36074 -0.694018 -0.404472 0.191893
H 9.52429 9.6618 5.92699 -1.803035 -0.107794 0.89126
H 7.99762 9.90289 6.58985 -0.635321 0.811196 -0.357061
H 4.51311 0.94388 7.45918 0.825506 0.135365 -0.175571
H 7.80925 8.74218 3.8858 -0.495411 -0.007022 0.278248
H 10.715 10.7049 3.94957 0.019097 -0.711352 0.76132
H 11.7057 10.4112 5.06485 -0.802316 -0.099818 -0.002202
H 0.96304 1.89556 8.94326 -0.071817 -0.002101 1.370897
H 0.07128 1.81464 10.2604 0.646697 0.422397 -0.491428
H 2.19357 1.19854 10.8771 0.548882 0.102287 -0.182254
H 3.82865 1.75118 12.3789 0.230447 0.508646 0.485419
H 5.48489 3.15729 9.16635 0.363908 -0.744462 0.58794
H 6.06112 1.30047 10.3071 1.250059 2.090104 -0.196605
H 7.15893 2.04523 9.45241 -0.048427 0.050971 0.053996
H 10.5373 2.38672 11.1921 -0.169462 -0.05837 -0.60833
H 7.34964 3.53157 11.0894 -0.537226 -0.189041 0.253519
H 10.4736 2.1923 9.52271 0.192967 0.24568 1.137443
H 9.94226 0.27155 10.0336 0.686855 0.328749 0.699308
H 1.59219 7.23493 9.22573 0.469855 -0.240291 -0.478908
H 1.60503 5.93897 10.1815 0.827593 -0.41064 -0.167596
H 1.17746 8.30793 10.7287 -0.00497 -1.411282 -0.064979
H 5.67166 4.5872 8.65553 0.033474 0.666367 -0.054325
H 2.94059 4.58102 11.9189 0.036627 0.229589 0.126754
H 1.8551 3.69784 10.022 -0.381616 -0.576788 0.266676
H 3.25647 4.32511 9.89906 0.591505 0.024425 -0.345653
H 8.63708 6.96847 10.3966 -0.763855 3.907789 2.074327
H 7.30255 6.25429 8.22104 -0.219907 0.022689 0.426787
H 8.17376 5.54156 10.331 0.053809 -0.601621 0.654719
H 7.16656 4.73012 12.1727 0.096015 -0.697592 -0.332707
H 12.1271 5.95088 9.39304 0.068165 0.489208 0.417876
H 11.7249 8.27451 11.7108 0.898677 0.229569 -0.235632
H 10.31 7.74525 11.9374 0.352742 0.048167 0.392659
H 10.5342 5.88978 9.52209 -0.260211 0.084305 0.34142
H 0.49021 7.07744 6.67539 -0.110426 0.051113 -0.365023
H 3.46548 0.8886 10.1133 0.302795 0.101044 -0.076179
H 1.53917 9.67733 11.2195 -0.59242 0.009166 0.145489
H 5.25194 10.1633 1.20122 -0.072748 -1.036889 -0.248981
H 4.05507 9.81386 0.35323 -0.36909 -0.374291 0.130941
H 6.30079 7.25347 8.78978 -0.406562 0.256075 0.244434
H 3.02869 1.33774 7.56708 0.29594 -0.235283 0.352208
H 6.18046 10.9686 10.3854 -0.087583 0.789696 -0.160691
H 7.38714 11.9626 10.5453 0.83455 0.172883 -0.161156
H 7.76217 8.39308 11.7737 -0.560144 -0.22153 -0.216051
H 3.05383 11.3765 11.2428 -0.006709 -0.273043 0.203223
H 8.72974 9.10214 10.6856 0.078423 0.698773 -1.201221
H 12.1577 8.17451 7.4108 -0.223574 0.96354 0.729238
H 9.18383 9.66635 8.06939 1.054334 0.133292 1.730671
H 9.31982 11.2458 9.45067 0.03343 1.406636 0.914154
H 10.6151 9.72607 8.82106 -0.944629 0.41835 0.223454
O 1.96843 1.72744 2.48822 -1.004178 -0.086959 -0.229622
O 4.10623 2.22927 0.81972 -1.046922 0.130395 -0.45744
O 5.3528 0.64452 2.58226 -0.177964 2.370376 -0.555161
O 9.88868 3.39823 3.66606 -0.045756 0.767968 -1.187877
O 11.6925 1.63529 2.19481 0.00885 0.66907 -0.64449
O 1.58076 5.34587 2.09091 0.16401 -0.738848 0.390761
O 1.80466 7.16695 3.86072 -0.657052 -0.544653 0.215463
O 11.5545 5.20215 0.98391 -1.127026 1.248001 -1.250249
O 3.36866 4.76615 0.38528 0.071775 -0.314969 0.44521
O 6.1133 5.37295 0.91736 -0.527394 0.005091 -0.193899
O 6.37884 6.38657 5.59658 0.600891 -1.744981 0.857885
O 5.60717 4.66875 3.71409 1.31522 -0.076278 -0.377695
O 6.42763 7.71626 11.9789 -0.308467 -0.096434 0.127926
O 10.2102 3.10788 0.19272 0.421646 -0.686167 -0.018825
O 9.93714 6.16645 2.9146 0.628383 -1.033843 0.386714
O 0.01525 8.87074 2.25126 0.585608 0.326881 1.163453
O 3.10031 11.8691 2.92788 -0.579099 -1.605631 0.537098
O 3.74319 9.19026 3.56911 0.415366 0.634296 -0.464087
O 6.64558 11.4893 0.90995 -0.978353 0.81851 1.659108
O 6.078 8.8954 4.86318 0.871077 0.471412 0.7482
O 9.02112 10.4635 1.3104 0.05059 -1.031 -0.41665
O 3.05657 10.3963 11.3598 -1.164273 1.287711 1.25233
O 11.1532 11.4944 2.46194 -0.069752 -0.364829 -0.113472
O 8.68429 8.52647 3.53871 0.240331 -1.325157 1.059426
O 6.60496 2.31685 4.26084 -0.258576 0.383526 0.225265
O 2.91948 3.79364 6.62844 -0.103655 -0.320961 0.72858
O 3.13889 3.81775 3.73223 0.025377 0.85333 -1.032949
O 8.19222 1.58032 8.16253 0.698291 0.63547 -0.924341
O 10.0028 3.11149 6.63604 -3.318403 1.003789 -0.865183
O 2.08719 6.32948 6.35854 0.506764 0.797231 0.303843
O 2.5669 8.33227 7.89724 -0.863851 -0.695717 -0.36269
O 6.69053 10.6705 6.84161 -1.285748 -0.868797 1.028394
O 9.19705 6.50363 6.24255 -1.082437 2.068574 0.264289
O 12.0432 4.61605 5.10863 -0.048743 -0.738947 -0.042021
O 2.24511 10.8907 7.21755 -1.904169 -1.265695 -0.713488
O 0.8828 11.723 5.00794 0.771468 -1.717042 -0.621014
O 12.2262 9.64513 8.46074 2.509846 1.218417 0.343313
O 6.13351 0.85779 6.65942 1.192893 0.025804 -0.609872
O 8.74731 9.29455 6.50876 3.094961 -0.707102 -0.510092
O 10.7812 10.1613 4.80036 1.023732 0.632843 -0.303946
O 1.01891 1.99488 9.95584 -0.888499 -0.148715 -0.927532
O 5.0652 3.84465 8.63647 -1.298153 0.500492 -0.564029
O 6.48424 2.24583 10.1438 -0.933427 -2.366377 0.212694
O 10.7461 1.80687 10.3842 0.37902 0.157973 -0.449717
O 7.77721 4.29403 11.5151 0.281514 0.358224 0.313054
O 2.40681 4.4301 10.3432 -0.089615 0.122382 -0.140817
O 1.20333 6.79764 9.99634 -0.763484 0.494412 0.019966
O 0.73989 9.09578 11.0494 0.410131 1.653588 -0.050951
O 6.33983 6.41824 8.30378 0.860053 -0.318848 -0.382221
O 8.81144 6.18463 9.99161 1.076077 -3.156949 -2.731342
O 11.248 7.61281 12.2275 -1.442334 -0.249069 0.013753
O 11.3059 5.6444 8.99123 -0.024312 -0.594155 -0.261833
O 3.14391 0.93242 11.0325 -0.475131 -0.430617 -0.038733
O 4.66521 9.37265 0.99179 0.443503 1.494208 0.039864
O 3.76516 0.93657 8.07304 -1.177412 -0.001702 -0.034767
O 6.42526 11.9172 10.5577 -0.741528 -0.503777 0.303997
O 8.68404 8.67516 11.5285 1.056174 -0.381037 1.289882
O 12.0389 7.57407 6.67425 0.357259 -0.949576 -0.77444
O 9.63007 9.84554 9.01723 -0.332614 -0.666732 -2.08917
O 9.12285 12.1947 9.90806 -0.794161 -1.855951 -1.47943
Na 10.9504 5.5083 6.91942 0.03816 -0.389213 -0.174002
Na 10.7126 7.79863 4.76297 -0.079281 -0.065756 -0.408811
Cl 0.46204 1.86391 6.9247 0.069618 0.22604 -0.141729
Cl 5.07254 9.42712 9.54263 0.484582 -0.412785 -0.72011
184
energy=-999.55863795 config_type=nep2xyz pbc="T T T" virial="-1.5192880501780834 1.3961327655648021 9.248986864900708 1.3961327655648021 -13.758179152059913 -5.574749088739824 9.248986864900708 -5.574749088739824 -12.03225583644314" Lattice="12.4 0.0 0.0 0.0 12.4 0.0 0.0 0.0 12.4" volume=1906.6240000000003 Properties=species:S:1:pos:R:3:force:R:3
H 12.148 3.0729 4.43976 -0.059513 1.268234 0.784876
H 2.25936 5.10024 3.61909 1.015834 0.27229 1.60153
H 8.77954 0.31463 3.00617 -0.825515 0.671611 -0.779435
H 8.27787 11.2418 3.57121 0.02307 0.402636 -0.319493
H 10.9591 4.1219 4.80564 0.507631 -0.043861 -0.213362
H 1.50669 5.35808 10.6704 -0.808768 0.654402 -0.709672
H 0.16994 11.7833 2.15855 -0.285358 -0.135891 -0.228235
H 1.48788 11.7677 2.97236 1.176326 -1.420759 0.688009
H 3.6438 0.49014 7.56141 0.511774 -0.396218 0.150678
H 0.77774 4.49509 3.37216 0.329113 0.353717 0.53622
H 0.01135 1.30131 7.65851 0.497647 -0.039373 -0.290796
H 12.2512 2.7442 8.27473 0.835142 -0.947741 0.360785
H 9.91584 4.41967 0.4186 0.161747 -0.259409 -0.16617
H 9.75079 5.98674 0.42746 0.004009 -0.854057 0.085107
H 2.27006 9.76647 2.74497 0.489982 0.937766 0.580136
H 6.93888 8.16961 8.8002 0.478603 1.21188 -0.78441
H 7.07883 9.57424 7.88817 -1.203983 0.338298 -0.321992
H 4.78974 11.7073 7.48863 0.602848 -0.312656 -0.505939
H 3.49556 10.7451 3.10368 0.059626 -0.145778 -0.15443
H 6.45213 3.28339 6.32423 -0.384638 0.500065 -1.611646
H 6.88024 1.80228 6.88681 0.086065 0.236062 -0.322772
H 11.8969 6.58702 10.6669 0.451937 -0.300989 -0.900693
H 11.0064 10.0579 11.4067 -0.323243 -0.109922 0.312502
H 2.34224 4.79611 11.8834 0.854916 0.87082 -1.154451
H 1.96077 1.98664 4.93202 -1.047193 0.171003 -0.97054
H 0.9366 1.14367 3.88392 0.2945 0.198485 0.119473
H 2.51772 11.2778 6.56102 0.630193 -0.001496 0.441233
H 1.92339 10.7198 5.25829 0.020096 -0.128755 -0.319657
H 5.54176 7.70475 3.04009 -0.035971 -0.523822 -0.090634
H 2.93719 8.01739 9.96283 -0.411091 0.172757 -0.488878
H 3.13274 6.63914 10.7101 -0.238511 0.011278 -0.305326
H 5.25539 0.78168 11.4572 1.526941 0.734549 -0.346566
H 7.36623 0.59244 10.6146 0.050163 -0.114176 -0.187165
H 10.5229 7.91352 12.1489 -0.768651 2.042549 -0.174104
H 11.5983 7.04269 0.41729 0.56434 -0.168569 0.26665
H 8.88133 4.63243 6.05977 1.25522 -0.446323 -1.251694
H 2.2939 3.09672 0.64941 0.046921 0.207137 -0.161442
H 8.91863 0.63006 10.5354 0.544365 0.23337 0.040355
H 0.90945 1.20071 11.0875 -0.163868 0.038693 0.285427
H 6.10766 1.99957 10.7488 -0.400164 -0.563233 0.55615
H 9.77361 10.1546 6.62699 -0.308087 1.458924 -0.383441
H 2.38753 4.40976 1.48063 0.235319 -0.311969 -0.60001
H 3.54029 11.7567 9.41643 -0.119321 0.881057 1.189335
H 2.79521 0.33534 10.5546 0.91891 -1.699478 -0.98563
H 7.64814 9.61381 10.0719 -0.027177 -0.421068 0.257609
H 0.64342 11.2442 10.9283 0.257905 0.068405 0.448122
H 7.89101 11.0396 10.4137 -0.12315 -0.787605 1.262128
H 6.60749 4.89924 4.32373 0.784389 0.234994 -0.850494
H 6.1953 5.51589 5.74759 0.224782 -0.702356 -0.596859
H 12.2026 7.55416 2.26979 0.188831 0.010576 0.205198
H 0.80921 6.36844 2.12049 0.049676 -0.136356 -0.069038
H 3.44086 2.52134 5.95919 -0.212873 0.37475 -0.653577
H 9.34548 8.0507 5.4668 0.477225 -0.512521 -0.453828
H 0.80263 10.1411 12.1531 0.389441 0.485585 -0.149208
H 0.33914 1.83165 0.55407 0.40497 -0.036613 0.20244
H 8.52601 8.07804 4.26977 -0.805749 0.18332 -0.829135
H 1.52492 1.08149 1.33358 -0.743404 0.137502 -0.254994
H 11.9797 5.79603 9.2834 -0.378913 -0.416661 -0.25887
H 0.94381 7.88803 9.35829 -0.68735 -0.871845 0.388816
H 9.43935 10.092 11.4779 -2.666203 0.485747 -1.359688
H 10.4946 11.3849 2.3285 0.040842 -0.435522 -0.572709
H 3.07802 5.72219 5.75287 0.709112 -0.751659 -1.081855
H 10.685 10.6415 0.88663 0.49249 0.271167 1.031255
H 8.74363 0.11051 6.96306 0.345192 -0.409774 -0.726514
H 4.60041 7.49544 1.84523 0.213163 -0.094268 0.235069
H 11.9184 5.20542 6.29232 -0.145664 -1.358984 -1.732405
H 12.1501 6.74291 6.61348 -0.153657 -0.035668 -0.367138
H 8.22406 3.53296 7.29804 -1.453977 -1.594444 -0.034105
H 8.25133 5.0453 7.47985 -0.907223 0.541378 0.539904
H 9.40532 5.77973 5.11624 -0.126975 -1.383998 -0.429853
H 4.40099 5.1192 4.85008 -1.10687 0.956606 0.266858
H 9.05024 9.10077 7.59819 -0.113279 0.125768 0.108443
H 5.38359 10.5949 2.91614 0.282703 0.17854 0.21357
H 4.7575 11.0905 1.58152 0.126141 0.282412 -0.772155
H 10.684 3.43622 9.73904 0.700991 -0.298273 0.466788
H 9.68624 11.8652 5.01935 -0.042642 0.187575 0.026247
H 10.2148 4.17287 8.5402 1.117481 -0.18909 -0.272879
H 10.7687 12.2258 6.20252 -0.125247 -0.324562 -0.687411
H 3.9775 7.95872 11.9448 -0.241023 1.53917 1.30251
H 3.65118 2.85359 8.14999 -0.454656 0.02961 0.020008
H 11.4562 8.68484 6.72718 0.642546 -0.439125 0.339312
H 4.36368 11.3938 11.4925 -1.096492 0.332092 -0.70472
H 2.15 2.32338 7.80131 0.861371 -0.426691 0.210753
H 1.30787 9.34607 9.87413 -0.163103 -1.013251 -0.856582
H 6.48855 6.43023 7.86202 -0.331095 0.209346 0.971908
H 12.1999 8.63841 5.44001 0.501543 -0.392476 -0.138077
H 6.58431 6.28848 10.1815 -0.525255 0.147663 -0.651704
H 4.97269 4.315 8.98949 0.049444 -0.196934 0.327617
H 5.17833 6.79752 9.64257 -0.409495 0.400793 0.133702
H 5.79163 11.0195 11.7798 1.235087 -0.294598 -0.12308
H 4.50774 9.34715 0.1669 -0.17363 -0.120116 -0.017962
H 8.85976 4.40915 3.76802 -1.394248 -0.318597 0.066215
H 2.46596 9.27273 0.6351 0.719826 -0.748627 -0.071928
H 1.15281 8.7253 1.31295 0.093097 -0.6945 -0.179981
H 0.42939 11.8011 6.537 -0.594695 1.093176 -0.849437
H 7.88981 0.37628 8.27025 0.310046 0.060721 0.781055
H 0.33743 0.81888 5.65052 -0.559564 -0.741987 0.720202
H 3.16714 3.70883 4.90981 -0.124286 0.254478 0.194334
H 7.9428 4.98129 12.0086 0.43492 0.175181 -0.341637
H 3.57 4.61313 9.62833 0.345609 -0.13199 -0.297482
H 10.7706 8.27584 3.84708 0.498472 0.436136 -0.47171
H 6.50603 4.79194 12.3074 -1.257418 -0.094038 0.029484
H 6.62403 3.06921 9.03701 0.114986 -0.510437 -1.128638
H 8.64243 4.74605 2.26954 -1.170936 -0.890702 0.79275
H 3.25852 9.16958 4.50448 0.276225 -1.358033 1.503066
H 3.4038 7.60502 4.98277 0.278856 0.102018 -0.430938
H 6.79078 3.87289 10.3623 -1.398287 -0.765878 -0.109531
H 4.67893 0.60439 3.00641 0.090422 0.161882 0.071494
H 8.82378 2.30398 2.46492 0.245705 0.573503 0.107434
H 6.15238 10.4358 6.05327 0.159817 0.705981 1.299677
H 9.17963 1.66195 1.10816 -0.120833 -0.077545 -0.022977
H 6.78232 11.5951 7.04261 -0.034736 -0.693149 -0.409444
H 7.4129 6.95873 6.71308 0.7159 1.661635 -0.352545
H 4.34351 2.03898 3.68446 0.107581 -0.730999 -0.332307
H 11.4118 9.52911 3.04072 0.009334 -0.694652 0.102636
H 0.86045 1.0551 9.57335 -0.66192 1.258778 -1.961742
H 1.32999 5.83472 7.61936 0.891827 0.220922 -0.470767
H 5.17242 5.42414 1.58298 -0.046748 -2.083667 -0.941174
H 4.3548 4.1438 0.8402 0.136213 0.625369 0.265017
H 2.79223 5.46264 8.12352 0.38849 0.256567 -0.246682
O 9.0169 11.8639 3.35582 1.236698 -1.371389 0.978217
O 1.53917 4.99899 3.01887 -1.393905 -0.195687 -2.497539
O 0.89601 12.3394 2.52021 -0.642859 1.410753 -0.33776
O 0.50495 1.96225 8.20635 -1.373042 1.331293 -0.272725
O 9.32021 5.12302 0.71907 0.076425 0.821976 -0.195911
O 2.69598 10.2926 3.50011 -1.627374 -0.936047 0.002509
O 7.5344 8.88489 8.39383 0.252066 -1.541181 1.133006
O 6.54289 2.70747 7.06522 0.398822 -0.747328 1.727573
O 2.40233 5.3873 11.0126 0.038484 -1.81803 1.355266
O 0.09377 6.32715 9.89862 -0.233303 0.698988 1.153212
O 10.2042 9.87439 11.9564 3.239821 -0.666744 1.049162
O 0.9893 1.72 4.68321 -0.064769 -0.401638 -0.125911
O 1.75054 10.7925 6.20786 -0.300785 -0.171859 0.115464
O 5.06376 6.99515 2.56347 -0.194062 0.64964 -0.463792
O 3.61439 7.43244 10.3365 1.352272 -0.119372 0.76229
O 6.15959 1.2129 11.3906 -1.210115 -0.149655 0.00151
O 10.9458 7.07902 12.089 0.106767 -1.842486 -0.212041
O 8.15488 0.3 10.0482 -0.538217 -0.102032 0.09083
O 2.76407 3.98999 0.64306 -1.09877 -0.376164 1.463473
O 5.24852 4.51161 1.0848 0.692762 1.639029 1.183605
O 3.56522 12.0743 10.3759 -0.821464 0.775096 -0.70986
O 7.73624 10.1425 10.8938 0.181207 1.577207 -1.469611
O 1.49735 8.64464 9.15991 0.57322 1.97265 0.95296
O 0.59187 10.3076 11.2064 -0.678168 -0.30661 -0.670376
O 6.02074 4.79003 5.06351 -1.009463 0.088035 1.291057
O 3.84927 11.9182 7.50991 -1.761453 0.745071 0.450209
O 0.32826 7.0513 1.60041 -0.166704 0.342948 0.330695
O 9.24391 7.52532 4.61442 0.663671 0.577015 1.736615
O 1.31623 1.7738 0.65942 0.052479 0.12741 -0.216492
O 3.41452 5.43384 4.833 0.505341 -0.161208 1.358004
O 11.1669 10.9434 1.74244 -0.757969 0.006462 0.144574
O 12.1006 5.82703 6.95815 0.284713 0.975621 2.256933
O 8.76066 4.2386 7.61515 1.306201 1.15871 0.541378
O 9.33492 4.76139 5.16206 0.159911 2.183189 1.16101
O 6.87742 6.24593 6.99367 -0.057404 -1.715817 -0.692308
O 11.0728 3.89756 8.97287 -1.420375 0.245812 -0.144125
O 9.84728 11.852 5.98806 0.110001 -0.167518 0.493363
O 9.78812 9.26844 6.98235 0.634668 -1.753935 -0.125085
O 11.9278 4.043 4.61728 -0.35509 -1.305705 -0.401907
O 3.13723 2.12757 7.72493 -0.490084 0.238911 -0.582728
O 12.319 8.31381 6.36047 -2.023112 1.161234 -0.651816
O 6.11644 6.67315 9.38838 0.727488 -0.171899 0.897539
O 4.9497 11.1029 12.2144 0.124631 -0.6895 1.273152
O 1.6649 9.52409 1.12268 -1.044263 0.898099 0.540724
O 12.2144 0.1855 6.31071 1.158574 -0.18338 0.477124
O 3.22412 2.73492 4.99429 0.90905 -0.785814 1.129034
O 4.03733 4.46047 8.76572 -0.700236 0.101604 0.555253
O 7.84727 0.31195 7.30706 -0.958762 0.689324 0.043727
O 7.08077 4.95602 11.5371 0.840822 0.233002 0.028465
O 6.1426 3.24684 9.84207 1.440796 1.494524 0.954244
O 8.16454 4.25945 3.0445 1.674649 0.824002 -1.484239
O 3.47541 8.51511 5.30344 -0.557456 0.931055 -1.088369
O 6.13959 10.8122 6.99133 0.492271 -0.406008 -0.84599
O 8.54391 1.60863 1.85891 0.124012 0.119403 -0.22525
O 4.71287 11.2019 2.54543 0.880002 0.155234 0.119109
O 4.84922 1.56296 2.98021 0.066089 0.762139 0.261384
O 1.07582 0.59043 10.36 0.779332 -1.30581 2.158036
O 11.6219 8.66434 3.4939 -0.748524 0.239951 0.221209
O 3.96468 8.56143 0.41274 0.518595 -1.274334 -1.68957
O 2.30255 6.09514 7.57136 -1.189253 -0.072634 -0.378228
Na 1.91146 8.4797 6.999 0.907051 0.2336 0.184618
Na 6.60823 2.82359 2.15227 -0.521686 -0.091229 -0.22361
Cl 10.6405 2.15079 11.7226 -0.210997 0.109093 0.360031
Cl 7.15347 9.69439 4.16018 -0.482464 -0.220256 -0.129063
184
energy=-998.96800824 config_type=nep2xyz pbc="T T T" virial="-11.099719594472848 3.519368428981713 1.292101120179808 3.519368428981713 -12.190504843573047 -3.8448154019843233 1.292101120179808 -3.8448154019843233 -9.6894612783393" Lattice="12.4 0.0 0.0 0.0 12.4 0.0 0.0 0.0 12.4" volume=1906.6240000000003 Properties=species:S:1:pos:R:3:force:R:3
H 9.27753 12.0984 11.1428 -0.042687 -0.633387 1.036688
H 9.04822 11.4757 0.18921 0.108641 0.260474 -0.625523
H 0.26413 8.89972 3.62843 1.255743 1.461893 -0.149834
H 2.91419 11.9101 7.73286 -0.108927 -0.276815 0.495053
H 5.20533 1.53197 2.54403 0.129465 -0.116688 -0.305351
H 5.56499 1.21134 1.04983 -0.247108 0.802052 -1.821828
H 8.61248 1.91128 4.20253 -0.292334 0.245934 -0.548087
H 9.77773 2.6779 4.83732 1.387103 0.277781 0.02024
H 7.25696 11.7404 11.189 -0.314467 0.051178 0.088212
H 5.9859 11.0204 10.6652 0.023498 0.316991 0.127204
H 1.56668 6.51493 2.42001 -0.070612 -0.766805 0.225918
H 2.77073 9.81959 2.46504 -0.118636 0.30237 -0.238654
H 4.36791 9.82423 2.06882 0.333616 0.180669 -0.269124
H 0.21307 7.0122 2.82437 -0.705978 0.280063 0.125747
H 0.55516 3.16058 2.45806 -0.747425 1.077499 0.404611
H 0.03581 4.7008 2.41139 0.046188 -0.544776 0.505921
H 2.44178 2.3821 1.64367 -0.772737 -0.384986 0.793295
H 4.93241 2.56385 4.44938 -0.770442 -0.140182 -0.503995
H 5.28012 3.5485 3.37095 -0.551882 0.613123 -0.654568
H 5.61699 2.04107 7.2086 0.642088 -0.279339 0.658001
H 11.2548 3.61899 1.08222 0.364022 -0.142026 -0.368478
H 10.0536 3.58607 0.15073 -0.475938 0.209431 -0.087764
H 11.3023 0.87562 10.3638 0.363241 0.083465 -0.207933
H 10.955 1.55532 11.75 -0.182581 -0.204844 -0.487605
H 4.70332 3.33353 7.04297 -0.086983 -1.194937 -0.27981
H 7.88921 3.62312 12.3529 -0.730785 0.335666 -0.805301
H 8.32947 4.64708 1.06604 -0.457559 0.568923 0.040974
H 2.5425 2.68215 11.522 0.276649 0.045755 1.05582
H 3.72426 1.90176 12.1507 -0.193028 0.578049 0.490609
H 1.76814 11.463 3.17078 -0.718041 -1.651638 0.051052
H 0.93387 10.9423 1.95378 -0.259641 -0.797985 -0.167412
H 11.9649 7.90074 4.6396 -0.167474 0.883401 -0.735831
H 3.91276 6.15815 3.34841 -1.288612 1.885336 -0.341874
H 5.97726 11.2917 1.68501 -0.016375 1.806401 -0.587403
H 7.59509 8.16809 4.33798 -0.176415 0.147776 0.740795
H 6.35481 9.84066 1.07163 -0.057144 0.41346 -0.586312
H 6.77493 8.70016 3.1817 -0.66688 0.80671 -0.305454
H 9.54096 0.24811 2.0686 -0.158187 0.084975 -0.190956
H 10.6627 10.951 4.26 0.689651 -0.074534 -0.045486
H 5.65113 5.52554 3.99848 0.047884 0.347872 0.25066
H 0.59646 11.729 12.3159 0.289291 0.153461 -0.421079
H 9.97734 11.122 2.05324 -0.486127 -0.705282 0.546059
H 12.1965 11.2911 3.96147 -0.115867 -0.076075 -0.278736
H 4.25082 5.59111 8.12837 0.305441 -0.755483 -0.420092
H 11.8482 2.62628 5.51943 -0.194756 0.426954 -0.798754
H 0.87487 9.85903 5.41512 0.273607 -0.620396 0.695885
H 8.37901 2.33366 1.76213 0.307305 0.618987 -0.059132
H 9.01956 1.31219 6.23732 0.11802 0.700471 -1.593792
H 3.35183 5.69218 6.879 0.188181 -0.414804 -0.484776
H 7.3419 1.29723 2.26585 1.444262 0.342503 0.348828
H 9.71123 0.12492 7.11844 -0.845205 1.248139 -0.239296
H 11.6256 3.2266 3.96624 0.255348 0.234393 0.22663
H 8.03327 3.98026 5.45597 0.369403 0.804441 0.337006
H 9.09309 2.9985 7.98166 -0.903424 0.2295 0.56771
H 8.80952 5.18827 6.13785 0.504633 0.040328 -0.504326
H 8.00118 4.0233 7.66076 -0.526303 0.604379 -0.824932
H 4.22933 7.92165 11.8195 -1.171402 -0.63494 -0.992329
H 2.67388 7.39647 11.9204 0.282389 -0.118489 -0.827569
H 3.58779 7.93023 9.70705 -1.092169 0.43349 -1.964544
H 3.28727 9.08504 8.55728 0.071942 -0.885005 0.560711
H 3.22035 7.71606 3.15154 0.976187 -0.576344 -0.103505
H 7.30801 10.1153 5.92784 0.206462 -0.175052 0.035451
H 9.6286 9.13287 8.62462 -0.658347 -0.252379 -0.98079
H 8.20163 8.95096 6.51322 -0.439521 0.736836 -0.527161
H 10.3448 10.1075 7.68966 -1.504599 -1.092467 -0.958496
H 10.8872 8.30803 6.70902 0.071678 -0.070598 -0.122082
H 11.5343 6.86757 6.43913 -0.002783 2.058661 -0.4738
H 2.14981 0.0366 4.93605 0.158426 0.282823 0.149674
H 1.90759 1.05257 3.65536 0.295591 -1.422264 0.202111
H 4.159 9.56185 4.04741 -0.177363 -0.052039 -1.809052
H 4.66813 10.2118 5.35342 0.965346 1.510927 0.494324
H 2.37988 9.73793 5.51312 0.937595 -0.261228 -0.139432
H 7.46274 6.91552 2.10701 0.218075 -0.574422 -0.496703
H 6.99628 6.5576 0.64531 0.213999 -0.205442 0.690459
H 6.92385 0.48668 9.22735 -0.348045 -0.437098 1.003422
H 6.33361 5.48632 2.57549 -1.173198 -0.273432 0.030758
H 11.7175 11.3625 6.46818 0.279988 -0.146406 -2.17915
H 12.2018 10.5625 7.77116 0.556577 -0.471965 0.241222
H 2.06247 1.18112 6.98991 -0.614249 0.258904 0.006907
H 3.52202 1.06833 6.7091 1.045553 0.663352 -0.106098
H 1.9016 0.8941 11.7186 0.338466 0.606513 0.124418
H 3.01959 11.7306 9.32119 0.30212 -0.629637 -0.722891
H 6.6851 5.8651 5.56361 0.925256 0.153381 0.134867
H 6.24342 4.16155 10.5123 -0.317797 0.312762 0.080318
H 7.46925 3.30901 10.0298 -0.77595 0.598809 1.324849
H 10.6281 5.31583 7.13532 0.310686 -0.077132 -0.270012
H 11.9835 4.48837 11.5237 0.848195 0.318275 -0.724185
H 10.9903 4.53314 5.83683 0.202945 -0.815382 -0.580705
H 12.3736 1.75999 8.67692 0.088021 0.552397 -0.738381
H 0.67563 7.64678 11.754 -0.942126 0.874191 -0.274496
H 0.84461 6.82527 0.71396 -0.420743 -0.089896 0.381062
H 1.43774 10.5094 8.76396 -0.042256 -0.765421 0.726022
H 5.36598 5.93926 6.24739 -0.312865 0.440372 -0.314318
H 2.88251 2.84229 3.04724 -1.030298 -0.67981 -0.230059
H 2.13917 2.84775 9.27947 0.247857 0.842843 0.645546
H 1.56598 3.96826 10.2162 -0.988832 0.615978 0.400698
H 8.65629 8.32848 10.715 1.097564 0.192712 -0.526192
H 7.04544 9.5942 8.81159 -0.384516 -1.120803 0.166297
H 9.05261 9.74524 10.8478 0.57842 0.416091 -0.017283
H 0.72151 5.65941 11.2938 -0.643313 -0.60877 -0.041662
H 0.28575 5.07735 7.52282 0.218944 0.005349 0.322147
H 12.3762 9.64832 11.8955 -0.940747 0.176961 -0.242833
H 11.1424 9.001 10.9808 -0.038024 0.063421 0.5895
H 0.00753 5.24819 9.01879 0.160954 0.380185 0.337809
H 2.49411 6.56567 5.03842 -0.101928 -0.040999 0.762949
H 1.29776 0.27798 10.361 -0.162587 0.365954 0.811603
H 0.38114 9.55245 9.7286 0.632303 0.544895 -0.18054
H 3.9941 4.42003 10.1263 0.85442 0.798375 -0.377888
H 4.52885 5.80434 10.5653 -0.215759 0.598826 0.389778
H 6.3114 8.49497 9.68181 0.326014 0.219418 0.176034
H 7.6886 0.83518 7.907 -0.751697 -0.002415 0.254158
H 6.105 11.6943 7.4068 1.171285 0.917713 0.305892
H 4.766 11.1619 7.62869 0.999976 -1.050238 -0.641794
H 8.93166 9.01897 3.04996 0.305978 0.918094 -0.510997
H 11.6017 11.5789 0.64907 0.910116 -0.4025 0.062284
H 10.5343 9.14188 2.97134 -2.218009 1.248037 -0.431021
H 1.59929 5.51762 5.75746 0.242985 0.223405 0.296378
H 5.42782 0.91774 11.336 0.363676 -1.352776 -0.409516
H 12.2695 0.21296 8.302 -0.200439 0.531021 0.34247
H 5.93891 2.30961 11.4002 1.70639 2.221419 -1.055794
O 8.75654 11.3917 11.6323 0.310931 0.506931 -0.383085
O 3.08248 11.2154 8.47604 -0.087105 0.450559 0.974674
O 5.69343 0.92145 1.93677 0.48157 -0.893967 2.189015
O 8.86629 2.39866 5.00575 -2.09227 -0.539096 0.419471
O 6.35215 11.9174 10.776 0.231398 -0.690193 -0.094983
O 0.61323 6.31917 2.24247 0.936005 -0.04401 -0.234724
O 3.62329 9.31567 2.42724 -0.262974 -0.618731 0.418226
O 12.1442 3.76265 2.62183 1.117832 -0.35703 -1.023724
O 2.09264 2.3828 2.60892 1.668309 0.963166 -0.680322
O 4.64328 2.80885 3.53382 0.859919 -0.525192 1.482339
O 3.09685 6.78143 3.45057 0.53161 -1.229023 0.136947
O 4.80893 2.35892 6.8092 -0.742137 1.421648 -0.408532
O 11.0267 3.54462 0.12163 0.42107 -0.254746 0.374269
O 10.704 0.84209 11.1227 -0.299906 0.207019 0.602972
O 8.45835 3.76104 0.71251 0.877942 -0.889182 0.54356
O 12.0478 8.1933 3.66373 -1.375569 -1.607648 0.932103
O 2.83101 2.26802 0.00807 -0.12239 -0.23231 -1.290213
O 1.33628 10.5682 2.78032 0.370665 0.724986 -0.253286
O 6.11361 10.379 1.84182 -0.138481 -1.978971 1.461727
O 7.51282 8.13352 3.37915 0.665219 -0.855725 -0.752404
O 10.0242 11.9565 1.5722 0.208647 0.650175 -0.67428
O 0.10139 11.1502 0.5306 -1.293852 0.211945 0.16221
O 11.5315 11.1712 4.65837 -0.396345 0.048027 0.393194
O 5.51594 5.18091 3.09359 0.871098 0.235302 -0.084982
O 8.31475 1.62934 2.42795 -1.818253 -1.260036 -0.081691
O 4.17532 5.23629 7.20691 -0.054132 0.560377 1.102241
O 11.2194 3.01307 4.85377 0.407303 -0.059626 0.649228
O 8.36332 3.52792 8.38859 1.295296 -0.938826 0.451789
O 7.92631 4.88243 5.88614 -0.457853 -1.354677 -0.17114
O 3.45793 7.50989 11.2962 1.61851 0.603275 1.11315
O 3.36024 8.10122 8.6722 0.994916 0.68025 1.505437
O 7.51819 9.1767 5.82413 0.413272 -0.518013 0.750146
O 9.61512 9.36078 7.64094 1.902579 1.158064 1.859852
O 11.6651 7.88007 6.28713 -0.139319 -1.919864 0.470623
O 4.19458 9.48977 4.99178 -0.670411 -1.206285 1.842116
O 1.92744 0.08274 3.99539 0.198617 2.704324 0.276101
O 1.58057 9.37898 5.912 -1.002507 1.103186 -0.723863
O 9.09194 0.90585 7.10035 1.009162 -1.903368 2.004066
O 7.37381 6.14812 1.46414 -0.098455 1.118325 0.007374
O 11.5794 11.2129 7.38485 -0.890436 0.723366 1.902856
O 2.7338 0.51371 6.76224 -0.532316 0.067258 -0.679146
O 5.91482 6.46004 5.5941 -0.869143 -0.317263 0.325672
O 6.92299 3.55205 10.8624 1.253992 -0.681973 -1.790592
O 10.6538 5.37958 6.16066 -0.655163 0.606068 0.984347
O 0.261 4.87541 10.8636 -0.236185 -0.089971 0.418773
O 2.35856 3.43337 10.049 0.675994 -1.317167 -0.927819
O 1.17472 6.96478 12.2032 0.905963 -0.658626 -0.130904
O 0.76907 9.78405 8.83245 -0.426626 -0.147988 -0.332209
O 6.74295 8.65228 8.81977 0.236045 0.820955 -0.165564
O 9.42085 8.91656 10.4547 -1.483674 -0.232725 0.596216
O 12.0961 8.98761 11.2117 0.799092 0.021505 -0.409685
O 0.1317 5.7657 8.19751 -0.161748 -0.042071 -0.103052
O 1.64844 0.08004 11.2619 -0.177485 -0.876563 -1.064343
O 4.7648 5.06137 10.0014 -0.915737 -1.243944 0.009627
O 6.76871 0.74958 8.32527 0.737033 0.281568 -1.707258
O 5.63028 10.8979 7.15265 -2.393902 0.203894 0.591848
O 9.64451 9.6773 2.77552 2.325057 -2.280569 1.170677
O 2.15397 6.29578 5.96105 -0.283981 -0.116973 -1.270641
O 5.36859 1.72153 11.8436 -2.16105 -1.174013 1.483192
O 0.11733 0.87252 9.0035 0.08604 -1.398344 0.456222
Na 1.39338 7.90653 7.5507 -0.431931 -0.384451 -0.039001
Na 5.49448 8.51608 7.0199 -0.058661 -0.32209 -0.548854
Cl 0.79191 3.02529 7.00785 0.363219 -0.157139 0.114638
Cl 6.24358 8.57558 11.8583 0.240157 -0.240643 -0.122858
184
energy=-997.75082096 config_type=nep2xyz pbc="T T T" virial="2.5466451741465024 9.749771548164414 5.368113823301132 9.749771548164414 -3.4618428085526283 0.4808042288366408 5.368113823301132 0.4808042288366408 -11.73843962452876" Lattice="12.4 0.0 0.0 0.0 12.4 0.0 0.0 0.0 12.4" volume=1906.6240000000003 Properties=species:S:1:pos:R:3:force:R:3
H 5.24427 11.8789 1.09334 0.6473 -0.280429 0.513516
H 11.927 4.22384 4.64043 -0.159962 0.241151 -0.201764
H 2.57208 2.25243 0.15978 -0.082414 0.476496 -1.071241
H 11.7886 4.75388 12.2654 -0.130777 -0.062239 -1.121787
H 3.4185 0.95184 0.65562 0.054844 0.812579 0.020237
H 5.41545 0.77718 0.07044 0.009592 -0.37897 0.576849
H 4.55933 9.97234 2.15605 0.655336 1.099772 0.359118
H 7.66735 6.41083 6.38324 -0.870125 0.306812 0.32155
H 6.1286 9.76207 1.87001 -1.210529 1.563011 0.403145
H 7.88955 5.20176 7.41584 -0.376628 0.338292 -0.312447
H 7.81579 0.9742 0.86938 0.251261 1.657115 -0.700141
H 7.59641 0.17159 2.17137 0.334754 -0.570985 -1.095869
H 5.30328 2.12122 6.10671 0.48082 0.11114 0.117861
H 8.63759 4.40161 5.09898 -0.61145 -1.361967 -0.417108
H 5.59536 3.17698 12.0961 -0.227567 0.176819 0.18516
H 7.97126 3.05843 12.1234 1.400001 -0.559839 0.774143
H 8.75674 4.06805 1.29803 -0.104207 -0.709168 -0.757526
H 9.40552 12.3688 10.3888 0.3402 -0.670266 0.481685
H 8.61761 3.99178 3.61731 -0.131238 -0.058431 -0.396181
H 10.9798 11.8271 10.3856 -0.045999 -0.383362 0.832206
H 4.11986 1.61793 6.84365 0.157815 0.222595 0.545946
H 0.50204 3.11819 4.2833 -0.257107 0.109168 -0.652045
H 2.11443 10.201 2.15101 1.012914 0.027362 -0.255384
H 2.83395 8.92197 1.52735 -0.123987 -0.103127 -0.338203
H 11.653 4.39174 2.46469 0.386179 -0.076601 -0.07885
H 3.17022 6.84585 0.52799 -0.485921 1.2078 0.756098
H 2.59226 7.8226 12.0086 0.189196 0.734436 -0.816708
H 5.297 7.04978 6.45103 -1.829351 -0.897487 -0.440079
H 6.06524 7.86786 7.43514 0.198037 0.276405 -0.152097
H 2.02345 8.62616 8.12691 -3.16515 0.568206 0.338549
H 7.325 8.84424 11.8057 -0.655118 -0.428005 -1.140733
H 1.26316 7.2583 1.21204 -0.381121 -0.091698 0.220739
H 9.529 3.18868 12.0449 0.265732 -0.271461 -0.519792
H 12.2543 6.4873 1.56063 -0.310819 -1.195117 0.213336
H 9.45198 7.42982 9.2418 0.816411 -0.838497 1.418678
H 10.1528 7.34048 10.6553 0.885457 0.637612 0.51691
H 10.3999 5.12165 1.94122 0.318908 -0.228785 -0.504776
H 7.39562 7.53858 1.20654 -0.033374 0.659527 -0.422839
H 6.34112 6.4533 1.4436 -2.113682 -1.015274 -0.842565
H 9.44247 11.0143 7.10389 1.061028 1.440848 0.126563
H 6.76488 2.53877 4.39548 -0.229652 -0.194594 0.290597
H 5.32524 2.38092 3.80739 0.340642 -0.577596 0.415842
H 6.68649 0.20364 4.11596 -0.518244 0.415158 0.245213
H 4.09709 4.44183 9.16189 1.310187 0.601547 0.453338
H 6.5675 4.59879 10.1015 -1.236429 0.552608 -0.184155
H 2.45229 4.52771 7.68575 0.717387 -0.810455 0.852142
H 1.88836 4.05287 6.22402 0.861335 0.31145 1.178976
H 3.63974 2.67768 2.05602 -0.237767 -0.481595 -0.059147
H 4.40548 3.92523 2.49497 0.416476 1.104923 -0.539994
H 8.23418 5.54732 1.7168 -0.280099 -0.057811 0.194891
H 0.39779 12.3047 4.5456 2.495784 0.097199 1.517331
H 11.3631 0.27855 4.38208 -0.386738 0.338323 -0.445125
H 0.27765 9.62237 8.89682 0.236293 -0.079301 -0.313963
H 2.948 6.11634 6.46516 -0.682774 -0.950866 -0.056006
H 10.6518 3.19907 8.36688 -0.106019 0.126417 -0.032853
H 11.1324 9.1186 3.85069 0.819928 -1.389288 0.689143
H 3.995 11.2395 6.87899 0.601817 -0.337948 0.60879
H 10.9945 10.6545 3.79903 0.555354 -0.05804 -0.28737
H 3.10959 7.81882 7.68079 1.713512 -3.547652 -3.180765
H 3.30479 3.14853 9.22582 0.384726 -1.245972 -0.764485
H 3.13714 7.48291 5.64428 0.538797 -0.684605 0.728692
H 6.76998 8.16863 4.88882 0.718236 0.287815 -0.233402
H 7.40895 7.78686 3.49226 0.18584 1.186337 1.315316
H 3.7603 10.2404 7.9998 -0.75308 -1.148553 0.47387
H 0.11707 7.88238 3.29126 -0.436275 -0.648958 0.80206
H 0.56254 5.42781 5.92729 1.293952 -0.890325 1.673327
H 0.31346 8.17688 4.81573 1.356196 0.959256 0.756857
H 6.40502 11.1575 3.44739 0.865768 1.31667 0.621104
H 1.48543 0.34386 1.38752 0.455137 0.47296 0.237813
H 10.2544 0.26579 7.94403 0.537877 -0.78466 -0.715751
H 0.5766 12.0535 2.50427 0.361891 -0.057762 -1.178996
H 10.4522 0.67606 6.4318 -0.052642 -1.072176 0.321015
H 5.36979 5.21999 10.9664 0.195771 -0.399615 -1.374715
H 3.17293 3.07819 4.4228 -1.150829 -0.202062 0.158951
H 2.58545 1.75967 5.01323 -0.617535 1.668754 0.196095
H 7.48874 11.8383 11.9193 -0.060322 0.094636 1.428392
H 6.87004 9.63648 9.42294 -0.537468 -0.135511 -0.324665
H 7.22134 11.3958 10.4992 -0.143538 -0.404963 -0.875492
H 0.62791 11.4601 0.16482 -0.636028 -0.67183 -0.344228
H 0.10374 10.185 11.6552 0.122371 0.963208 0.47073
H 11.141 2.23215 4.6648 0.310855 0.518558 -0.284015
H 9.63228 2.21182 4.82227 0.447489 -0.555959 0.227364
H 12.3051 6.25916 5.0272 -0.833131 2.25773 -2.117003
H 1.44826 11.6525 10.4281 -0.226355 0.242495 -0.983588
H 12.1244 8.16791 12.38713 0.312307 -0.464226 0.61122
H 10.8443 8.93923 12.1345 -0.635865 0.831327 0.26425
H 1.34661 11.6126 8.76741 -0.185819 0.203749 0.346445
H 6.11064 2.24009 10.9851 0.178936 0.057098 -0.411354
H 2.59356 9.84848 4.92667 -0.275402 -0.408597 0.154361
H 2.65544 0.91706 9.40887 1.340968 0.297313 0.182747
H 6.93161 0.93195 9.44336 0.415695 -0.887086 0.53048
H 10.6577 2.03626 10.2005 0.793368 -1.278618 0.21758
H 10.9707 3.67157 10.3874 0.184009 -1.361293 0.363141
H 11.3424 3.27758 6.95697 -0.655491 -0.030081 0.500098
H 2.96546 4.31922 12.0943 -1.172483 -0.797839 -1.832588
H 2.6535 3.91614 10.4411 -0.465003 0.821339 2.390971
H 11.2584 8.45699 8.04334 0.648746 -0.060466 0.398282
H 0.02358 8.45394 9.86545 0.354638 -0.053439 -0.959005
H 0.57594 4.19912 11.5733 1.958204 -0.60728 -0.465564
H 9.8753 8.8023 7.37318 0.178971 -0.074059 0.068114
H 8.43913 9.44056 0.32626 -0.277009 -0.168939 0.405353
H 4.19466 0.98554 8.94791 -0.701692 0.560413 0.377449
H 5.5763 7.90211 10.3373 -0.047799 -0.265923 0.25336
H 12.21 5.26394 9.8567 -0.403776 0.323451 -1.039541
H 0.51776 5.034 8.49018 -0.514973 0.358058 -0.038258
H 7.05964 7.27979 10.1541 -0.230715 -0.16043 0.01644
H 8.63969 5.30997 10.5092 0.652152 0.118012 -0.387485
H 8.77079 3.74612 10.0091 -0.233612 1.006522 0.553447
H 2.72233 8.86415 3.78012 -0.36052 0.124259 0.189689
H 3.52646 8.21744 9.81393 0.233279 -0.72891 0.755657
H 3.99641 8.97216 11.0229 0.02046 0.037732 0.178902
H 4.10285 11.262 11.7771 -0.044583 0.226043 -0.791045
H 3.52438 11.1029 10.2403 0.02336 0.237269 0.711128
H 6.0978 10.7061 8.46732 -0.21391 -0.496412 0.081992
H 8.19482 10.2384 7.61524 0.341296 0.177314 -0.552006
H 10.1932 9.79678 1.55678 0.244009 0.027461 1.168526
H 6.24103 1.75111 8.39513 -1.429266 0.225053 -1.833147
H 12.1161 11.5136 7.18158 0.236546 -0.199016 0.689684
H 1.12261 11.2155 6.6915 1.064691 -0.004927 -0.578366
H 9.64772 11.0394 0.76702 0.221588 -1.482514 -0.101886
O 2.84178 1.72882 0.91164 -0.057588 -1.086401 0.97392
O 7.84721 0.0971 1.20343 -0.195901 -1.269827 1.917063
O 8.2718 5.73614 6.70333 1.155906 -0.779966 -0.000954
O 5.45613 10.4508 2.21754 0.869864 -2.304494 -0.869205
O 8.836 2.86748 0.22779 -1.937309 0.25179 -0.18006
O 10.3262 0.0449 10.0626 -0.326707 1.340648 -1.270705
O 11.9969 3.44169 4.03428 1.162103 -0.525818 0.387863
O 2.95507 9.67775 2.13523 -0.678267 0.257527 0.550005
O 2.59416 7.69667 0.56644 1.097567 -2.587859 -0.299909
O 4.94441 2.10799 7.02402 -0.440472 -0.451819 -0.678901
O 6.08537 7.56212 6.51668 1.776112 0.677742 0.505332
O 2.92345 8.49083 8.24692 1.712629 3.129142 3.191252
O 0.39727 7.264 1.70592 0.237305 1.593834 -0.09381
O 11.3878 5.01441 1.76234 -0.560495 0.108629 -0.015398
O 4.83912 0.06892 0.44997 -0.795404 0.5005 -1.035779
O 9.53766 6.88658 10.099 -1.572926 0.121241 -1.776911
O 7.11009 6.8282 1.80883 2.106505 0.629415 1.301138
O 5.96634 1.96581 4.465 0.075039 0.78505 -0.816509
O 1.90694 4.7727 6.92596 -1.21856 -0.038557 -2.090784
O 3.19971 4.11363 9.08836 -1.060797 -0.031077 -0.454674
O 5.60518 4.95138 10.0231 0.907795 0.028586 1.316126
O 8.81825 4.79087 1.9444 0.269093 0.798198 1.262971
O 4.06291 3.11002 2.83505 -0.040849 -0.79533 1.007483
O 12.0697 12.1114 4.00961 -2.006395 -0.317039 -1.044577
O 6.81541 1.81933 9.1293 0.975499 0.744279 1.506392
O 3.57403 6.81337 6.26803 -0.027154 1.668473 -1.037818
O 4.44395 10.7925 7.65237 0.648242 1.474756 -0.841232
O 10.6485 9.82154 3.43836 -1.843496 1.720047 -0.709552
O 7.5199 8.41615 4.28936 -1.055241 -1.726822 -1.209377
O 12.0789 7.83476 4.21123 -0.268178 -0.648138 -1.580871
O 7.11307 11.7677 3.89259 -0.648176 -1.421876 -0.937602
O 1.10204 11.8981 1.65884 -0.632826 -0.212566 1.089063
O 10.4871 12.264 7.0527 -0.052447 2.324908 0.626933
O 2.39968 2.76699 4.99211 1.093885 -1.536565 -0.52
O 7.67175 12.0658 11.0167 0.425645 0.390953 -0.922884
O 0.26367 11.1647 11.6784 0.234412 -0.318936 -0.437661
O 12.107 5.49506 5.53061 -0.897426 -0.919831 0.874613
O 10.4352 1.62847 4.96897 -1.174765 -0.175661 0.256454
O 6.13609 2.38942 11.9453 0.112476 -0.266732 -0.009798
O 11.6283 8.61063 11.6895 0.503446 -0.561081 -0.913276
O 1.8156 11.9876 9.55387 0.097776 -0.28275 0.780079
O 12.1209 4.55233 11.3319 -1.692039 0.888429 2.024115
O 8.45583 3.60811 4.50551 0.546811 1.265776 0.69925
O 10.3255 2.92049 10.2547 -0.704227 2.109463 -0.664829
O 0.33742 8.65021 8.93867 -0.761448 0.509012 1.291251
O 10.4962 3.42071 7.42883 0.481593 -0.070668 -0.552779
O 2.29203 3.8822 11.442 1.201026 0.265811 0.488122
O 10.4093 8.07995 7.78088 -1.262644 -0.114946 -0.706469
O 3.50207 1.5083 9.41094 -0.602115 -0.729214 -0.282805
O 7.55158 8.99671 0.31515 0.211685 0.192448 0.974859
O 12.0879 5.39837 8.86408 0.901834 -0.361021 0.67939
O 6.54744 8.08956 10.2662 0.374579 0.472012 -0.238198
O 8.18494 4.47011 10.3674 -0.532864 -0.952559 -0.444273
O 3.92351 8.02342 10.7302 -0.417964 0.837831 -1.389778
O 2.3388 8.91848 4.68698 0.522706 -0.206912 -0.04254
O 3.78802 10.6505 11.0662 0.161147 -0.396318 0.136498
O 6.94792 10.4574 8.8912 0.497143 0.239419 -0.063695
O 8.89289 10.2725 6.89439 -1.760427 -1.963798 0.711648
O 9.81478 10.0478 0.71077 -0.129785 1.89358 -0.613959
O 0.5714 11.0867 7.46643 -1.510118 0.06054 -0.14431
Na 8.50491 10.2748 4.77666 0.093684 -0.003718 -0.444845
Na 10.473 5.79694 7.16014 0.245804 0.118252 0.444609
Cl 2.73639 11.8229 5.34749 -0.235768 0.609951 -0.121191
Cl 4.64515 5.16289 0.65614 -0.031802 0.334315 -0.003866
184
energy=-999.7553227 config_type=nep2xyz pbc="T T T" virial="-6.471132489406109 -0.31092871546775613 -3.5447991800898957 -0.31092871546775613 -9.82718242133181 3.4262492771700477 -3.5447991800898957 3.4262492771700477 -7.5996890085191176" Lattice="12.4 0.0 0.0 0.0 12.4 0.0 0.0 0.0 12.4" volume=1906.6240000000003 Properties=species:S:1:pos:R:3:force:R:3
H 0.77032 3.16793 2.33173 -0.184115 -0.652156 -0.064078
H 1.82909 0.1778 11.0473 0.124388 -0.091904 -0.216051
H 0.61614 5.12049 2.7639 -0.733813 1.259381 0.223689
H 1.09874 3.26662 3.92039 0.026888 -0.195474 -0.385881
H 3.25425 12.1637 11.7461 -0.674498 0.430486 -0.127045
H 3.96188 4.42333 1.37679 0.3922 -0.056593 0.067186
H 4.85534 4.52905 12.37889 -0.724959 -0.189174 0.287177
H 8.73101 8.73092 1.68387 0.191302 0.023687 0.511628
H 11.8221 9.084 12.3096 0.092046 0.719626 0.484951
H 9.92614 0.18097 0.67948 0.152855 0.116363 -0.027642
H 8.97298 0.6536 1.85189 1.853911 -0.246255 -0.746844
H 10.8922 4.67173 0.37627 0.257708 0.639168 -0.614189
H 2.45398 3.69634 12.1929 0.100475 -0.394152 -0.500371
H 2.84224 9.77809 4.6336 0.661988 2.478253 -1.8555
H 4.71647 3.10644 3.62422 0.008818 0.074527 0.790356
H 7.55625 3.04191 0.94528 -0.339354 -0.557377 1.056789
H 6.07658 2.37749 3.70136 0.140465 -0.756713 -0.239596
H 8.76833 3.65772 0.20671 -0.371175 0.123956 0.021846
H 10.5409 5.55309 3.44653 0.482406 0.145192 0.236954
H 1.09026 8.57514 4.0308 1.066442 -0.119156 0.518061
H 12.38042 5.9028 1.58082 -0.256433 0.594675 0.086926
H 9.53493 4.592 4.24509 0.021294 0.309728 -0.295877
H 2.58951 11.2893 2.78251 -1.089143 0.398626 -1.40338
H 11.1668 11.8912 5.07283 -0.454781 -1.300492 1.006277
H 1.62542 12.2104 0.73298 0.477618 0.000799 -0.566741
H 0.90318 10.8584 1.14678 0.093084 0.035757 -0.166515
H 4.06193 10.8195 3.09335 0.568198 0.193468 -0.207868
H 3.53187 10.1606 12.2324 -0.025487 -0.206061 -0.157394
H 3.5858 7.63806 4.72653 -0.142324 -0.34137 0.113538
H 4.85002 7.35408 3.98529 0.20146 -0.416292 -0.307265
H 8.09626 7.59326 3.94026 -0.45498 0.108188 -1.380478
H 12.1444 9.50379 2.26183 -1.453559 0.718806 -0.519273
H 10.6488 9.7978 1.51931 0.859489 0.08032 0.709017
H 8.60618 6.60588 2.91474 -0.099457 0.075922 -0.207592
H 6.51788 7.52487 2.36024 -1.222858 0.680274 0.00145
H 1.05627 2.99806 8.69549 -0.059488 -0.053209 -0.479907
H 2.1546 1.87184 8.53566 -0.171394 -0.043785 -0.765519
H 6.96378 2.49957 11.1966 0.288953 -0.240545 0.126914
H 2.06847 1.20817 5.45681 -1.212313 0.602424 0.837321
H 1.12121 1.86736 6.63274 0.370378 -0.271826 -0.307127
H 2.85916 4.10462 3.11392 0.227915 0.250278 0.047519
H 0.7767 5.88479 12.1079 -0.602293 0.049082 -0.092219
H 7.14119 1.42221 9.97271 -0.144999 0.312249 0.135693
H 5.5603 9.54399 2.6985 0.523704 1.487913 0.4454
H 6.1867 10.9963 2.38615 -0.04029 -0.108922 -0.141271
H 6.04249 5.31228 6.60152 -0.461898 0.543038 0.015505
H 9.53739 10.9355 6.33194 0.1579 -0.107429 -0.108345
H 6.77326 0.96209 2.14595 -0.089274 1.080533 0.087382
H 11.5319 4.50341 7.98604 -1.442582 -0.3027 0.418916
H 9.83818 0.79652 4.38354 0.722572 -0.006951 0.213508
H 10.0738 4.43753 1.64961 -0.286406 0.138132 0.9109
H 9.08706 1.99508 5.11074 0.214554 -0.477859 -0.087613
H 3.75808 5.36682 3.58436 0.225739 -0.814066 -0.151479
H 11.3843 8.29495 4.61959 1.744732 -0.143141 -1.005708
H 3.02974 9.0898 5.95931 -0.226693 0.280409 0.482674
H 4.25698 8.85305 7.78428 -0.241627 0.617677 -0.477926
H 1.30943 4.20457 10.1755 -0.380286 -0.1348 0.226359
H 5.85663 3.46999 7.24334 1.198245 0.302799 -0.980716
H 6.0867 3.31945 5.62978 0.108655 0.347886 0.407928
H 5.09344 6.6674 6.50671 0.156989 -0.642913 -0.505592
H 7.09187 7.08313 5.93159 -2.19357 -1.969613 1.242631
H 4.83765 9.67279 6.55431 0.220891 0.370494 0.440333
H 0.33562 7.34497 3.18007 0.2739 1.141126 0.565129
H 8.33166 3.578 6.22866 0.696898 0.12062 -0.941131
H 10.1265 9.02627 4.94337 0.242741 -0.944037 0.205794
H 9.90949 3.74904 6.36498 -0.941474 -0.129998 -0.693563
H 12.3363 0.6487 5.17085 -1.160944 -0.659505 -0.846869
H 3.78822 0.82036 7.26474 -0.011668 -0.068219 0.928657
H 3.8912 0.26457 8.87082 0.180426 0.645536 -1.541535
H 7.74298 1.24297 3.21251 1.264087 -0.03141 1.602507
H 7.47947 0.05727 8.11331 0.166343 -0.419201 -0.285289
H 4.43093 1.54641 5.12796 0.119036 0.055865 -0.273972
H 6.98144 9.30432 5.41843 -0.43789 0.345185 0.676779
H 6.10765 10.3069 4.65985 -0.148137 0.501914 -0.585899
H 3.92987 0.0919 5.08659 -0.071737 -1.08761 -0.745819
H 10.8836 10.1387 6.53312 -0.350462 0.312872 -0.141087
H 0.62384 9.49906 9.02282 0.981841 0.360357 0.468185
H 2.19556 9.41901 9.28029 0.777415 -0.646781 -0.463242
H 5.29423 7.55866 1.32355 0.007865 0.428096 0.056391
H 10.3763 7.35267 6.29001 0.230487 0.371432 -0.778195
H 10.2845 6.21827 7.41566 -0.761276 0.419077 -0.428975
H 11.6579 2.97362 0.96793 -1.140303 0.010704 0.15946
H 0.69686 2.80143 0.49047 -0.310646 -0.656904 0.11303
H 12.0024 6.85727 11.9198 -0.172609 -0.684587 0.19699
H 8.39442 12.38822 6.01936 -0.053739 0.088344 -0.05578
H 7.37549 11.261 6.46156 -0.252392 -0.474702 -0.606657
H 6.83991 4.65142 11.927 -0.352195 0.49015 0.133752
H 5.93099 6.0758 11.7628 0.343774 0.123087 0.220673
H 11.7055 12.3165 11.2275 0.5416 -0.340577 -0.367137
H 5.67584 2.86279 9.28504 0.217326 0.548421 -0.256462
H 11.8883 9.08262 10.6984 -0.176066 0.14948 0.113828
H 8.46704 5.4756 9.53066 -0.382297 1.348473 -0.280521
H 9.88419 4.34955 8.49296 0.93831 0.371268 -0.211301
H 11.4012 11.0501 12.2614 -0.21161 1.8065 -0.788851
H 4.43573 2.50525 8.48501 0.15172 0.353139 -0.248794
H 1.18603 5.40334 9.19433 -0.434435 -0.97043 0.121069
H 2.1647 2.26926 11.719 0.166581 -0.454304 -0.323947
H 2.89609 5.71746 12.32755 1.226326 -1.143241 0.55388
H 2.68755 6.73473 11.1754 -0.154392 -0.195311 0.25627
H 7.80151 7.27635 8.4182 -0.090159 -0.152736 1.128055
H 6.29761 8.07948 11.4802 -1.531063 -0.402905 0.746032
H 7.78696 7.47374 10.0715 0.344805 0.1606 -0.86207
H 8.49644 8.58506 12.0774 0.189455 -0.320191 -0.449548
H 8.52582 7.54966 6.00796 -0.867854 0.149376 -0.317772
H 8.03416 4.03043 9.86592 1.577586 0.267019 -0.848372
H 8.60095 9.41506 10.7959 -0.310404 -0.499295 -0.18327
H 2.2043 8.23586 0.05464 -0.044992 -2.951092 0.706262
H 0.79721 11.5188 9.53274 -0.491453 0.241166 0.297265
H 0.5976 0.57383 9.01035 -0.892875 -0.531286 1.405697
H 1.79456 9.22177 11.356 0.108251 -0.076789 0.41631
H 4.51729 10.4806 8.57722 0.018476 0.906026 0.145919
H 6.36875 11.8806 9.09585 -1.073995 -0.414407 -0.029808
H 4.778 7.8149 11.1074 -0.170822 0.169919 -0.189584
H 5.01064 10.7745 12.2509 0.384249 0.30185 0.195359
H 4.27447 10.8784 10.1101 0.595198 0.086078 0.104134
H 8.483 11.2895 9.76497 0.094069 0.638546 -0.063769
H 8.62813 10.057 0.85641 -0.470379 0.715142 0.212358
H 10.3617 9.59273 9.18176 -1.413151 1.484803 1.085947
H 9.86055 11.38 10.6551 -0.235161 0.087788 -0.023791
H 10.5273 8.4147 8.24083 0.420299 -0.020503 -0.080747
O 2.50238 0.44761 11.6951 0.144491 0.023862 0.251995
O 1.35603 3.58016 3.03121 -0.101957 0.509964 0.917892
O 3.9739 4.2422 0.41191 -0.117879 0.503675 -0.225612
O 9.93696 0.54809 1.5789 -1.862224 0.296827 0.842853
O 0.06385 5.96461 2.56999 0.766544 -1.919506 -0.284458
O 10.2844 4.04887 0.79505 0.14223 -0.415343 -0.358768
O 5.23455 2.47591 4.19187 -0.307967 1.130144 -0.048663
O 7.77556 3.56334 0.18344 0.71456 0.242067 -0.727992
O 9.6703 5.14451 3.43105 -0.466996 -0.379786 -0.193094
O 0.30662 8.30336 3.56705 -0.887514 -0.573963 -1.231655
O 10.489 8.09367 4.85831 -1.981788 0.976368 0.428961
O 11.5865 0.18905 4.59219 1.926638 2.030975 -0.334545
O 3.19562 11.0503 3.46048 0.357094 -0.252801 1.919148
O 4.13345 10.8403 11.8479 -0.367114 -0.099419 -0.059941
O 1.31488 11.6684 1.47517 0.278218 0.107405 0.582696
O 4.26542 6.92043 4.63395 -0.284155 0.633369 -0.080099
O 8.08982 7.44637 2.92084 0.398199 -0.254082 1.208625
O 11.5758 10.1657 1.71748 0.658925 -1.21682 0.028736
O 9.22334 9.33223 1.0823 -0.305337 -0.636284 -0.057351
O 6.95147 2.3621 10.2409 -0.145828 0.028366 -0.559379
O 1.13275 1.52064 5.69771 0.904346 -0.205893 -0.855211
O 5.68842 10.5022 3.08138 -0.438535 -2.112508 -0.514367
O 7.12231 1.73768 2.69168 -0.538382 -1.003148 -1.916572
O 1.27535 2.18302 8.18903 0.215397 -0.182008 1.045064
O 9.00579 1.042 4.80441 -1.142026 0.389009 -0.137734
O 3.78338 4.46953 3.14753 -0.215859 0.762611 -0.049857
O 2.56687 9.03039 5.11001 -0.735884 -2.621558 1.194215
O 4.1321 9.69183 7.25496 0.498187 -1.48142 -0.388741
O 12.1879 5.92637 12.2339 0.158783 0.542108 0.064103
O 6.48775 3.75564 6.42843 -1.303366 -0.698767 0.741976
O 5.81326 6.22581 6.98913 0.315088 -0.178617 0.087617
O 7.63963 7.72876 5.56081 3.300178 1.713994 -0.779664
O 9.18221 3.52451 5.68279 -0.00424 0.365304 1.530121
O 3.67418 1.03931 8.24523 -0.106365 -0.441785 0.551064
O 6.40166 10.1029 5.56796 0.121717 -0.874062 0.359113
O 3.8585 0.88624 5.59671 -0.447134 0.500568 0.882329
O 1.40382 9.88815 9.52155 -2.070832 0.09624 -0.161397
O 10.3368 10.5785 5.84974 0.083536 -0.286325 0.573417
O 9.88457 7.08342 7.08602 0.141347 -0.725343 1.51909
O 5.55717 7.87721 2.20804 1.354702 -0.678257 0.383578
O 0.04112 2.44834 1.17464 1.238076 0.206128 -0.303272
O 8.16638 11.748 6.74244 0.456047 0.699893 -0.002723
O 6.04689 5.12806 11.5388 -0.174241 -0.513423 -0.524143
O 11.0547 11.8774 11.7948 -0.402237 -1.51981 1.159516
O 11.831 8.56624 11.5094 -0.105695 -1.163385 -0.429159
O 10.5721 4.54498 7.74206 0.807635 -0.032282 -0.15842
O 8.80302 4.58152 9.49752 -1.268799 -2.229137 1.121979
O 5.07004 3.27741 8.59679 -0.104721 -0.572782 0.445696
O 0.78835 4.52449 9.40775 0.761536 1.123047 -0.082509
O 2.30586 6.39624 12.0192 -0.35974 1.055101 -0.896679
O 1.7756 3.1636 11.6895 0.271011 0.666182 0.589279
O 7.54671 6.89402 9.29023 -0.309403 -0.038351 -0.386278
O 5.42053 7.67852 11.8287 2.235859 0.608979 -0.19413
O 8.21614 8.54535 11.134 -0.027501 0.865688 0.412536
O 2.21162 9.12864 12.2389 -0.222207 3.260598 -0.861314
O 0.27079 12.3349 9.73947 1.645797 0.667095 -1.593553
O 7.18322 12.3783 9.03765 0.886184 0.653164 1.046063
O 4.68912 11.1788 9.26961 -0.314978 -0.304886 0.16301
O 9.29761 10.8384 10.0591 -0.100742 -0.968808 0.130731
O 11.0064 9.1796 8.64158 1.362502 -1.314906 -1.247141
Na 12.0297 0.19877 2.44501 -0.610522 0.129619 -0.123646
Na 5.38069 5.7805 9.17451 0.501301 -0.448474 0.013083
Cl 6.84873 11.718 0.70266 0.404485 0.051686 -0.153965
Cl 3.69993 7.70954 9.47335 -0.515136 -0.169224 -0.236255
184
energy=-1000.13863191 config_type=nep2xyz pbc="T T T" virial="-14.294723969661518 3.313209171986788 2.2664785043571047 3.313209171986788 -19.05814046642489 4.63689345241045 2.2664785043571047 4.63689345241045 -18.41316092533346" Lattice="12.4 0.0 0.0 0.0 12.4 0.0 0.0 0.0 12.4" volume=1906.6240000000003 Properties=species:S:1:pos:R:3:force:R:3
H 4.40898 1.62804 12.1486 -0.18478 -0.731587 -1.143141
H 3.05186 1.48681 1.3684 0.789288 0.590519 -0.246205
H 0.60508 1.92579 1.22008 -0.888745 0.43056 0.561613
H 5.04304 2.94919 0.23179 -0.64207 -0.692493 0.629696
H 5.33434 2.04899 2.56436 0.455932 -0.738797 0.517533
H 5.73834 0.78493 1.79579 0.140668 -0.038021 0.296343
H 3.9275 3.91898 2.68849 0.006906 -0.556099 0.771133
H 4.54164 0.31841 5.22046 -0.072385 0.248196 0.801827
H 6.78906 4.46321 0.79308 -0.383701 -0.095904 -0.023456
H 11.3908 1.88836 1.28785 -0.019347 0.238049 0.114436
H 9.83489 3.65428 3.9987 -2.048729 -0.820688 -0.370434
H 8.34471 3.77189 4.69554 0.340035 -0.080012 -0.424679
H 10.2134 2.25318 7.48115 0.437087 0.303791 -0.298257
H 10.054 0.34121 1.0141 -0.870466 1.330972 -0.040451
H 0.33461 4.13545 0.97317 -0.651266 -1.623192 0.293623
H 0.77138 5.23907 12.38954 -0.032247 -0.200177 0.823007
H 2.18578 5.21913 1.36198 0.293585 -0.836585 0.141277
H 12.0199 6.59828 2.32049 -0.411239 -0.270979 -0.061895
H 3.13348 5.9191 2.31094 0.320826 0.305498 0.484946
H 11.4604 8.05469 2.46409 -0.269389 -1.2283 0.66679
H 4.37878 7.49312 3.38275 0.334271 -0.370333 -0.433151
H 4.26669 3.88312 4.25891 -0.181598 -0.289907 -0.932719
H 7.30673 3.95218 6.64535 -0.146513 0.051682 0.26426
H 8.11216 4.48461 2.53724 -0.031832 0.761599 0.001288
H 7.25761 5.25607 5.61254 0.038545 -0.931943 0.936046
H 4.13681 6.8588 11.5102 -0.007974 0.367298 1.260149
H 8.26722 5.73744 1.48108 0.436157 -0.39031 -0.157389
H 9.82834 6.51577 1.67192 1.75155 0.420048 2.127036
H 1.93155 11.528 2.00566 -0.105249 -0.212187 0.06855
H 0.21399 9.8451 2.30537 0.830428 0.581534 0.161508
H 2.4861 10.3042 1.25268 -0.304921 -0.521343 0.426328
H 2.1664 1.31438 2.65547 0.135197 0.262797 0.820945
H 5.14106 7.28052 1.35516 0.486677 0.362126 0.186375
H 6.62622 9.74224 3.92265 -0.066755 0.374904 -0.943435
H 11.2508 10.3778 0.57013 -0.631962 1.791857 -0.612683
H 11.05 9.90251 2.82011 -0.016545 0.310472 0.08853
H 6.34635 8.98222 2.57923 0.567056 0.964393 0.214651
H 8.90323 8.7918 0.74329 -0.476528 0.698125 -0.917476
H 8.64802 10.0184 3.26303 0.659944 0.099757 0.267244
H 9.21572 10.2271 0.1267 -0.557182 -0.770612 -0.021524
H 2.68977 1.29611 4.87385 0.561749 -0.515419 0.402298
H 3.33786 10.4309 4.72557 0.311819 0.215564 0.322242
H 2.36528 10.1978 3.59681 -0.038544 -0.606033 0.58523
H 4.10558 1.0929 9.29079 0.063993 -0.008347 0.213129
H 2.88889 2.523 3.9304 0.049418 -0.167065 0.343095
H 4.91569 0.0543 3.80835 0.356404 0.027383 -0.661779
H 6.21159 2.58082 7.80848 -0.371657 -0.323911 -0.371383
H 9.21465 5.16545 6.46901 -0.292038 0.099935 0.123638
H 10.7128 5.74763 6.2553 -1.568756 -0.20076 1.316754
H 10.4292 3.7272 7.0588 -0.050999 0.727124 0.04634
H 1.69741 6.12761 7.33083 -0.2666 -0.545803 -0.702261
H 1.58656 4.57845 6.8282 -0.48434 1.241677 -0.055758
H 3.58051 5.89672 4.60879 0.51002 0.346286 -0.377274
H 3.23327 5.15592 5.85194 0.721736 -0.001348 -0.319161
H 3.05584 8.09216 3.89955 0.345432 -1.281926 -0.29782
H 0.19136 6.14661 5.63811 -0.35232 -0.585318 -0.729839
H 6.19364 8.36985 5.99051 0.455723 -0.464863 -0.081812
H 5.26282 6.06232 5.7847 0.267271 0.503379 0.563237
H 5.75134 6.42478 7.24353 0.345275 0.411757 -1.427388
H 8.35676 8.99053 10.8925 0.551737 -0.16535 0.29389
H 11.4853 4.52291 4.16397 0.682624 0.162923 0.592754
H 7.62926 9.04739 5.98758 0.725192 -0.303386 0.038108
H 11.7422 6.62824 4.29815 -0.288817 0.347096 -0.223758
H 9.91779 8.08212 6.06865 0.158246 -0.126039 -0.072597
H 11.8683 11.6105 6.07746 0.092234 0.912894 -0.005887
H 1.07209 9.98576 5.64149 -0.236784 -0.048561 0.627253
H 6.42485 6.77668 2.09365 0.543836 -0.745473 0.186569
H 6.48389 0.20008 6.75639 -0.712483 1.40482 0.531692
H 6.37609 11.2147 6.32089 -1.453674 -2.40466 -0.759668
H 6.09554 9.57478 7.94785 0.032328 0.090436 -0.116758
H 9.79171 0.52101 5.22286 -0.161806 -0.159285 0.172143
H 8.27058 0.03335 5.44364 0.052045 -0.09688 0.133343
H 10.1525 9.85501 7.56569 -0.050676 0.066129 0.202598
H 9.89665 9.32405 5.08954 -0.294413 0.065836 0.102051
H 11.3234 0.35259 7.02327 0.398869 -0.296416 -0.89831
H 9.50362 11.2159 3.84823 -0.144222 -1.373384 0.040847
H 0.81519 2.86017 8.24589 2.190873 -0.374137 -0.493276
H 2.79912 12.2278 10.4054 -0.136126 -0.578019 0.304924
H 0.24718 3.36965 10.1722 0.121365 0.044817 0.018917
H 0.09644 1.07114 10.7997 0.161816 1.399136 -0.248913
H 4.89597 0.27075 10.3196 1.732022 -0.990217 0.107178
H 6.66381 3.77889 8.67425 0.982256 -0.561494 -0.137484
H 6.3867 4.5093 11.6139 -0.066393 -0.932735 0.92179
H 7.30234 12.2346 10.1734 0.215249 0.188492 -0.555093
H 8.00325 1.78083 8.7867 0.001294 0.075959 0.293658
H 11.5857 2.79751 9.19882 0.253865 -0.287623 0.350763
H 9.35763 1.77498 0.47741 0.035615 -0.577706 0.101928
H 2.40274 2.64928 7.47813 0.332821 -0.7348 0.866764
H 7.7652 3.17159 12.1399 -1.224137 0.578283 0.475751
H 8.41727 2.43958 10.9665 0.298088 -0.430341 -0.157883
H 9.9282 3.94631 11.5822 -0.380293 0.54367 -0.385289
H 11.9116 3.38033 3.20206 -0.009689 -0.41915 -0.206311
H 9.24561 0.88144 9.24071 0.605813 0.149197 -0.061993
H 1.34882 7.85896 9.07633 -0.500748 0.588091 -0.241115
H 2.67739 7.04792 9.0835 0.139728 -0.0766 -0.092973
H 5.97896 5.46453 9.75567 -0.734693 0.426581 -0.04845
H 3.56179 6.37508 0.54999 -0.084611 -0.462976 0.07099
H 7.4918 5.34938 9.74887 0.822967 0.158347 -0.181824
H 9.33664 6.11845 8.52172 0.217343 -0.783988 0.013551
H 8.79024 7.18914 9.48284 0.037409 -1.395557 0.802591
H 9.84605 5.37894 10.6999 0.619819 -1.588994 0.642414
H 1.12395 5.79609 10.1334 -0.128377 -0.380303 0.309387
H 12.1684 5.34071 10.9113 2.059944 -0.808737 -0.416758
H 9.48435 9.62701 8.99539 0.99095 0.620028 -0.270797
H 10.0197 5.98013 0.24105 -0.379992 -0.079904 0.147962
H 11.9371 9.79599 9.15749 0.641773 -0.115559 -0.29363
H 0.36517 9.65075 7.07901 0.348179 0.231875 -0.135066
H 1.10152 10.1702 9.28638 -0.351924 0.071226 0.220725
H 2.68057 11.03 11.4053 0.238051 -0.711856 0.28699
H 0.91081 12.1489 11.1768 -0.009768 0.10429 -0.477749
H 3.583 8.88206 12.26867 -0.447071 2.057715 0.801535
H 5.0105 9.1748 9.03596 2.330998 0.661006 -0.083713
H 4.21915 10.344 0.28775 0.484833 -0.043497 0.065476
H 6.33305 10.8017 1.31552 -0.739124 0.78171 -1.115081
H 7.63357 9.08626 9.53792 -0.043607 -0.454756 0.074625
H 6.28474 11.0043 9.78605 0.398393 0.005918 -0.398227
H 6.20612 11.2838 12.1389 -0.005565 0.130251 0.759252
H 11.2966 11.7373 11.9732 0.243019 -0.497681 0.159979
H 10.3948 11.9263 8.6621 -0.169769 -1.580796 -0.099681
H 11.5692 0.2141 9.3896 0.12747 -0.081891 0.482916
O 4.41488 2.1978 0.50317 0.640541 1.291773 0.341593
O 2.25434 1.09196 1.72296 -1.270474 -1.025907 -0.605588
O 12.1777 2.45281 1.4448 1.090577 -0.427635 -0.325928
O 5.92928 1.24991 2.64111 -0.986151 0.40517 -0.752542
O 6.33295 3.9461 0.05532 0.352708 1.167844 -0.824806
O 4.15137 3.2944 3.44469 0.2017 1.001264 -0.457682
O 8.81884 3.50369 3.84682 1.775823 0.379001 -0.145594
O 9.67286 1.24844 1.26598 0.692285 -1.195294 -0.045931
O 0.61872 5.03823 0.96685 0.695107 2.031686 -0.56492
O 3.16385 5.23009 1.62774 -0.832392 0.233926 -0.061479
O 7.63607 5.17452 1.99368 -0.935441 -0.634682 0.380931
O 7.73171 4.4246 5.88674 -0.095996 1.138299 -0.565246
O 3.97636 7.12827 0.07689 0.367942 0.582344 -1.361546
O 3.4652 7.2132 3.56811 -0.897059 1.920895 0.732417
O 11.2773 7.05343 2.76809 0.968937 1.184917 -0.795825
O 1.90367 10.5416 2.0451 -0.017648 0.925885 -0.175758
O 11.7157 9.51352 2.21596 -0.801436 -0.66519 -0.604032
O 6.71756 9.86336 2.93226 -0.158364 -1.383466 0.86389
O 8.52249 9.49589 0.15427 1.010195 0.006351 0.506179
O 9.55201 10.2197 3.64966 -0.701775 1.535193 -0.433719
O 10.7328 11.147 0.14791 0.264525 -0.987057 0.730621
O 2.20283 1.90205 4.32645 -1.018108 0.471772 -0.390332
O 4.48333 12.0278 4.55655 -0.308065 -0.334194 0.094207
O 9.96237 5.53097 6.98976 1.701858 0.246125 -1.692605
O 2.59289 9.84518 4.523 -0.293522 0.1108 -1.082558
O 7.02162 3.07902 8.01708 -0.622963 0.51152 0.238624
O 10.8645 2.86305 7.0799 -0.380914 -0.873395 0.61966
O 11.5984 3.55537 4.10765 -0.359074 -0.023306 -0.442728
O 8.90917 0.43119 4.81455 0.309515 -0.05146 -0.6897
O 1.56406 5.5586 6.50793 0.632441 -0.785151 1.08563
O 4.0004 5.22912 5.20324 -1.131216 -0.068918 0.880895
O 5.97542 6.59987 6.27745 -0.8241 -0.740858 1.011518
O 6.68907 9.2019 5.86156 -1.042958 0.71147 0.04278
O 9.62285 8.99452 5.97374 -0.2149 -0.11251 0.415697
O 11.7665 6.0285 5.07312 0.408857 0.10674 1.282466
O 0.28113 10.1142 6.22335 -0.015878 0.005116 -0.640353
O 5.75937 7.46353 2.12368 -0.88516 0.357689 -0.421263
O 6.99775 11.8877 6.41853 2.181751 1.174332 0.285501
O 11.5877 0.1873 6.06725 -0.468707 -0.893957 0.990677
O 10.2025 10.1558 8.50326 -0.740919 -0.561634 0.132842
O 12.396 2.55055 9.69532 -0.457523 0.701559 -0.372141
O 1.50992 3.00907 7.50823 -2.197562 1.056255 -0.687602
O 4.0901 0.74874 10.2131 -1.420085 1.252383 -0.51186
O 6.5107 11.7306 10.3972 -0.747392 0.052918 1.014489
O 8.41304 1.27709 9.52642 -0.774898 0.167391 0.19009
O 8.60989 2.82283 11.8444 1.308866 -0.598554 -0.565681
O 1.74753 7.03362 8.77076 0.111931 -0.648092 0.403751
O 8.46222 8.73343 9.93616 -0.853121 0.653079 -0.260007
O 6.68648 4.81287 9.87108 -0.128958 -0.369692 0.334306
O 8.96997 6.17389 9.43467 -0.193361 1.961548 -0.399737
O 9.41935 6.49023 0.83772 -0.764479 0.200679 -2.433189
O 10.4169 4.75385 11.2914 -0.121333 1.624039 -0.670026
O 0.79229 5.14437 10.8091 -2.436372 0.994493 -0.561104
O 0.46743 9.50058 8.97164 -0.205527 0.056326 0.134678
O 2.17872 11.4985 10.7268 0.055807 0.616974 -0.81688
O 0.00187 0.18033 11.1029 -0.790701 -1.193497 0.472312
O 3.37701 9.90003 0.05368 0.710248 -2.180739 -0.522042
O 5.92309 9.64058 8.9037 -1.945276 -0.85106 -0.133662
O 5.79624 11.3344 0.64512 0.535896 -0.789125 0.430814
O 10.8497 0.36373 8.75471 -0.029679 1.109044 -0.516082
Na 8.01498 1.61132 2.90504 0.831645 -0.123807 0.341992
Na 0.13089 2.11938 5.69399 0.400109 0.434198 -0.2732
Cl 4.306 1.70874 7.15048 0.223821 -0.122846 0.013103
Cl 4.63957 6.93596 9.59631 -0.104214 0.096026 -0.381071
184
energy=-998.28723122 config_type=nep2xyz pbc="T T T" virial="0.23211361739125014 -5.732486386792682 2.4329505573530645 -5.732486386792682 -2.8250149120606847 0.80216942943396 2.4329505573530645 0.80216942943396 3.666121832194679" Lattice="12.4 0.0 0.0 0.0 12.4 0.0 0.0 0.0 12.4" volume=1906.6240000000003 Properties=species:S:1:pos:R:3:force:R:3
H 12.0082 7.34666 1.82528 -0.01555 -0.501902 -0.320136
H 2.5728 6.6031 2.88299 0.180991 -0.199232 -0.034514
H 11.0712 1.70642 4.64201 -2.4023 -0.010217 -0.294378
H 12.2722 2.47389 5.24074 0.234095 1.216915 0.971461
H 11.4107 5.95904 1.2099 0.564725 0.632684 0.822316
H 0.45112 3.91557 11.0005 0.718558 -0.140007 0.176619
H 1.4233 11.6927 3.04858 0.074567 0.464656 -0.290073
H 2.29733 10.4004 2.76242 1.126523 -0.316034 -0.833611
H 5.88644 9.55797 6.70865 -1.340337 -0.555841 -0.619026
H 3.43151 6.69198 4.14753 0.951939 -0.841122 0.828183
H 12.3157 0.4142 7.77395 -0.542388 -1.451688 -2.394515
H 11.9585 1.88429 8.43759 -0.116877 -0.363632 -0.757463
H 9.87921 7.25547 11.9306 0.487364 -1.419619 1.601596
H 10.563 8.59418 11.2171 -1.613268 -1.689065 0.217621
H 3.16547 12.345 12.0994 -1.029943 -0.744552 0.509284
H 8.20737 8.17318 11.3267 0.447514 0.078147 0.032383
H 6.65289 7.82253 11.3049 0.574862 0.459338 -0.126314
H 6.94773 9.91187 7.7189 0.594087 -0.451699 -1.537537
H 2.81247 10.8662 12.0314 -0.096686 -0.4 0.033964
H 8.61405 1.7384 6.81167 -0.198622 -0.115854 0.235899
H 7.91625 1.58539 8.22715 -0.348554 -0.63829 0.174395
H 10.7814 4.96048 10.8342 -1.248546 0.243893 0.833945
H 11.3674 0.29797 9.77624 0.358418 -0.403427 0.50075
H 1.21209 4.38076 12.1764 0.444542 1.086797 1.542826
H 3.65819 2.62292 5.59243 2.025894 -1.803164 1.289172
H 2.95846 2.8656 4.24126 0.24864 0.593826 0.202674
H 2.51385 9.57314 5.99324 0.218668 0.18103 0.121965
H 1.75964 10.1837 4.76488 0.040979 0.447657 -1.745983
H 5.11167 5.22635 5.15513 -0.70059 0.624777 0.096011
H 0.51265 5.79334 9.7526 0.402743 0.755226 -0.115732
H 1.33377 7.2487 9.65691 -0.121561 0.113405 0.786492
H 4.97032 12.31348 11.2588 -0.986602 2.361746 1.129374
H 11.0015 0.87313 0.45493 -0.384499 0.483316 0.154572
H 11.7398 10.632 11.0988 -0.501802 0.536925 -0.067694
H 11.8262 9.48783 12.2229 0.048406 0.435986 0.654458
H 7.23592 4.56257 5.92332 0.363678 0.258607 0.317878
H 1.29472 5.76661 1.63866 -1.308997 0.223448 0.139118
H 10.0447 0.26944 11.8422 -0.071711 0.597588 0.807914
H 2.93292 11.4669 8.85936 0.117162 -0.165774 0.130559
H 4.33989 1.47694 11.1837 -0.227122 0.569074 -1.187395
H 9.69604 8.75419 6.82941 -0.590845 -0.409359 0.156777
H 2.5831 5.91725 0.92089 1.07014 1.183069 -1.580523
H 3.96882 9.78181 7.76299 -0.555569 -0.272685 -0.511807
H 3.62882 8.4384 6.97286 0.554746 0.331939 0.236995
H 7.85243 9.69831 9.91866 -0.148963 -1.34485 0.988239
H 2.17417 9.20389 9.8173 0.161535 -0.185856 -0.193008
H 9.01311 10.0528 8.84156 -0.652655 0.182945 0.184547
H 6.81083 11.5023 1.15027 -0.128238 -0.631391 -0.153953
H 5.42579 11.4805 1.63832 -0.229703 -0.308898 -0.202512
H 12.3706 5.67919 3.83299 0.123309 0.369399 0.515223
H 11.1168 5.79142 4.7038 0.867637 0.887968 0.609033
H 5.01579 0.78596 5.54765 -0.94845 -0.894719 0.381639
H 9.62784 9.45858 3.95107 -0.416151 0.902095 0.693341
H 0.93408 9.0669 10.6513 -1.693788 0.527787 0.889658
H 0.93425 2.17054 12.1404 0.358083 1.603546 -0.254058
H 8.99675 8.56551 2.84298 -0.124775 0.389566 -0.245226
H 0.6764 0.73576 12.0044 0.556734 -1.662806 -0.389204
H 11.3474 4.41031 9.43887 -0.164164 -0.022943 1.104746
H 9.53747 6.63866 9.50503 0.094523 0.260257 0.90687
H 10.1053 12.027 9.60089 -1.197866 -0.796243 -0.574904
H 0.53103 1.51697 3.29216 -0.354684 -0.376566 0.800687
H 1.95926 6.5911 7.7536 0.353797 -0.235308 0.041539
H 0.63886 1.17684 1.8136 -0.286398 -0.087653 -1.516641
H 7.52223 11.9092 9.5013 0.175197 -0.070093 -0.556162
H 3.72689 4.58537 5.10695 -0.314538 -0.267509 0.090608
H 1.36835 3.62177 5.85143 1.816547 -0.399906 -0.147103
H 0.11381 4.53852 5.56803 0.779617 -0.573006 0.839107
H 8.01671 4.97809 8.0942 1.900067 1.954832 1.23641
H 7.79219 3.59909 7.61782 -0.431239 0.03861 0.034925
H 7.89137 5.05036 4.57488 1.668939 1.357058 -0.322383
H 2.9495 6.2043 6.57053 0.823145 -0.728765 -0.353389
H 8.17022 8.48306 6.77691 -0.617027 0.169217 -0.28343
H 3.05072 0.45036 6.61368 -0.535758 0.599737 1.366293
H 3.07251 11.4076 6.09635 0.053314 -0.007725 0.085276
H 10.2865 3.12322 7.80267 0.704781 -0.071589 0.593404
H 10.9054 10.6546 7.06009 -0.184573 -0.282714 0.567519
H 11.7834 3.63149 7.40208 -0.618231 -0.822746 1.092082
H 11.1868 9.51085 8.13055 -0.641744 0.423238 -0.583525
H 6.91259 7.80022 1.64636 -0.175247 -0.178857 -0.029789
H 2.94933 1.73725 9.05183 0.240231 -1.155694 -0.875134
H 9.41974 6.9476 5.43852 -0.430449 0.583549 1.302769
H 5.88059 11.2831 9.89615 -0.354526 -0.531871 0.767521
H 1.70113 0.9173 8.66276 -0.076085 0.025251 -0.447991
H 9.03952 6.78146 8.10105 -0.411936 1.210147 -1.204382
H 8.04072 2.96261 11.9245 -0.355485 0.038203 -0.597255
H 9.65347 7.0331 3.99812 0.214633 0.606334 -0.839208
H 5.73835 6.00563 0.2101 0.60498 -0.080334 0.694616
H 4.32532 3.63424 9.97854 -1.264422 -0.869766 0.568527
H 4.5136 6.70364 11.8946 0.483006 0.092648 0.12298
H 5.84716 10.0801 10.954 0.644682 -0.559279 0.488406
H 7.14703 9.36127 1.44079 -0.399038 -0.134151 0.019291
H 6.99542 3.28864 3.53986 0.025205 0.073826 0.110908
H 2.61927 7.85601 11.4562 -0.145109 -0.565568 0.658771
H 3.23894 8.23201 0.44537 -0.159994 -1.144275 -0.267894
H 0.61506 11.1265 5.98005 0.796819 -1.463018 0.378038
H 7.24118 0.87673 10.1421 -0.438302 0.328496 0.245595
H 12.3777 0.0152 5.81408 -0.908881 0.468682 -0.032905
H 6.33953 1.19278 4.94564 -0.213437 0.689696 0.089232
H 7.72584 5.83645 1.28876 -0.214578 -0.047374 -0.246809
H 2.74961 3.29572 10.5473 -0.316699 1.020576 0.451684
H 10.9068 9.02405 2.35594 0.964838 0.68597 -0.411725
H 6.66222 5.04678 2.06048 -0.012007 0.061039 0.050776
H 6.37131 4.37676 9.17819 -0.460523 0.351833 -0.058901
H 7.88526 2.98369 2.31073 0.090896 -0.104821 0.185484
H 4.55495 9.69173 2.25185 -0.983044 -0.720184 -0.400731
H 3.57123 8.41527 2.60678 0.135091 1.523231 -0.346432
H 5.60002 5.26749 10.2951 0.429766 -0.013879 0.352883
H 3.85577 0.94059 2.56225 0.117031 0.022492 0.014906
H 8.11882 0.51237 2.43161 0.042984 0.025923 0.66158
H 8.79968 11.5923 4.79864 0.688268 -1.342716 0.233036
H 8.88774 0.64189 1.08009 -0.160126 -0.329594 0.077713
H 8.05999 10.3551 5.35541 0.61712 -0.210757 0.069741
H 6.8965 3.40078 10.9121 -0.133423 0.133778 0.202522
H 5.20979 0.95841 3.27882 0.125968 0.411878 1.410772
H 0.01114 9.73285 1.93669 -0.256211 -0.032996 0.669768
H 4.06648 10.6073 9.60397 -1.262636 -0.280295 -0.350205
H 11.0266 6.96267 7.56263 -0.6753 -0.521392 0.275281
H 2.21881 2.24516 2.45385 -0.99312 -0.796297 -0.320685
H 2.67002 3.73522 2.07482 0.12615 -0.765355 0.743292
H 12.3745 7.17964 8.34978 -0.46048 -0.19272 -0.548056
O 11.9873 1.67978 4.80231 1.948931 -1.476802 -0.557497
O 2.92422 7.22972 3.54398 -0.98456 0.936923 -0.60833
O 1.53198 10.7453 3.21146 -1.142544 -0.305599 0.740047
O 0.0005 0.99572 8.48777 0.366782 1.448874 3.408671
O 9.8044 7.88159 11.2417 1.490188 2.965907 -2.251135
O 2.40375 11.6901 12.3059 0.86158 1.209942 -0.406027
O 7.32736 8.52905 11.1074 -1.668436 -0.172306 -0.017582
O 8.57942 2.07926 7.73572 0.531444 0.549489 -0.816688
O 1.33485 3.76165 11.4838 -1.161415 -0.880893 -1.6059
O 11.5761 4.74301 10.3662 1.392294 -0.493385 -1.90082
O 10.7715 12.0629 10.2727 1.023429 1.050128 0.054473
O 3.06242 3.18946 5.18464 -2.526511 1.075496 -1.563591
O 1.63775 9.83151 5.64765 0.000531 -1.000802 1.296083
O 4.15073 5.46473 5.2372 1.285567 0.213061 -0.124456
O 1.10922 6.39302 9.23099 -0.563551 -1.50055 -0.748981
O 4.60004 0.76046 11.7628 1.120024 -2.656701 -0.093971
O 11.9277 9.70663 11.277 0.124942 -0.988959 -0.105594
O 10.0407 0.75295 0.32107 1.625397 -0.565623 -1.861052
O 2.20231 5.43668 1.63041 -0.048139 -1.393697 1.132292
O 2.89511 2.90679 2.59066 0.747306 1.58316 -0.419599
O 4.09807 9.31 6.89161 -0.398058 -0.373279 0.101261
O 8.11663 10.2745 9.20742 0.698062 1.232089 -1.262344
O 9.35881 6.13159 8.71204 0.293679 -1.278584 0.262775
O 1.62825 8.52234 10.2865 2.073443 0.869252 -0.723637
O 6.0218 10.8833 1.13128 0.514971 1.267051 0.327541
O 6.83902 9.58878 6.76081 0.940024 0.945904 2.079487
O 12.1591 5.8415 4.7861 -1.295096 -0.795058 -1.465863
O 9.84415 8.76035 3.31433 -0.254148 -1.190293 -0.717532
O 0.36085 1.48692 0.0775 -0.916323 -0.310569 0.785654
O 2.48757 6.92464 6.99139 -0.759064 0.936782 0.270678
O 1.05177 1.00124 2.6539 0.624632 0.063128 0.747331
O 0.4901 3.77758 6.16755 -2.275655 1.23512 -0.509722
O 7.34395 4.48846 7.68231 -1.345102 -2.09841 -0.875351
O 7.19988 4.55736 4.95511 -2.229365 -1.413315 -0.051973
O 7.26751 2.64311 11.4127 0.470457 -0.393681 0.633312
O 11.1951 3.27148 8.17038 0.114765 0.964014 -1.652971
O 10.4726 10.0851 7.75393 0.8192 -0.192665 -0.009548
O 9.02377 8.0243 6.71077 0.99406 0.056076 0.149961
O 12.1134 6.349 1.81068 -0.671739 -0.090973 -0.482189
O 2.66757 0.9396 8.47368 0.176149 1.050181 1.193115
O 9.61752 6.37486 4.69314 0.143362 -1.504603 -0.4704
O 5.46405 6.43829 11.7935 -0.924816 0.39831 -1.299532
O 5.29867 10.682 10.4521 0.266505 1.55009 -0.956497
O 2.98642 7.42823 12.2873 0.328275 1.666815 0.0712
O 12.2863 11.6134 6.36291 -0.398438 1.423273 -0.150872
O 5.39804 1.48188 5.0194 1.506001 0.154787 -0.445756
O 3.57707 2.96113 10.2027 1.758472 -0.540734 -0.891222
O 6.92571 0.29277 9.4289 0.568889 -0.106082 0.269351
O 6.79062 5.89523 1.597 -0.044717 -0.353189 0.375886
O 5.80605 4.35957 9.99167 0.055882 -0.104159 -0.47921
O 6.96603 3.10149 2.58137 -0.212146 0.371941 -0.268593
O 3.65893 9.30016 2.07017 0.706573 -0.885122 0.662085
O 8.95382 10.6043 5.02512 -1.084398 1.272929 -0.164039
O 7.99398 0.44615 1.48278 -1.424153 0.050744 -0.117577
O 3.37055 12.3039 5.91021 0.5544 -0.386096 -1.131281
O 4.78419 0.69577 2.47017 -0.330458 -0.720818 -1.413336
O 3.19598 10.5353 9.05762 0.730093 0.306769 0.438256
O 11.7019 9.12516 1.67389 -0.244524 -0.681266 -0.483611
O 7.45629 8.55718 1.88294 0.793711 0.206748 0.483432
O 11.7642 7.55814 7.64596 1.22803 0.696161 -0.000135
Na 0.78076 7.65986 5.67382 -0.053074 0.179474 0.030201
Na 5.9467 1.87103 0.94713 0.256034 -0.220415 -0.200695
Cl 9.30596 5.27501 0.14643 0.539448 -0.258018 0.090194
Cl 8.6972 1.17407 4.53462 0.001134 0.207815 0.299684
184
energy=-998.52648433 config_type=nep2xyz pbc="T T T" virial="-14.713789903341748 9.714654025225599 0.5812539106822979 9.714654025225599 -6.881178063076979 0.179002975278092 0.5812539106822979 0.179002975278092 4.201857435441881" Lattice="12.4 0.0 0.0 0.0 12.4 0.0 0.0 0.0 12.4" volume=1906.6240000000003 Properties=species:S:1:pos:R:3:force:R:3
H 1.35943 6.57528 11.0288 -1.66551 -1.72126 0.030562
H 3.12718 11.8549 6.14845 0.065108 0.301761 0.153421
H 4.55674 10.6589 2.8458 0.079284 -0.506351 -0.267855
H 0.44716 1.66918 3.37874 0.75824 -0.123274 -0.217836
H 3.03184 4.37987 1.70162 -0.016343 0.555395 -0.541626
H 2.80135 4.10997 0.16491 0.126931 -0.039367 -0.415816
H 10.1031 3.04063 4.70359 -1.234365 0.695407 -1.239314
H 11.2585 2.31679 5.27162 0.862022 -0.566424 0.5375
H 1.04491 5.01305 11.2787 0.321041 -0.363797 -0.371888
H 7.72887 4.84431 9.85811 -0.590965 0.46323 -0.02261
H 9.31653 1.29666 0.7826 0.229682 0.596257 0.076686
H 7.47903 5.57236 3.20445 0.579865 0.960791 0.666863
H 8.51868 3.91981 10.807 0.303954 -0.00057 -0.204981
H 6.01246 5.29712 11.9408 0.092647 -1.574243 1.47502
H 7.80944 11.3315 2.18242 0.28816 -0.013922 -0.003764
H 12.37836 8.99544 0.84611 1.309044 1.260739 -1.250814
H 9.28762 11.2372 1.65368 0.987437 -0.123729 -2.17318
H 2.81144 6.26963 6.31515 -0.343675 -0.485288 -0.173339
H 4.99358 4.7023 0.59013 0.675696 -0.234864 -0.327568
H 6.85272 9.37798 11.8564 0.039264 -0.300957 -0.125611
H 7.59197 8.2537 0.1757 0.628575 -0.212679 0.101949
H 3.73888 0.43713 12.0714 -0.42004 0.18901 -0.279674
H 6.44864 6.96783 9.62133 0.031724 0.722622 -0.410907
H 6.95621 5.22409 1.84821 -0.473821 -0.440918 -1.267986
H 8.51985 6.91063 4.88202 -0.973742 0.017855 -0.479134
H 1.97485 10.7785 0.62097 0.02062 0.814919 0.245618
H 3.72492 1.37764 10.724 0.634233 -0.568567 0.525882
H 0.31009 1.93875 1.85057 0.493181 -0.239723 0.055005
H 10.0992 10.0831 3.38089 -0.671082 -0.610627 -0.099308
H 11.908 9.01165 2.34176 -0.138567 -0.468613 -0.817259
H 12.2744 10.716 5.97065 -0.770068 -0.341385 1.381994
H 5.99227 9.04093 1.31498 -1.556655 -0.057049 1.323677
H 4.66926 8.38691 1.93522 0.625861 0.619065 -0.132168
H 5.40572 0.05248 2.63269 0.924581 0.199765 0.189661
H 6.34342 0.83707 1.61022 0.068318 0.040309 0.778049
H 4.079 8.14027 6.05714 0.192614 1.469116 -0.573733
H 3.28254 11.6271 10.0383 0.779625 1.318857 1.978069
H 11.1753 10.0762 4.354 2.066161 1.312192 1.524217
H 10.1206 2.28933 1.75351 0.148094 0.929888 -0.428279
H 12.2662 11.4581 10.1735 -0.249043 0.847689 -2.598755
H 3.49312 10.3706 5.63229 0.007339 -0.755042 0.48032
H 4.90955 1.74797 5.28462 0.965581 -0.105093 0.054098
H 5.80875 1.54175 4.03087 0.636763 -0.410515 -0.167052
H 11.1964 4.37074 5.92147 0.015602 0.701482 0.240809
H 6.27301 9.27448 3.45196 0.154955 0.166478 0.146573
H 0.0824 5.10904 6.49114 -1.65214 0.388733 -0.32836
H 1.10954 4.98914 2.56748 0.686879 -0.252991 0.662543
H 7.66219 2.98602 4.74037 0.377645 0.237112 -0.626895
H 7.17806 8.63207 4.55845 -0.708178 1.254476 -0.464024
H 0.45783 10.8988 11.3315 0.848696 -0.838948 1.364369
H 1.41995 3.55363 2.97307 -0.097584 -1.081783 0.089464
H 9.8297 11.8867 5.86996 -1.65756 0.641785 0.37253
H 10.5749 6.68142 5.77063 0.418196 -0.119694 -0.189324
H 11.2738 6.49628 10.5545 0.095208 0.072089 0.110465
H 2.98598 7.09644 7.60821 -0.300506 0.319905 1.104935
H 5.24953 5.91992 6.79312 0.636795 -0.457146 -0.229905
H 6.87905 2.56197 6.21552 -0.274246 0.710041 0.736198
H 6.41348 6.73148 7.22455 0.498963 -0.134934 -0.096622
H 7.19318 3.97224 6.9323 -0.725593 0.842846 -0.239304
H 10.1324 8.03528 4.96835 0.746811 0.572262 -0.635987
H 7.7332 3.7136 3.29131 0.70696 -0.89509 0.597009
H 0.14233 0.54405 11.7233 -0.249965 0.388669 0.668314
H 12.0271 2.61189 8.67691 0.746519 -0.463098 -0.151049
H 0.91164 2.46264 7.77666 0.267758 -0.140401 -0.181362
H 3.27184 12.1753 1.80236 0.237821 -0.163247 0.63882
H 5.05147 9.22889 5.11442 -0.627767 -0.728921 1.190947
H 2.06144 0.70969 1.47266 0.27063 -0.109803 -0.053717
H 9.80823 6.07821 10.3079 -0.388456 -0.292908 0.175022
H 0.49632 0.60047 8.64011 0.427444 -0.621094 -0.022173
H 4.12019 3.42217 9.55983 -0.422827 -0.292096 0.13814
H 10.803 10.1802 7.69204 -0.90392 -0.799271 0.205036
H 11.6235 11.4169 7.84034 0.364723 0.600502 0.033403
H 5.69916 10.714 7.64803 0.953865 1.431583 -3.57396
H 4.69805 10.4848 8.6712 -0.53071 -0.408759 0.486358
H 2.82331 10.1396 9.72066 0.239288 0.326802 0.103153
H 9.89133 8.16878 7.28036 -0.235021 0.056706 0.867197
H 9.93315 7.92431 8.89633 0.008868 0.917976 -1.036395
H 7.64541 8.245 8.0805 0.171956 0.647038 0.009021
H 6.09303 8.86094 8.07101 1.265582 -0.75588 0.213155
H 7.97463 0.45677 9.15537 -0.61834 -0.471214 -0.291499
H 9.20051 12.1421 8.33941 -0.366729 0.028536 0.509586
H 6.12024 11.7112 9.23677 0.203455 -0.462542 -0.181561
H 12.28652 6.78007 1.80674 0.164877 -1.394509 -0.658265
H 3.34709 2.43015 8.64367 0.192754 -0.359691 -0.218459
H 1.53168 4.87212 4.90951 0.742557 -0.446829 0.048145
H 5.57833 0.60476 9.83288 -0.056345 0.387728 0.365444
H 5.40268 1.45473 12.0777 0.372044 -0.092402 -0.491441
H 6.03801 2.79974 0.13275 0.407822 -0.004419 -0.094685
H 10.1004 9.75405 0.13951 -0.65419 -0.849597 0.036718
H 8.03582 1.82045 11.4209 -0.884055 0.011782 0.382951
H 9.35324 1.57925 10.7345 0.225166 -0.111352 -0.367879
H 10.7872 10.9882 12.0417 1.80488 1.012922 -1.410337
H 9.63488 4.0794 2.45291 1.495114 0.399216 -0.523762
H 11.1502 4.41315 1.90015 0.392635 1.560918 -0.452562
H 2.4068 4.08491 6.01247 -0.770075 0.671155 -0.350295
H 1.1053 1.3405 5.548 -0.425328 -0.26427 -0.006395
H 8.43464 11.0218 11.7765 2.536674 0.087085 0.58541
H 12.343 0.26822 5.20867 0.669978 -0.555169 0.130073
H 7.25016 11.644 11.0273 -0.707744 1.444413 -1.198114
H 1.44318 11.59 8.72356 -1.21395 0.998875 0.051393
H 3.55178 6.04642 9.84133 -0.10975 -0.327842 -0.024685
H 3.73939 11.4553 3.9078 -1.115814 -0.060708 2.122193
H 6.21243 0.16763 6.02158 1.075684 -2.589912 -0.90997
H 6.47443 7.12854 11.2134 -0.015485 0.314628 -0.850383
H 6.76771 11.1851 5.21778 -0.557389 -0.300767 -0.405207
H 7.05407 6.43764 5.13275 -0.173656 0.178881 0.196393
H 11.4478 1.35154 0.04072 0.613894 0.096572 0.205826
H 2.22828 9.48945 12.2468 -0.710575 0.125787 -0.02801
H 9.84776 7.6849 11.8856 0.119223 -0.462097 -0.467091
H 10.2021 8.04357 0.97375 -0.901593 0.010392 -0.943024
H 1.26906 11.0564 5.3565 -0.766314 0.015867 -0.450943
H 4.93125 5.47537 9.97606 0.191329 0.139995 0.129768
H 0.05019 5.82572 0.58914 0.359073 0.083961 -0.868326
H 4.26648 7.58746 12.3667 -0.079427 0.327387 -0.094536
H 1.35583 2.62801 11.6063 -0.362509 -0.192359 0.015366
H 3.50403 6.45745 0.6584 0.167623 1.166609 0.617585
H 2.4155 2.96858 10.4479 -0.491547 0.663838 1.522127
H 8.17703 0.0248 5.79495 1.437135 -1.239777 0.434918
H 10.8796 4.14018 7.69359 -0.352317 -0.167575 0.466091
H 9.90437 3.68418 8.84019 -1.703088 1.27137 1.884517
O 0.59901 5.86123 11.1269 1.341454 2.096245 0.14175
O 2.93799 11.1825 5.48473 -0.637274 0.635649 -0.553744
O 0.98188 1.87468 2.5641 -1.101298 0.10285 0.105877
O 3.29296 4.68579 0.79542 0.024887 -0.31049 0.96358
O 10.4942 2.85785 5.54264 0.82514 0.200353 0.111014
O 8.61684 4.59128 10.1016 0.715648 -0.454816 0.126209
O 7.69247 5.03388 2.43054 0.16456 -0.430125 0.475089
O 9.88714 1.37196 1.56613 -0.055147 -1.35398 0.250113
O 11.9647 8.47922 1.50504 -1.154995 -0.830865 2.477541
O 4.02184 5.18015 9.81258 0.131375 -0.279747 -0.103085
O 8.75043 11.2855 2.4178 -1.064023 -0.003442 2.422273
O 5.96918 4.64129 0.32839 -0.995523 1.687836 -1.257469
O 6.71174 8.45681 12.221 -0.111341 0.727829 0.263651
O 4.19628 0.63915 11.2168 -0.818216 0.02961 -0.052893
O 7.60051 6.8731 4.4424 0.773219 -0.321277 0.773732
O 2.98453 11.0502 9.3715 -0.704638 -1.927808 -2.077499
O 0.26 11.0826 5.19205 1.414493 -0.12132 -0.920116
O 5.32176 9.13325 2.10787 0.735497 -0.456149 -1.339576
O 6.31278 0.48296 2.54367 -0.670809 0.161184 -0.984662
O 10.6542 9.46053 3.89666 -1.449612 -0.73689 -1.581464
O 5.85945 1.58403 5.00804 -1.760978 0.727995 0.614145
O 11.4622 5.21405 6.41002 1.703074 -1.099033 -0.063083
O 3.79873 2.4804 9.50891 -0.094312 0.95506 -0.307335
O 6.72554 9.51094 4.30599 0.269917 -1.337414 0.331107
O 1.70493 4.44905 3.18861 -0.629751 1.364746 -0.815556
O 10.3629 6.85061 10.5054 0.297682 -0.001445 -0.463994
O 3.40776 6.87248 6.78916 0.919217 -0.008492 -0.751775
O 6.23871 5.86288 6.75092 -1.056639 0.210483 0.022318
O 7.39681 3.0406 6.90834 0.378657 -1.396108 -0.503188
O 8.16562 2.99334 3.90214 -0.643358 0.572157 -0.183756
O 9.9157 7.3851 5.63833 -0.771099 -0.378352 0.846764
O 0.50698 2.13224 8.58757 -1.009579 0.683376 0.454797
O 2.76078 0.14969 1.06841 -0.605347 0.123769 -0.531608
O 4.27508 9.10705 5.75216 0.964331 -0.732869 -0.576063
O 10.8444 11.0752 7.34162 0.187575 0.094139 -0.250291
O 5.63156 10.2986 8.46115 -0.959212 -0.814704 2.593915
O 12.0541 11.3518 11.0842 -0.307733 0.21424 1.113427
O 9.73776 8.59691 8.17073 0.174279 -1.147438 0.178756
O 6.70253 8.04218 8.00656 -0.811652 -0.137189 0.232217
O 8.90698 0.4903 8.89508 1.373864 0.511521 -0.334586
O 6.39947 0.18724 9.55184 0.147187 0.217135 0.129035
O 4.15165 11.5151 3.06656 0.898031 0.172892 -1.991845
O 8.95899 2.0963 11.4486 0.204063 -0.044744 -0.124454
O 6.2603 1.86098 12.3436 -0.141061 0.172215 0.479548
O 10.0539 10.7152 0.15133 -1.703005 0.173703 1.412471
O 10.5751 3.78109 2.30516 -2.005234 -1.449266 1.245777
O 7.53374 10.9331 11.5627 -2.038372 -1.713804 0.711989
O 0.19691 1.21164 5.1802 -0.272814 1.478754 -0.431308
O 1.85187 4.89633 5.84896 -0.016951 -0.435196 0.264807
O 6.34514 6.49633 10.4549 0.091098 -0.830171 0.907637
O 6.69176 11.6364 6.07226 -0.721363 2.569581 1.177109
O 1.51381 10.1314 0.07417 0.83138 -1.137673 -0.295041
O 0.0248 1.3331 12.3259 -0.401748 -0.225393 -0.639602
O 9.48817 8.12971 0.2722 0.629334 0.146841 1.478935
O 12.3988 5.79855 1.54931 -0.423707 1.210233 1.2141
O 0.50297 11.9808 8.69407 0.953935 -0.47021 -0.19732
O 3.793 7.41965 0.79418 -0.286968 -1.516162 -0.34559
O 1.98672 3.30514 11.3169 0.322258 -0.317841 -1.021327
O 9.16928 0.21239 5.66025 0.194307 0.118938 -0.095515
O 10.5471 3.38004 8.24555 2.21049 -0.185009 -1.353791
Na 8.94581 0.88114 3.5944 -0.260222 -0.114067 -0.73385
Na 9.34825 2.02066 7.18068 -0.414649 -0.759901 -0.019483
Cl 2.87635 1.77758 6.62544 0.266525 0.206285 -0.277789
Cl 2.98531 7.93038 10.1477 -0.385006 0.497847 -0.070617
184
energy=-998.30907328 config_type=nep2xyz pbc="T T T" virial="-6.806123431706222 -6.4721678077713 -2.0926640211160588 -6.4721678077713 -3.62662503157322 0.4553377770951758 -2.0926640211160588 0.4553377770951758 -7.701542915273883" Lattice="12.4 0.0 0.0 0.0 12.4 0.0 0.0 0.0 12.4" volume=1906.6240000000003 Properties=species:S:1:pos:R:3:force:R:3
H 12.0499 2.9378 5.0033 -0.276469 -0.334518 -0.100934
H 5.04765 8.20413 3.19063 -1.298389 -0.037037 -0.614453
H 8.43612 2.56401 11.8956 -0.782162 -1.095155 -0.295325
H 7.32586 1.45627 11.3004 0.686663 -1.139806 0.030946
H 10.9508 2.65102 3.92432 -0.389626 -0.461855 -1.241123
H 2.44777 2.75334 0.77569 -1.307149 1.175201 -1.207515
H 0.88548 6.4767 2.99959 -0.51079 1.287228 0.296696
H 12.237 7.72172 2.81602 0.034476 1.378332 0.933796
H 5.96585 11.4737 7.84081 0.188212 0.037649 -0.324827
H 6.54023 7.56464 3.27786 -0.651092 0.360713 0.230682
H 10.883 4.77381 4.50401 -0.274033 -1.175538 0.50388
H 11.1515 5.72599 3.40651 -0.065687 0.7982 0.106561
H 8.61146 8.22939 9.74116 0.041756 -0.305147 0.11561
H 9.48451 9.43444 9.17139 -0.554216 -1.443226 -0.024792
H 2.93194 9.78014 12.3378 0.879765 0.579602 -0.635921
H 7.32877 8.50646 11.2961 -0.837439 1.337415 0.594456
H 8.17252 7.28901 11.7738 -0.010414 -0.197909 -0.441641
H 5.476 0.57917 8.06998 0.411088 -0.827364 0.680893
H 3.26841 10.3211 10.8489 0.290235 -0.031938 -0.034257
H 8.91077 3.8413 7.16446 -0.871729 1.954594 0.87831
H 8.58352 5.49363 7.34103 0.152244 1.443383 -0.886255
H 0.32082 1.76514 7.31508 0.548285 0.370249 -1.31049
H 2.46667 3.83458 11.1202 0.119401 0.148233 -0.542621
H 4.01419 2.77343 0.90272 0.163822 0.182105 0.288478
H 3.95596 2.86367 4.68193 -0.08921 0.128803 0.717258
H 4.35174 2.19018 6.09625 -0.9611 0.110639 -0.757746
H 2.93055 9.276 2.39631 0.050881 -0.977241 0.183287
H 2.81103 7.89739 3.32861 -0.245285 -0.374631 -0.001488
H 4.83908 4.61739 4.07219 -0.569946 0.299976 0.576216
H 2.33826 7.89572 8.63825 -0.915173 0.00592 -0.228742
H 3.47999 7.41559 9.57414 0.014271 -0.131291 0.945167
H 2.51464 1.20156 2.16904 0.06703 -0.808577 0.328034
H 11.8809 12.1025 4.15164 -0.075563 -0.220252 0.495099
H 12.0186 11.1164 2.0965 -0.654509 0.066659 -0.926789
H 11.9154 10.7908 0.42342 -0.170072 0.003733 1.845892
H 5.87553 4.05327 1.95301 -0.124973 -0.03425 0.870113
H 10.8803 2.67946 11.8243 0.35047 -0.077125 -0.363833
H 11.1549 0.67948 3.05877 0.331382 -0.210609 -0.137739
H 3.4858 12.286 9.99186 0.510107 0.191274 0.073774
H 1.30239 0.45703 2.95291 0.926725 -0.253989 -0.392371
H 6.99819 10.0841 5.88059 -0.495895 -2.006992 -0.090763
H 9.86564 3.86966 0.0735 1.116568 -2.50767 0.415846
H 4.00917 9.71568 6.53533 0.164674 -0.252366 0.733151
H 4.18066 8.9293 7.99493 -0.516662 0.100193 -0.808601
H 9.07108 1.45826 6.47815 -0.246633 0.63911 -0.444907
H 12.2351 11.2483 10.535 -0.139717 -0.352125 -0.024694
H 9.73238 2.69854 5.72685 -1.154851 -0.801365 0.221078
H 1.88312 6.91399 5.09423 0.40648 -0.720139 -2.211983
H 2.80341 5.89913 4.30051 2.484277 -2.778081 0.46025
H 10.9106 7.88765 10.4424 1.279732 -2.082683 -0.48844
H 11.222 6.31245 10.1788 -0.503719 -0.339448 -0.177425
H 7.54847 0.85615 3.62781 -0.821961 -0.525993 -0.178532
H 0.97856 1.00263 5.36606 0.25771 1.020737 0.240839
H 11.7026 0.11362 11.18 0.003372 0.021672 0.406428
H 0.46013 2.66269 11.3849 0.135201 0.111393 -0.329137
H 2.15265 2.15201 5.4643 -1.196719 -0.633605 0.159969
H 12.1135 2.17333 10.0628 0.403122 -0.172469 1.127534
H 11.6633 2.62178 8.1435 -0.016421 0.301045 -0.559372
H 9.91401 11.2131 6.62546 0.291065 0.041175 -0.320992
H 1.4871 4.7876 11.8653 -0.544953 1.935761 0.501165
H 6.83551 9.47125 2.5375 -0.12539 0.263832 0.173123
H 3.98557 6.45744 7.69984 0.604388 0.166383 -0.234116
H 8.13357 9.83376 1.77085 0.206193 0.004627 0.240645
H 10.2462 4.46689 10.7583 -0.590407 0.059121 0.523999
H 4.34626 5.07391 5.59296 -0.040961 -0.293337 -1.300197
H 12.0387 6.37805 5.64749 1.4127 2.074841 0.184312
H 0.17304 7.39915 6.78212 0.232099 0.480871 1.95012
H 6.27414 6.21156 11.0835 -1.25052 -1.361519 1.262264
H 4.73968 5.97928 11.439 -0.237843 0.732451 -0.017871
H 6.73093 3.64274 3.1542 0.670712 -0.811393 0.540505
H 5.47691 6.33209 7.1318 -0.508114 0.114205 -0.054245
H 7.8166 11.2968 6.10044 -1.187773 0.306766 -0.04765
H 3.94691 2.18091 8.28252 -1.469358 -0.035463 0.444163
H 5.32273 2.75772 8.31017 0.769399 -0.126125 -0.511068
H 1.52485 3.99634 6.85915 -0.095477 -0.133771 0.095722
H 4.2761 4.10258 9.74282 -2.068414 -0.652459 -0.543633
H 2.96258 4.60556 6.96855 -0.716663 -0.786653 0.717622
H 2.78025 3.94107 8.95586 0.372952 0.17625 -0.323234
H 6.33753 11.5082 4.37739 -0.270679 0.25238 -0.297803
H 3.76986 2.12478 10.4789 0.409065 -0.787195 0.255513
H 6.91554 11.5101 11.0996 0.296603 -0.065186 0.463761
H 10.1579 11.2227 10.3226 1.202671 -0.12969 0.063591
H 3.79465 1.35485 11.8373 0.639338 -0.235644 -1.444932
H 9.2409 11.8206 7.83183 -0.135111 -0.200522 0.030955
H 2.57468 6.94193 11.4962 0.234194 -0.360794 0.165644
H 7.03806 0.00699 9.84124 0.309902 -0.228969 1.423084
H 6.53568 10.0833 0.40559 0.155849 0.048914 0.22842
H 6.86356 3.19846 9.93074 -0.099072 0.49196 -0.821033
H 5.55591 9.91611 11.5945 -1.533306 -0.201675 -0.017339
H 8.75956 11.5341 10.0981 -0.685071 -0.178581 -0.297622
H 6.42343 11.7228 2.83911 0.186123 -0.642843 -0.61058
H 10.4413 2.1413 1.60457 0.132427 0.569075 -1.038685
H 0.41887 6.87871 11.6164 -0.519355 0.101847 0.344273
H 0.84948 6.88178 0.7485 -0.991187 0.750743 2.255038
H 0.12246 7.90037 9.12943 0.175105 0.02447 -0.306677
H 9.8525 4.58902 9.23177 -0.305426 0.161764 0.015233
H 0.74346 9.15242 8.30249 -0.269358 -0.174983 0.435156
H 8.32256 1.9107 4.38331 -0.068407 0.285289 0.241992
H 9.60133 8.27596 1.15525 0.386232 0.320248 0.189677
H 7.36631 3.92989 8.58266 0.104322 0.257822 -0.015225
H 11.3157 9.77869 5.36366 0.007533 0.233824 -0.192637
H 10.3475 9.6284 1.62265 0.703354 -0.055462 -0.290457
H 7.81941 7.37508 6.70679 -2.988899 1.245398 -0.655557
H 9.27003 1.77615 2.58449 0.714757 0.062544 0.451658
H 6.28375 2.90679 0.23747 -0.078296 0.550863 -0.610434
H 5.40354 4.34864 0.15048 1.032539 -1.33056 -0.316893
H 9.01745 7.64496 7.58249 0.46849 0.639926 1.296716
H 2.39237 11.2739 1.93673 -0.17899 0.503808 -0.007241
H 5.77555 8.64988 6.83399 0.067551 -0.584893 -0.98573
H 3.23766 9.76871 4.33018 0.981595 -2.251821 -1.843786
H 6.02446 7.88859 5.41352 -0.405412 0.317351 -0.803489
H 2.04498 10.6 4.78723 2.440995 0.027507 0.825542
H 3.51323 8.11294 11.4559 0.624535 0.764024 -0.151687
H 1.20091 10.3365 1.56202 -0.909118 -0.199409 -0.152919
H 11.6191 8.27242 5.32091 -0.978716 1.116173 -0.446285
H 4.24829 11.3767 8.98047 0.499344 0.22559 -0.14214
H 0.29716 11.2098 8.22581 0.307143 -0.647119 0.230811
H 7.16379 5.76457 2.8395 -0.283657 -0.47314 0.57354
H 8.30497 6.36921 2.10355 0.337971 0.273993 0.185057
H 1.61247 11.0509 9.07412 -1.049725 -1.060563 -0.474195
O 7.48613 2.30875 11.7137 0.23743 2.191845 0.511956
O 5.85537 8.16199 3.6976 2.130191 -0.298028 0.247984
O 0.10707 6.87292 2.52909 0.560856 -2.370634 -1.293648
O 10.719 5.69609 4.28592 0.651925 0.327835 -0.481735
O 9.30912 8.43081 9.07839 0.775212 1.775438 -0.036214
O 3.58392 9.73663 11.5748 -0.875299 -0.099686 1.003137
O 7.66999 7.66665 11.014 0.337981 -1.264776 -0.239386
O 8.68075 4.64363 7.76728 0.829861 -4.010353 0.380503
O 3.16409 2.43046 1.28171 1.142967 -1.211782 0.960988
O 12.2402 1.8571 8.12584 -0.690637 -0.410639 1.923866
O 1.71804 3.88651 11.7349 -0.032116 -2.190005 0.306352
O 3.78183 2.08322 5.25822 0.804006 0.170088 0.581437
O 3.39824 8.5115 2.86023 0.397282 1.388006 -0.493947
O 4.04572 4.70358 4.69521 0.972321 0.194292 0.506845
O 3.29146 7.70229 8.6657 0.792187 -0.094513 -0.822712
O 2.26899 0.36168 2.68114 -0.874746 1.208564 0.196876
O 11.9132 10.4174 1.38028 0.187608 0.435619 -0.820628
O 11.911 0.04535 3.24911 0.206939 0.213452 -0.800375
O 10.1615 2.83569 0.06936 -1.81958 2.933775 0.248349
O 7.83212 6.46732 2.96375 0.014299 0.14728 -0.420624
O 4.61659 9.46919 7.27573 -0.096694 0.718766 0.255795
O 8.83234 2.32397 6.05255 1.94381 0.01897 0.034584
O 9.17678 11.7942 6.85223 0.280242 0.25776 0.421123
O 11.6094 11.5378 11.2335 0.551296 0.357458 -0.282675
O 2.26608 6.63155 4.17263 -3.238075 3.081539 1.737438
O 5.83675 12.1457 8.52764 -0.226126 0.815795 -0.625391
O 11.6448 7.17061 10.3508 -0.880243 2.225784 0.53261
O 1.13932 1.97081 5.54982 0.676808 -0.429252 -0.13996
O 12.1625 2.05169 11.051 -0.093957 -0.16274 -1.061401
O 4.613 5.87628 7.18612 -0.353056 -0.319981 0.037644
O 7.24079 10.1906 2.01189 -0.399651 -0.207345 -0.268262
O 0.24476 7.20297 5.85549 -1.300832 -2.71076 -1.830037
O 5.60839 5.56065 11.5306 1.389287 1.009158 -1.142004
O 6.09852 4.31694 2.93049 -0.562147 0.550141 -1.056269
O 3.49107 7.17241 11.1978 -0.883193 -0.842674 0.123946
O 2.29122 4.03717 7.44105 0.769418 1.069432 -1.016171
O 3.36543 3.63317 9.68446 2.251283 0.613645 1.272903
O 6.87355 11.0155 5.83411 1.417729 1.482208 0.343084
O 11.1258 3.14956 4.72624 0.710095 0.43716 1.469159
O 4.12804 1.28485 10.8877 -1.238829 0.878636 1.226628
O 7.45315 12.2739 10.7731 -0.934413 0.111432 -2.223332
O 6.46963 10.0036 11.8268 1.148197 0.232559 -0.122031
O 9.50583 11.0847 9.6226 -0.465287 0.37134 -0.151575
O 1.04838 6.56578 12.2983 1.283281 -1.030095 -2.840818
O 0.69289 8.16768 8.36232 0.060869 -0.813174 -0.459755
O 7.94705 1.71746 3.50033 0.114136 0.508876 0.065429
O 6.58661 3.55174 9.04223 -0.377893 -0.723676 1.180656
O 10.5848 4.57606 9.87717 0.860847 0.160888 -0.954352
O 9.57031 9.05979 1.73712 -0.829206 -0.595864 0.004422
O 8.64435 7.02958 6.9504 2.624782 -1.752465 -0.805142
O 10.2704 1.88492 2.51514 -0.622828 -0.46221 0.869877
O 5.49864 3.42355 0.57858 -0.725346 0.9118 0.502992
O 3.08692 10.509 4.86743 -3.053645 2.23129 1.293954
O 6.39784 8.03321 6.29058 0.400914 0.195676 1.307906
O 4.74369 2.13749 7.78219 1.231512 -0.121166 -0.495176
O 2.16125 10.4114 1.53832 1.219131 -0.578579 -0.294919
O 3.43116 11.448 9.4886 -1.650272 -0.337874 0.380438
O 10.8996 8.96273 5.04231 0.625059 -1.510581 0.255542
O 5.92356 12.0044 3.6053 0.379588 0.204258 0.846744
O 0.71595 10.5878 8.87327 1.156962 2.713907 0.456723
Na 9.44924 7.32221 4.75646 -0.592598 0.307336 -0.182696
Na 3.96979 0.2124 4.22329 -0.264464 -0.592273 -0.205557
Cl 9.41042 5.93165 0.3595 0.120195 -0.156651 0.069224
Cl 0.21129 11.195 5.84088 0.142787 0.530084 0.299199
184
energy=-999.33121006 config_type=nep2xyz pbc="T T T" virial="-14.018139263411458 7.145029543456308 0.049945185962116216 7.145029543456308 -10.655306211162095 3.9334362740024025 0.049945185962116216 3.9334362740024025 -3.340091748848456" Lattice="12.4 0.0 0.0 0.0 12.4 0.0 0.0 0.0 12.4" volume=1906.6240000000003 Properties=species:S:1:pos:R:3:force:R:3
H 0.67016 2.80737 2.93477 0.324301 0.786235 0.322528
H 1.93753 0.71835 11.3545 -0.214809 0.129334 -0.569167
H 0.01236 5.15173 3.23003 -0.407621 0.742994 -0.349662
H 0.92696 2.92048 4.49081 0.028046 0.350107 -0.272573
H 3.28188 0.99042 12.0348 0.320996 -0.116974 -0.075802
H 3.58821 5.08487 1.45207 0.398968 0.279063 -0.218368
H 4.45655 5.35765 0.04004 -0.069636 -0.382383 0.255983
H 8.39271 7.95203 2.21009 -1.2963 -0.645906 1.455246
H 9.64035 7.71314 12.2183 -0.42595 0.571949 0.603217
H 8.80149 0.12326 1.27837 -1.01195 -1.53013 -0.936431
H 9.14479 1.52516 1.65103 1.147631 -0.637658 0.100635
H 9.88699 4.15398 0.75954 1.011555 1.040141 -0.437786
H 2.61827 4.40786 0.0268 -0.826518 -0.535434 -0.33805
H 2.66132 9.88398 5.21972 0.046843 -1.324086 0.503379
H 4.62889 3.02679 3.43469 0.113662 0.211866 -0.134107
H 6.84687 2.5677 0.81605 -0.189835 0.084052 0.28701
H 5.72543 1.84916 3.27961 -0.24624 0.416287 -0.190386
H 8.00997 3.47928 0.34807 -1.895311 -0.600032 -0.166704
H 10.5098 5.28174 3.52789 -0.348936 -0.015203 0.24582
H 1.49558 8.62171 4.02787 -0.779623 -0.018967 -0.577788
H 11.8459 5.91712 1.98646 -0.193007 -0.375464 -0.196282
H 9.48099 4.51995 4.55191 0.469867 -0.26903 0.603972
H 2.57897 11.3813 3.41952 -0.080656 0.089825 0.086243
H 11.5364 11.9326 4.42996 -0.201204 0.018515 0.301715
H 1.94891 0.2184 1.22158 -0.728826 -0.305695 0.777548
H 1.95471 11.1315 1.21042 -0.85062 0.513146 0.638121
H 3.98811 10.6933 3.71178 -0.505426 0.567537 0.73305
H 3.92515 11.3504 11.7429 -0.855136 -0.797267 -0.000149
H 3.29492 7.45992 4.74269 0.679694 -1.252348 -0.320293
H 4.44465 7.02422 3.76548 0.287205 0.168645 -0.353627
H 7.65152 7.23842 4.44678 0.098862 -0.166227 0.622346
H 12.2148 9.39438 2.12192 0.35079 -0.235542 0.292562
H 10.7187 9.25932 1.6789 0.85394 0.488191 -0.087269
H 8.52542 6.2294 3.54504 -1.301701 0.702932 0.250014
H 6.46326 7.30699 2.62923 -0.99698 0.101875 -0.383152
H 1.22607 3.23038 8.79298 -0.182153 0.02122 0.497733
H 2.27495 2.23951 8.27724 1.865031 -0.598657 -0.202924
H 7.49608 2.44184 10.8101 0.717763 -0.116927 -0.950918
H 1.9009 1.66057 5.5718 -0.427673 -0.326149 0.237158
H 0.773 2.12807 6.59902 0.020949 0.354942 1.446628
H 2.67506 3.99261 3.2196 0.193988 0.654573 0.010652
H 12.1093 5.00051 12.1669 0.452589 0.154871 -0.752862
H 8.26676 1.58933 9.57556 -0.758094 0.611791 0.163436
H 5.42538 9.22304 2.8859 -0.005274 -2.220883 -0.954089
H 6.0238 10.5986 3.00964 -0.179025 0.197962 -0.403075
H 6.07954 5.11252 6.3715 -0.943099 0.745256 -0.251128
H 10.1147 11.4906 6.26575 1.470385 0.028785 0.021747
H 6.86856 0.70083 1.75002 -0.764584 -0.166663 -0.167705
H 0.32812 4.95032 7.48214 -0.963299 -0.076325 -0.736247
H 9.75597 0.98489 3.87718 -0.705878 0.44183 -0.45909
H 9.35341 4.00947 2.24393 0.147663 0.816703 1.039519
H 9.43674 2.12485 4.78234 -0.435757 0.800116 0.237469
H 3.62004 5.30512 3.44774 -0.507127 -0.131458 0.544534
H 11.6391 8.31643 4.61251 1.007319 0.251777 -0.740803
H 3.11156 8.93397 6.38084 0.824744 -0.035307 1.129056
H 4.60353 8.53917 8.04143 0.119117 -0.648937 0.077598
H 1.33966 4.28078 10.7748 -0.08776 -0.441652 -0.211632
H 6.44943 3.50209 7.15249 0.248424 -0.550151 -0.23326
H 6.74784 3.07192 5.56777 -0.093913 1.077488 1.284723
H 4.78741 5.94936 5.85499 0.483288 0.122065 0.354843
H 6.85833 6.90805 6.57764 -0.004766 -0.055596 -0.029391
H 5.48046 9.62179 7.25924 0.269706 -0.414526 -0.490801
H 0.70367 7.54908 3.24209 -0.281169 -0.654518 -0.230344
H 8.79241 3.57512 6.45729 1.384799 -0.177229 -0.292091
H 10.9322 9.42139 5.52543 0.441103 -0.714479 -0.512921
H 10.4274 3.58946 6.72597 0.005345 0.350447 0.182307
H 11.984 0.91194 4.14418 1.75182 2.024223 1.219207
H 3.94301 1.14286 6.99859 -0.301986 7.8e-05 -0.078679
H 4.48485 0.52364 8.33401 -0.387146 0.176912 -0.13136
H 7.70298 1.46891 2.6926 -1.065899 0.8375 0.19863
H 8.2236 0.24225 7.70794 0.109226 -0.1105 -0.365257
H 4.0165 1.47334 4.78589 -0.018439 0.304306 -0.19645
H 7.3544 9.18232 5.86993 -0.574944 0.293137 0.247788
H 6.36604 10.1312 5.08892 -0.147551 -0.282431 -0.009439
H 3.2547 0.08 4.8742 0.068418 1.092648 0.576505
H 11.4995 11.3166 7.07888 -0.180956 0.030665 -0.240568
H 0.48246 9.32459 9.48569 -0.157601 -0.189023 -0.192314
H 1.90539 9.4252 8.79575 -1.060539 0.605224 0.927848
H 5.46439 7.67897 1.29977 0.679915 0.159848 1.465632
H 10.6686 7.59448 6.6038 -0.10979 0.427811 -0.272287
H 10.7747 6.31783 7.39721 0.178581 -0.832886 -0.027814
H 11.3534 2.62334 1.18413 0.595149 0.081707 -0.275023
H 0.42215 2.59858 0.49935 -0.245852 0.411445 0.101709
H 10.7934 5.92629 0.017 0.745612 0.169543 -0.865119
H 8.55156 0.44604 5.31716 -0.41958 -0.281992 -0.000381
H 7.85364 11.4667 5.96287 -0.132315 -0.030245 -0.380507
H 6.20819 4.41149 11.7249 -0.102768 -0.494714 0.019174
H 6.09463 5.82084 11.0799 -0.390905 -0.581838 0.203736
H 0.0159 11.7842 11.4648 0.223398 0.118927 -0.475084
H 6.66966 2.85473 9.09064 0.185434 0.487992 -0.037382
H 10.4801 7.66485 10.8506 -0.03785 0.436413 0.274422
H 9.66094 5.72439 9.90988 -0.386596 -0.843736 -0.55442
H 11.5314 4.81545 8.29076 -0.887064 -0.400099 1.73087
H 11.7016 10.5941 12.259 0.146537 0.425704 -0.03592
H 5.32884 2.50482 8.49745 -2.437304 -2.032366 -0.664957
H 1.42578 5.35452 9.65089 -0.188013 -0.411553 -0.133083
H 2.23615 2.85868 12.1043 0.143664 -0.675906 -0.293869
H 3.20023 6.82793 12.0808 -0.611632 0.815482 -0.691553
H 3.00552 7.53949 10.5994 -0.196447 -0.535491 -0.469804
H 7.77321 6.41661 9.04298 -0.911342 1.027008 0.109551
H 6.2142 8.55696 11.6971 -0.802851 -0.175093 0.142701
H 7.07803 7.83154 9.41195 0.575131 0.681913 0.394313
H 7.90947 9.90931 10.7949 -0.092019 -0.410655 -0.325002
H 8.49749 7.23724 6.56233 -1.51652 0.003117 -0.297591
H 8.84717 4.40796 9.72067 -0.209694 -0.754923 0.257532
H 6.81426 10.1935 9.79285 0.171674 -0.935028 0.630341
H 2.50923 9.21262 12.124 0.246483 1.329359 -0.770883
H 1.0924 11.7585 9.44594 0.30391 0.267516 0.5476
H 1.02413 0.96842 9.38095 0.50054 -0.852041 0.904377
H 1.82386 10.3539 11.263 -0.009406 -0.250891 -0.498663
H 5.18425 10.8086 8.8171 -0.744295 -0.858794 -0.394547
H 7.02899 0.20546 8.73702 0.517954 -0.456497 -0.09734
H 4.75973 7.83898 11.7714 -1.589387 0.302845 -1.102845
H 5.34046 11.6936 12.1708 0.500973 -0.009546 0.413439
H 5.26173 11.8655 9.98426 -0.553783 -0.083094 0.904967
H 8.95714 11.7405 9.7072 -0.054214 -0.10908 -0.495344
H 8.54193 9.22215 1.22881 -0.56827 -0.325578 0.610565
H 10.6108 9.43047 9.48334 -0.900434 0.761865 -0.173592
H 10.1593 11.3675 10.6486 0.220366 -0.047159 0.184472
H 10.7697 7.97718 8.82217 -0.149762 0.485451 -0.46595
O 2.3593 1.2938 12.026 0.42102 -0.570205 0.798111
O 1.01678 3.4382 3.62099 -0.472084 -0.76962 -0.414124
O 3.60536 5.48539 0.52196 -0.026403 -0.06234 0.181461
O 9.45817 0.5896 1.7642 0.424763 1.835592 -0.040228
O 11.8562 5.94726 2.96239 1.265362 -0.833367 0.585023
O 9.59982 3.55679 1.43484 -1.059994 -2.34417 -0.648434
O 5.09629 2.30167 3.88342 -0.160075 -0.097054 0.903159
O 7.04567 3.20577 0.09813 2.37301 0.499656 -0.026603
O 9.58844 4.93082 3.68754 -0.423262 0.500691 -0.776731
O 0.786 8.50074 3.34263 0.903494 0.472384 0.949069
O 10.9121 8.48516 5.19544 -1.343361 0.77238 1.359559
O 11.4158 0.26837 3.80653 -1.386622 -1.898677 -0.961088
O 3.182 11.1705 4.16483 0.15902 -0.997358 -1.153491
O 4.5823 12.0484 11.6796 0.395991 0.625678 -0.465004
O 1.55117 11.8737 1.76987 1.716739 -0.30192 -1.607041
O 3.80299 6.64549 4.39767 -0.645997 1.538157 0.613835
O 7.73909 6.89726 3.54172 1.366718 -0.861342 -1.012953
O 11.5619 9.77672 1.52018 -1.429397 -0.3369 -0.101898
O 8.95289 8.43288 1.62864 2.096027 1.307492 -2.23141
O 7.86443 2.46161 9.87327 0.247629 0.118466 1.540192
O 0.91576 1.85908 5.70496 0.236206 -0.212223 -1.998641
O 5.32193 10.0346 3.37406 0.362482 1.952306 1.289127
O 6.81977 1.57094 2.2137 2.014562 -1.275161 -0.104033
O 1.3461 2.34318 8.38339 -1.703738 0.285093 0.063207
O 8.99242 1.60798 4.08066 1.18924 -0.963768 0.624096
O 3.52088 4.4567 2.96766 -0.108698 -0.775868 -0.660864
O 2.53335 8.95466 5.63341 -0.661691 1.284816 -1.927518
O 4.66739 9.4553 7.76167 -0.279348 0.881012 0.181437
O 11.3492 5.16123 0.31407 -0.78823 0.039757 1.190983
O 6.96483 3.71763 6.30724 0.138112 -0.841533 -1.094552
O 5.44726 5.87807 6.58778 0.493548 -0.842694 -0.116007
O 7.58889 7.40307 6.1456 1.852952 0.542604 0.290136
O 9.72672 3.41863 6.08786 -1.794406 -0.154306 -0.25146
O 3.99284 1.29643 7.96811 0.451683 -0.110004 0.059143
O 6.86938 10.0545 5.92031 0.307325 -0.261498 -0.055848
O 3.29181 1.0253 5.28949 0.36469 -0.849691 0.032657
O 1.242 9.92041 9.36009 0.90878 -0.566349 -0.780868
O 11.1133 11.2733 6.19162 -1.585594 -0.196553 0.054537
O 10.2897 7.14814 7.39798 -0.367267 0.654042 0.052139
O 5.55632 7.6446 2.33338 0.161711 -0.190528 -0.40089
O 12.2044 2.14061 1.08859 -0.436797 -0.43285 0.633385
O 8.45535 12.2344 6.08865 0.633896 0.048197 0.468166
O 5.61466 4.95694 11.1609 0.569257 1.496177 0.057459
O 11.583 11.4777 11.8381 -0.432704 -0.507507 0.189156
O 10.0729 7.14243 11.588 0.143287 -0.929595 -0.612917
O 11.7441 4.8589 7.37415 1.955575 0.179079 -0.619792
O 9.36715 5.05111 9.23796 0.487154 1.555024 0.492984
O 5.88425 3.23884 8.58667 1.551568 2.021342 0.20987
O 0.93961 4.52805 9.8802 0.252878 0.987427 -0.157397
O 3.05922 7.68746 11.5546 0.203868 -0.601318 1.351909
O 1.88025 3.76129 12.1256 0.105544 1.562982 0.513684
O 6.91856 6.9368 9.11003 0.523809 -1.918979 -0.21142
O 5.56309 8.03144 12.2237 2.40338 0.085513 0.535189
O 7.15284 9.44853 10.3632 -0.013151 1.217246 -0.497507
O 2.4673 10.2224 11.9678 0.082445 -0.876264 1.195877
O 1.17894 0.16869 10.0036 -0.748969 0.45133 -1.293062
O 8.01102 0.25306 8.66726 -0.497697 0.23227 0.182981
O 5.50319 11.6784 9.06775 0.782816 0.966266 -0.186155
O 9.51929 11.0051 10.0118 0.320263 -0.343918 0.462232
O 11.0194 8.57317 9.57211 1.011588 -1.014731 0.400676
Na 11.6912 12.2128 1.59474 -0.20078 0.240415 0.080207
Na 5.15037 5.45982 8.99016 0.108834 -0.269346 -0.50551
Cl 7.05319 11.0363 0.88955 0.209932 0.347576 0.121817
Cl 3.01295 6.77257 8.60532 -0.371243 0.364472 0.117713
184
energy=-998.59236818 config_type=nep2xyz pbc="T T T" virial="-9.105720223538325 -4.511203422834116 -3.0279016110047206 -4.511203422834116 -3.5109549797381545 0.07310299675131758 -3.0279016110047206 0.07310299675131758 -1.016492231239467" Lattice="12.4 0.0 0.0 0.0 12.4 0.0 0.0 0.0 12.4" volume=1906.6240000000003 Properties=species:S:1:pos:R:3:force:R:3
H 10.1445 2.1043 0.46211 -0.062752 -0.055301 0.24611
H 3.03917 6.39056 4.86388 -0.076626 0.138713 -0.539024
H 10.9541 1.76246 3.85112 -0.922195 -0.821987 0.855638
H 10.8938 2.60888 2.50648 0.222602 -0.265204 0.207471
H 9.766 3.54342 0.86794 -0.144802 0.320509 0.134533
H 1.22295 2.64729 10.5594 -0.292981 0.380082 0.001355
H 1.74981 11.6961 2.81995 -1.063459 0.659952 -0.010517
H 2.69939 10.803 2.04817 0.450593 -0.390376 -0.650808
H 5.01985 10.2455 6.46154 -0.775084 -0.006748 0.604839
H 2.81543 6.02364 6.32762 -0.969907 -0.027678 -0.992868
H 11.9885 1.17564 7.52425 0.45974 0.915084 0.004518
H 0.63191 2.23021 7.07289 0.215372 0.698273 -1.888018
H 9.19078 7.28732 11.4277 -0.972972 0.166337 -0.302699
H 9.76419 8.63413 11.3972 -0.380315 0.357512 -0.055388
H 2.98634 9.8705 11.4506 -0.241307 -0.710662 -0.146374
H 7.76254 9.46732 10.5517 -0.463703 0.274419 -0.178442
H 6.27685 9.59845 10.0467 0.802494 -0.041955 0.15662
H 5.25912 11.7532 6.81251 -1.753933 2.481632 1.748345
H 2.22842 9.49016 10.1425 -0.110772 0.629643 -0.873371
H 7.77461 2.5783 6.36641 1.077461 -0.22712 0.216525
H 9.11224 1.75823 6.64469 -0.343312 -0.008941 0.176537
H 9.65703 4.40378 11.2973 0.064984 -0.155824 -0.375784
H 12.34826 2.99416 8.98057 -0.032036 -0.325931 0.237567
H 2.80968 2.2811 11.1471 -2.199333 0.039242 -0.276006
H 4.16131 2.77501 4.85899 -0.344077 0.131255 -0.439391
H 4.62831 2.05287 6.18708 -0.097875 -0.695851 0.770247
H 2.69292 9.50149 5.68198 0.171569 0.285215 -0.2166
H 2.11117 10.169 4.28919 0.207565 -1.382202 0.996056
H 3.79412 5.04867 2.36344 0.00608 -3.140774 -0.46458
H 0.70301 4.93702 9.53664 -0.222541 -0.343939 0.051993
H 0.67302 6.36465 10.2045 0.218527 -0.393438 -0.605565
H 5.40099 0.71561 12.004 0.050715 -0.113642 0.766901
H 9.16869 1.95176 11.0201 0.387286 0.250523 -0.122449
H 11.0609 10.1739 11.6628 0.24631 -0.854107 0.820944
H 11.0212 9.79833 0.83553 0.157357 -0.267946 -0.001551
H 8.27341 6.17461 5.76443 0.106937 0.209658 0.570261
H 0.45607 3.64818 2.29326 0.675048 -0.508756 -0.324742
H 8.42509 0.67124 11.3893 0.176391 0.033839 0.23342
H 1.06066 10.452 8.40554 0.873543 0.274372 0.46764
H 4.4733 1.70019 0.48521 0.477483 -1.328979 -0.412483
H 7.43022 11.0353 5.73455 -1.468369 0.142099 0.505713
H 1.16471 4.72604 1.5865 0.188795 1.611417 -0.386027
H 3.02048 9.93525 7.72943 0.730132 -0.500037 -0.600474
H 3.59052 8.51598 7.14362 -0.095233 1.28763 0.349235
H 10.6557 12.1438 10.7157 -0.687192 0.665545 0.260276
H 1.41071 8.12797 11.461 -0.846715 -0.591931 0.64667
H 11.1589 11.1867 9.56646 0.204984 -0.305314 -0.318912
H 6.73307 6.40388 4.03385 -0.044759 -0.075838 -0.435925
H 6.71416 6.58598 2.49473 0.298416 -0.14672 -0.344029
H 12.2002 4.42215 5.51106 0.998684 -1.506921 -0.467026
H 11.0845 5.29351 4.7702 0.378312 -0.697766 0.307894
H 6.21835 3.11457 5.19827 0.854025 0.156746 -1.024483
H 11.3375 10.6624 3.04709 0.961653 1.599431 0.469331
H 12.3262 8.13835 11.9689 -1.414317 1.295997 0.359579
H 1.41885 0.76698 11.6947 -1.238068 -1.214227 0.285161
H 9.98153 10.0273 2.68714 0.468497 -0.037192 -0.073855
H 0.28155 11.9733 11.4609 0.477052 0.29538 0.221658
H 9.71868 4.31028 9.7095 0.26591 -0.107329 0.009155
H 8.07254 9.26344 8.71171 0.65642 0.166283 -0.69673
H 11.6058 3.61748 10.2527 0.013006 -0.201995 -0.040666
H 12.2622 0.81276 2.7164 0.041298 -0.013634 -0.056631
H 2.53569 6.63172 8.46798 0.049246 -0.004669 -0.584472
H 0.2844 0.00917 1.44548 0.055225 -0.023798 -0.21372
H 7.14712 2.20367 8.33206 -0.053216 0.599821 -0.034374
H 4.74728 6.14215 2.87156 -1.018343 0.058964 -0.278119
H 1.63639 3.06229 4.96934 -0.425297 -0.105184 0.296722
H 0.17136 2.58273 4.68977 0.024646 0.130883 0.177945
H 8.1348 7.31752 7.59879 0.49603 -0.450058 -0.088992
H 8.54997 5.75948 7.64897 0.593147 -0.071594 0.309127
H 8.94049 5.78114 4.26721 -0.374012 0.373306 0.748671
H 4.09591 6.66347 8.25301 -0.30773 -0.315876 -0.494937
H 8.90507 11.5135 5.79122 -0.250268 -0.730854 -0.357344
H 3.61555 1.07319 7.82211 -0.017936 -0.521725 0.20724
H 5.17812 1.13171 8.08522 -0.311701 0.480238 -0.224416
H 9.44793 3.7247 7.48398 -0.47474 -1.070148 -0.711759
H 11.6864 10.666 7.38106 0.406956 0.585694 -0.990239
H 10.629 4.72531 7.09671 0.001096 -0.022685 -0.486319
H 10.4704 9.88196 8.11182 1.63878 0.784837 0.151949
H 5.59587 11.0697 2.01912 0.730875 -0.886689 0.622054
H 2.10698 1.05926 9.59249 0.053833 0.206411 0.377966
H 10.9426 6.60114 3.42734 -0.146088 0.124795 -0.407116
H 6.62337 1.00139 10.2968 0.191466 0.059583 0.045144
H 1.3746 0.89742 8.26412 -0.108091 -0.048061 -0.121034
H 8.54273 9.60933 7.26492 -0.545388 0.972455 -1.456232
H 6.79026 4.33288 11.3677 -0.18862 -0.164936 0.21462
H 9.97975 5.85198 2.38572 -0.140833 -0.161243 -0.221716
H 5.47937 8.05334 11.4224 0.500738 0.329343 -0.198717
H 4.72499 3.47495 11.9337 -0.326076 0.474171 0.242469
H 4.28924 8.53347 10.5082 -0.203197 0.139231 -0.037196
H 6.65996 11.8586 10.5559 0.546875 -0.181505 0.096162
H 5.73301 10.6657 0.60851 0.750506 -0.541552 0.142106
H 8.72234 0.16518 3.14405 0.189223 0.522289 0.417141
H 1.15158 6.98326 0.93902 0.295021 0.360775 -1.002587
H 2.21225 6.50069 2.12045 0.160387 0.361531 -0.319412
H 1.12862 10.7123 6.12859 -0.299097 0.458151 -0.552194
H 5.9083 3.09831 9.05124 1.334573 -1.106162 -0.173904
H 0.00824 11.8769 5.90256 0.339996 -0.267954 -0.135795
H 7.49528 4.16744 4.83615 -0.130217 -0.164259 0.21539
H 6.88955 3.34205 3.06467 -0.10776 0.035152 1.010861
H 3.42594 3.50749 0.55719 -0.26099 0.660179 0.382866
H 11.5663 8.37838 3.19783 -0.497602 1.6889 -0.57587
H 7.19619 3.99169 1.72001 -0.958203 -0.570854 0.17267
H 6.21006 6.50799 8.22279 1.596229 -0.079816 -1.2623
H 8.62394 1.65079 3.88331 -0.155869 -1.271024 -1.193968
H 6.8921 8.61686 0.7061 -0.555121 -0.721613 -0.469703
H 5.63257 7.91995 1.15539 -0.830118 -0.001681 0.845275
H 5.54564 7.19741 9.52167 0.086273 -1.473038 -0.855634
H 3.75697 11.9004 0.31461 -0.225085 -1.085215 0.050082
H 8.26411 10.4449 3.76498 -0.202164 -0.165345 1.69965
H 4.03756 11.8625 3.27568 -0.62381 -0.335353 0.59164
H 7.58111 10.3815 2.34986 0.643493 0.164388 0.07903
H 5.1563 11.7681 4.52452 -0.757677 -0.158676 -2.193671
H 5.74449 4.99969 10.3697 0.414847 -2.747163 1.728136
H 2.34372 11.2495 0.16974 -0.309665 0.369435 -0.296118
H 0.1821 7.26486 2.6952 0.934 -0.143464 -0.485132
H 2.13539 11.5495 8.91355 -0.4431 -0.074397 -0.407437
H 11.9183 8.42195 8.22788 0.034619 0.129255 0.048968
H 2.88515 4.40816 4.52673 -0.251845 -0.788198 -0.54257
H 2.18164 3.67207 3.33487 -0.302531 0.262216 -1.209443
H 0.11571 6.96417 8.18848 0.000628 -0.245078 0.442097
O 11.4392 2.38978 3.33589 0.71905 0.796432 -1.122915
O 2.37494 5.93197 5.39614 1.314528 0.050336 1.374597
O 2.5326 11.1453 2.92991 0.336056 -0.048704 0.840349
O 0.24719 1.84568 7.85174 -1.553514 -1.372683 0.564573
O 8.97528 8.16246 11.0332 1.080644 -0.34642 0.631219
O 2.67306 9.08777 10.9038 0.633186 0.033418 0.896488
O 7.16686 10.0513 10.0095 -0.111459 -0.286699 0.245411
O 8.40506 2.27925 7.09653 -0.72043 0.296274 -0.640393
O 1.87997 1.95397 10.8384 2.85954 -0.213882 1.011349
O 9.98444 3.86076 10.5359 -0.305357 0.211121 0.177657
O 0.0942 3.36796 9.87875 -0.256916 0.839951 0.121267
O 4.8722 2.68292 5.50014 0.359085 0.708733 -0.300498
O 1.96942 9.46383 5.01672 -0.551082 0.79325 -0.824298
O 3.78129 5.94437 2.54476 0.991424 3.098333 0.926616
O 0.88188 5.88061 9.3587 0.202382 1.133844 0.742923
O 4.89231 0.74881 0.45951 -0.252654 0.835563 -0.080722
O 11.1096 9.40808 12.3385 -0.22952 0.956548 -0.990096
O 9.28727 1.13295 11.5257 -0.015634 -0.156618 -0.270738
O 1.34469 3.85225 1.91168 -1.13955 -1.172119 0.665917
O 2.83689 3.53378 4.02794 0.944298 0.793585 1.55585
O 3.67767 9.51696 7.04308 -1.094137 -1.414333 0.771078
O 11.1401 11.3391 10.5325 0.404433 0.14337 0.624735
O 8.70311 9.00494 7.97242 -0.029388 -0.822253 1.738933
O 0.64805 7.54786 11.8159 2.393532 -0.720424 -1.034121
O 6.14419 6.6502 3.26472 0.139657 0.135744 0.612368
O 5.58417 11.0223 6.37406 2.903561 -1.674165 -2.857816
O 11.6412 5.18126 5.57371 -1.338625 2.074765 0.315865
O 10.9753 9.90371 2.63373 -1.477881 -1.468881 -0.6161
O 0.95838 12.3143 12.0954 0.384598 0.508399 -0.225236
O 3.21851 6.80472 7.77296 0.20117 -0.09405 0.93509
O 0.16521 12.3319 2.41309 0.052712 0.147494 0.14702
O 0.74499 2.92965 5.40551 0.197765 -0.172845 0.073852
O 7.91812 6.39859 7.2911 -0.647181 1.014359 0.371939
O 8.1518 5.75504 4.89929 -0.219201 -0.711924 -1.965344
O 5.91391 4.11327 10.9905 -0.309194 3.315016 -1.982731
O 9.9858 4.45416 7.77299 0.172387 1.242199 1.187906
O 11.3935 10.3362 8.22704 -2.565747 -1.577125 0.668589
O 8.31961 10.7258 5.6077 1.535697 0.373334 0.04846
O 10.4145 2.84385 1.04328 0.177925 -0.158665 -0.23803
O 2.15642 0.54351 8.7528 1.05385 0.301154 -0.136426
O 10.2279 5.89261 3.31809 -0.413241 -0.553392 0.27144
O 5.25928 8.35184 10.4936 -0.608651 -0.419222 0.079959
O 6.81244 0.32337 10.9906 -0.763883 0.116381 -0.572837
O 1.28418 6.65994 1.84073 -0.114499 -0.885795 0.660053
O 0.71844 11.5372 6.48533 -0.091212 -0.310708 0.287517
O 7.16274 3.2331 4.7499 -0.160237 -0.053224 0.917313
O 3.91786 3.01359 12.3111 0.486575 -0.568659 -0.755358
O 6.40779 2.23964 8.97943 -0.825986 -0.072297 0.31195
O 6.49219 3.45767 2.1886 0.796903 0.413056 -1.375824
O 5.59201 6.32202 8.90593 -1.675955 1.243348 2.609582
O 8.53372 1.12184 3.03515 -0.09752 0.45693 0.838591
O 6.26064 7.90356 0.44663 1.117726 0.414551 -0.203443
O 4.98194 11.8644 3.50722 1.758807 0.525624 1.655154
O 8.43153 10.5285 2.83628 -0.16932 0.238836 -1.45192
O 4.49496 1.00595 7.38941 0.209119 -0.29303 0.388523
O 3.28116 10.9901 0.30874 0.396833 0.994304 -0.022794
O 1.95672 10.548 8.81031 -0.534771 -1.38893 -0.23147
O 11.9993 7.56321 3.41868 -0.045107 -0.632404 1.476139
O 6.18555 10.482 1.46046 -1.692713 1.360438 -0.528033
O 12.2602 7.73103 7.65345 0.192911 -0.011703 -0.873427
Na 0.51463 7.2655 5.39687 0.015974 0.170009 0.482079
Na 6.44942 1.04338 2.30642 -0.359184 0.21233 -0.148267
Cl 8.58828 5.34023 0.46506 -0.007933 -0.094777 0.0035
Cl 10.5673 0.47612 5.64832 -0.241569 0.114243 0.122668
184
energy=-997.84971814 config_type=nep2xyz pbc="T T T" virial="-6.369623688773074 1.9978669395401194 6.391412975286449 1.9978669395401194 -12.336520433698176 -3.094911699675837 6.391412975286449 -3.094911699675837 -17.45561043964328" Lattice="12.4 0.0 0.0 0.0 12.4 0.0 0.0 0.0 12.4" volume=1906.6240000000003 Properties=species:S:1:pos:R:3:force:R:3
H 11.7227 3.68196 5.4156 -0.279712 -0.195973 -0.964922
H 1.54673 5.57154 3.07472 1.792189 1.044071 0.411635
H 9.8781 0.12079 3.20861 0.390331 0.395166 -0.049262
H 8.5114 11.7675 3.13469 -0.158774 -0.088556 -0.350311
H 10.5503 4.03499 4.39463 0.527416 -0.229225 -0.153989
H 0.61842 5.36807 10.38 1.533572 -0.71559 -0.452079
H 1.69623 12.2231 2.72915 -0.743062 0.254753 -0.267983
H 1.61365 1.2701 3.22769 1.345458 2.028159 1.340217
H 3.97791 0.15213 8.71674 -0.69959 0.237292 0.296968
H 0.23298 4.83553 3.46261 0.955795 -0.237017 -1.905426
H 11.6142 3.34798 7.53595 0.017668 -1.142477 -0.323404
H 11.8046 4.82215 7.35605 0.492271 0.700935 -0.233969
H 8.66188 4.23993 1.34888 -0.684333 0.693106 0.002707
H 9.04555 5.70873 1.10462 -0.37816 0.304811 -0.048971
H 3.36799 11.0617 2.81402 0.221483 0.069973 -0.101783
H 6.76727 8.09052 9.69006 0.846519 -0.38998 -0.330221
H 6.97246 9.51145 9.38476 0.516362 0.67071 0.031669
H 5.3258 11.9728 9.09932 0.606107 -0.451233 0.074526
H 2.47109 10.2299 1.79677 0.02503 0.008526 0.200978
H 9.06987 12.3547 6.71329 -0.595711 0.580927 0.41374
H 9.69356 1.16224 7.43502 -0.880167 0.090876 -0.189593
H 10.778 5.50542 11.3288 -0.189662 -0.537309 -0.565908
H 12.1223 10.2152 11.3741 1.315482 -0.487856 -0.448879
H 1.47184 4.50056 11.3043 0.756481 1.046521 -1.186511
H 0.83967 0.43978 5.11702 -0.227827 -0.760024 1.45637
H 0.29949 11.5863 6.03988 0.057841 0.427384 -0.019881
H 3.42145 10.7654 8.14282 -0.156106 -0.194574 -0.923695
H 3.31417 11.0443 6.60673 0.078204 -0.162474 0.009455
H 3.11418 7.26421 3.88275 0.098217 1.692873 0.927051
H 2.52326 8.04375 10.1539 0.908917 -0.932045 -0.734092
H 2.5908 6.47143 10.0234 -0.456871 -0.793959 0.341784
H 5.01173 2.5915 11.0336 -0.367865 0.956434 -2.029561
H 7.49348 12.0177 10.9109 1.238882 1.456402 2.023205
H 9.51295 7.34414 12.3466 0.201698 0.702182 -0.304387
H 10.904 6.85464 0.60047 -0.211851 0.521712 0.270201
H 11.1665 2.03478 3.33061 -0.362345 -0.497794 -0.889605
H 1.0635 2.92918 0.23406 -0.34517 -0.250626 0.424815
H 8.6894 0.51694 11.588 1.196491 0.357683 -0.894388
H 1.53122 0.49802 11.4549 -0.728698 0.425088 0.774643
H 4.80245 2.82286 0.15376 -0.589232 0.794725 0.149976
H 8.99882 8.37624 8.1612 0.266752 -1.869055 -1.712387
H 1.15803 4.19367 1.32237 -0.104472 -0.573181 -1.717649
H 4.8699 11.4659 11.1844 -0.316423 0.402159 -0.024281
H 4.89691 0.38056 12.0184 0.459416 -0.606009 -0.292125
H 8.62421 8.93128 10.9081 -1.517655 -0.009454 -2.479065
H 1.75632 10.5361 10.5213 0.046496 -2.156619 1.429755
H 9.96197 9.36889 11.5545 0.11515 0.410485 0.09707
H 6.89693 2.56148 3.73374 1.402939 0.259479 1.275333
H 5.56329 2.71371 3.16401 -0.121641 -0.022071 -0.345826
H 12.203 7.91236 2.17542 -0.006892 -0.547691 -0.726242
H 0.21408 6.4871 1.74377 -0.015686 -0.123411 0.050298
H 3.49737 0.88684 4.37812 -0.727569 1.353897 -0.075615
H 9.75858 7.71809 5.90244 1.484446 -1.546687 -2.315194
H 2.05724 9.31129 11.6355 0.193996 0.267828 0.854362
H 12.0499 0.9409 12.3577 0.757772 0.493235 0.143385
H 9.8045 6.54446 4.65753 0.261445 0.629992 0.554567
H 0.79862 0.73378 1.04799 0.15114 -0.199103 1.394961
H 10.9841 4.05697 10.5988 -0.141991 0.563243 0.160754
H 0.28053 7.62978 8.32479 -0.063815 0.754175 -0.280737
H 11.1724 11.4448 11.3678 0.193176 -1.12177 0.668781
H 10.4203 10.5625 2.72156 0.716804 0.476422 -1.058988
H 5.54916 8.75801 6.39307 1.31158 1.233475 0.036171
H 11.1911 10.3473 1.25703 -0.163278 0.133439 0.170226
H 7.00547 10.89 8.14537 0.251372 0.915501 0.45092
H 4.05505 6.79318 2.72244 0.412187 0.780255 -0.319319
H 1.94452 5.2579 6.357 0.149922 -1.481154 -0.854632
H 1.85542 5.97491 7.63478 -0.153544 0.038085 0.670383
H 5.88153 4.2099 4.97266 -0.523977 0.049089 -0.655638
H 6.67391 3.11027 5.82374 -0.440155 0.172425 -0.176756
H 11.7092 0.75991 2.6114 -0.475691 0.814593 -0.210385
H 5.62718 7.23316 6.34492 0.508241 -0.241421 0.280625
H 8.44921 7.0491 7.51278 -0.800826 -0.429966 -0.091848
H 6.44967 11.9645 3.12876 0.144867 -0.014942 -0.693623
H 6.84641 10.9397 1.91084 0.397486 1.982111 0.53566
H 10.7231 6.76193 7.83315 -0.614862 0.676175 -0.454244
H 9.43129 11.0841 4.99291 0.232446 -0.011442 0.766696
H 11.2025 6.04248 9.11713 0.522679 0.103055 -0.927065
H 10.3745 10.5927 6.19533 0.050549 -0.358591 -0.039665
H 5.50077 7.06033 0.88631 -0.43774 1.389196 0.255815
H 2.27137 1.85708 8.28602 -0.172921 0.131257 0.052888
H 12.3678 9.61531 7.01332 0.429118 -0.784142 0.477261
H 6.23815 10.7667 0.18064 -0.224986 -0.025153 0.274775
H 2.0058 0.48685 7.53047 -0.237011 0.134243 0.212497
H 0.84602 8.90794 9.1581 -0.073801 -1.125925 -2.386273
H 7.72375 10.0695 6.19724 0.777055 0.090529 -0.264908
H 12.1162 9.65491 5.40905 -0.094107 -0.382556 0.357731
H 5.67816 6.48488 10.6058 0.263538 -0.28451 -0.127271
H 1.207 3.66842 7.91195 0.216305 -0.086664 -0.362695
H 4.57832 6.99405 9.63397 0.56646 0.115269 0.008831
H 7.42349 9.73906 0.37596 1.225567 -0.334811 -0.527611
H 5.74435 8.70889 1.19491 -1.187739 -1.931999 0.144991
H 8.84738 5.05856 3.02292 0.536435 0.121205 1.455022
H 3.48095 8.4282 0.87901 -0.624554 0.027457 0.312627
H 1.91354 8.11345 1.14631 0.296971 0.269772 -0.18049
H 11.7334 1.17824 8.25065 -0.166531 0.132076 0.208921
H 7.50162 12.2631 8.6988 0.85281 0.880746 -0.70776
H 11.9165 1.13263 6.72693 -0.286276 0.284038 0.55814
H 3.27307 2.18148 5.26033 -0.516006 0.050678 -0.253089
H 6.75463 5.65124 0.25634 -0.023978 -0.691357 0.113979
H 1.98355 3.9849 9.19469 0.132041 0.204608 0.190821
H 11.3996 8.26235 4.18468 0.24426 0.1209 0.323403
H 5.27188 5.08495 12.3324 0.083073 -0.211378 0.570936
H 6.93239 5.25682 6.88706 -0.299649 -1.02486 -0.45227
H 8.37226 4.807 4.52436 0.82285 0.092849 -0.256693
H 3.1798 9.63178 4.22927 0.205446 -1.137643 0.679973
H 1.89084 9.01122 4.08994 -1.375374 -0.440344 -0.043326
H 6.37048 6.0638 8.17489 0.526135 0.029692 -0.657314
H 3.60618 3.41242 3.9369 -1.31725 -1.479947 0.646942
H 9.7925 2.28626 1.62014 0.438543 -0.130289 0.529497
H 6.09168 0.8049 5.73156 -0.577317 -1.402481 -1.154988
H 9.61045 2.70916 0.16338 -0.405844 0.247455 0.858614
H 7.26676 1.24662 6.68548 0.389169 -0.207356 -0.101795
H 6.36765 10.5319 5.52061 0.375154 -0.268574 0.835125
H 3.83637 4.9658 3.7689 0.076965 -0.250038 -0.149584
H 11.8851 9.49474 3.18232 0.231174 -0.69178 0.963623
H 2.19089 0.41569 10.0045 -0.476218 -0.689969 0.619832
H 4.65373 3.50988 6.17903 -1.597319 -0.001341 0.387913
H 4.14729 4.1697 2.03123 0.289512 -0.191462 0.348088
H 3.11628 3.78542 0.98755 -0.690728 0.09367 -0.666368
H 3.34096 3.36451 7.14421 0.303972 0.524692 -1.244394
O 9.44069 11.6908 3.47148 -0.608454 -0.407402 0.215516
O 0.87056 5.06239 2.66656 -2.731298 -1.057981 1.526053
O 1.11299 0.65686 2.74654 -0.836518 -2.510489 -0.953541
O 12.1678 3.96555 7.03597 -0.24624 1.009039 0.478474
O 8.27989 5.18674 1.47847 0.53075 -0.807611 0.344416
O 2.4556 10.8873 2.53615 0.094851 -0.127688 0.006265
O 7.52483 8.73645 9.52688 -1.361825 -0.622297 0.311794
O 8.78586 0.80564 7.19656 1.201115 -0.96389 -0.165958
O 1.58744 5.02783 10.3847 -2.384319 -0.259708 2.084135
O 11.0813 5.0349 10.5012 0.192853 0.153387 0.608963
O 11.3591 10.5683 11.8126 -1.366767 1.508768 -0.272882
O 0.6463 0.12903 6.05544 0.261833 0.225625 -1.486633
O 3.04784 10.4095 7.28706 0.320393 0.50154 0.953293
O 3.28223 6.58139 3.24845 -0.422227 -2.52608 -0.635257
O 3.05055 7.2713 9.7511 -0.792726 1.821806 0.189045
O 5.16402 2.2361 11.8709 0.883585 -1.729316 2.200334
O 10.0249 6.57654 0.25103 0.51974 -1.017405 -0.284151
O 7.85119 0.10428 11.7474 -2.037172 -1.581216 -1.16087
O 1.33538 3.86004 0.35275 0.173707 0.377147 1.249013
O 4.0367 4.06109 1.06188 0.542543 -0.051259 -0.688792
O 5.28171 11.8697 11.9645 -0.697656 0.131803 -0.024323
O 9.12217 8.90511 11.6899 1.023358 -0.247604 2.616852
O 0.75984 8.50189 8.2013 0.177433 0.679434 2.485542
O 1.62518 9.50629 10.7913 -0.418018 2.386932 -1.998477
O 6.41849 2.29178 2.97793 -1.301219 0.005428 -0.945646
O 4.38393 11.8889 9.3004 0.235662 -0.044803 -0.354036
O 12.2927 7.33206 1.3653 0.414194 0.590923 0.917855
O 10.3119 7.29063 5.07838 -1.486833 0.916574 1.471884
O 0.59558 1.11145 0.1981 -0.96514 0.722888 -1.309235
O 5.02535 7.97981 6.32743 -1.457042 -1.196086 -0.1578
O 11.288 10.3968 2.22711 -0.531269 0.042896 0.250398
O 2.00677 6.12361 6.70495 0.193644 1.624549 0.233274
O 6.58691 4.08377 5.60398 0.910553 -0.547954 0.439602
O 10.9285 1.38657 2.5892 0.806296 0.016605 1.53569
O 6.76561 10.0775 6.31019 -0.953026 0.544799 -0.245397
O 11.5292 6.41063 8.23308 0.031749 -1.17716 1.399491
O 9.4459 10.8285 5.96593 -0.729563 0.493468 -0.486923
O 9.21683 7.63856 7.46747 0.109369 2.193506 1.785789
O 11.4326 3.56294 4.45523 -0.01104 0.520533 0.632979
O 2.34057 0.87916 8.36156 0.276761 -0.037379 -0.677124
O 11.8821 10.0473 6.30158 0.181171 1.077284 -0.871187
O 5.55888 6.77546 9.67562 -0.146112 0.246574 0.024046
O 6.58875 10.0132 0.73674 -0.758363 -0.20044 0.136997
O 2.54445 8.79978 0.84211 0.526428 -0.412396 -0.180847
O 11.3884 1.60443 7.45237 0.19255 -0.857889 -0.10335
O 2.93567 1.74166 4.42789 1.042287 -1.315713 0.275425
O 2.10205 3.53851 8.32075 -0.332174 -0.285417 -0.057606
O 7.14756 11.4277 8.97915 -1.012743 -1.368276 -0.401766
O 5.93669 5.75811 12.1282 0.207312 0.621221 -0.001915
O 6.92828 6.08854 7.34612 -0.232836 1.347651 1.308503
O 9.20991 4.98773 4.0252 -1.882971 -0.101883 -1.307237
O 2.71516 8.80499 4.5288 0.814953 1.449984 -0.114136
O 6.40031 1.48897 6.29074 0.369829 1.918686 1.155673
O 9.26284 2.90493 1.09557 -0.022621 -0.764718 -1.556181
O 7.03298 11.8924 2.32952 -0.109687 -1.350577 0.264572
O 4.18662 4.05275 3.5709 1.411067 2.034861 -0.092817
O 1.91278 12.3036 10.8087 1.116792 -0.874871 -1.825015
O 12.1743 8.85549 3.96015 -0.158773 0.199861 -0.971933
O 5.13821 7.86301 1.38167 0.992935 0.589724 -0.684665
O 3.6504 3.48104 6.18414 1.271008 -0.322389 1.37238
Na 3.03512 8.20805 7.13009 -0.620558 -0.192922 -0.204581
Na 6.83016 1.38212 1.02181 0.39205 -0.314102 -0.367779
Cl 10.4525 1.75701 10.9553 0.145118 -0.099836 -0.101517
Cl 4.89605 11.8105 4.32532 -0.35556 -0.334634 0.494126
184
energy=-999.14452739 config_type=nep2xyz pbc="T T T" virial="-0.5608807492891259 2.5535353963700107 0.5838957575451976 2.5535353963700107 -5.556684568298915 -0.7022790575097275 0.5838957575451976 -0.7022790575097275 -10.692922778430681" Lattice="12.4 0.0 0.0 0.0 12.4 0.0 0.0 0.0 12.4" volume=1906.6240000000003 Properties=species:S:1:pos:R:3:force:R:3
H 4.37557 0.32892 2.79745 0.991445 0.715704 0.321281
H 7.01465 2.9123 2.38854 -0.35068 -0.684711 -0.611744
H 7.63116 12.0484 11.8791 -0.22937 -2.003337 -0.866535
H 8.82727 0.25993 0.31426 0.055561 -0.293675 -0.116942
H 3.83426 11.3207 3.0038 0.164627 -0.6068 0.78787
H 2.61415 5.45612 1.62411 -0.159174 0.156019 -0.160766
H 12.1872 2.9469 3.28024 -1.516749 0.321182 0.064967
H 1.0482 3.85869 3.15068 0.009178 0.42453 -0.386557
H 4.39241 10.8878 7.84188 0.257407 0.661075 -0.23255
H 6.71813 4.50409 2.01928 0.629217 -0.687968 0.139066
H 0.8213 12.0431 4.75301 -0.815645 0.634757 0.420211
H 12.2002 0.93973 4.80553 0.703509 -0.604684 0.358865
H 5.93235 8.27911 6.05121 -1.373259 0.209951 0.64792
H 6.87893 7.0551 5.83664 0.368305 0.341353 0.121437
H 0.81378 11.8392 0.52484 -0.270254 0.603787 -0.177171
H 10.2351 7.41257 0.67816 -1.213267 1.653095 -0.020573
H 9.85767 8.75738 12.3373 -0.119536 -0.365362 0.324459
H 4.01975 11.307 9.34475 -0.535327 -0.438592 -0.866236
H 0.84993 0.95175 0.0349 -0.309244 0.193092 -0.254043
H 10.2573 6.17597 4.49027 -1.376115 -1.439649 1.250728
H 11.3236 6.32772 3.49122 0.255126 0.430854 -0.244215
H 10.7419 3.69901 8.82055 -0.188028 0.310732 -0.439095
H 0.94412 4.93642 9.91528 0.293135 0.047022 -0.026341
H 2.71796 5.34273 3.25876 0.688681 0.449983 0.274623
H 6.03998 3.91923 4.12195 0.076311 0.436134 1.144475
H 5.34415 3.68683 5.62998 0.017195 -0.277841 -0.182155
H 5.02056 8.29665 2.75875 0.129195 -0.149782 0.38059
H 3.40637 8.36414 2.61309 -0.364354 0.115984 -0.456382
H 4.42493 1.96721 6.97178 -0.784171 -1.079034 -0.218067
H 1.9036 5.72526 11.9792 -0.818516 -0.596981 -1.475997
H 3.26791 6.57076 12.0811 -0.659341 -0.146571 -0.356353
H 2.66549 1.46445 6.03263 -0.204939 -0.042843 -0.496045
H 7.44319 10.5285 10.0322 -0.288797 0.052369 -1.085655
H 1.04147 9.38859 9.49441 0.711837 -0.730547 -0.83522
H 0.77458 10.9363 9.52038 0.251454 0.247591 -0.246031
H 6.89059 0.93933 1.34827 0.669735 -0.598058 -0.438231
H 11.0649 11.6996 4.10401 -0.315697 -0.076653 -0.331333
H 8.50178 10.2356 10.9848 1.356772 -0.611824 0.299894
H 5.95936 9.95505 11.9589 0.318035 -0.21043 -0.22276
H 3.08746 12.3403 5.78845 -0.098513 0.148542 0.224817
H 6.68861 1.8792 6.9611 0.096617 -0.402915 0.506807
H 10.3001 12.0087 2.80119 0.239657 0.102016 -1.019504
H 2.97573 10.2339 4.95357 0.88926 0.405794 0.293664
H 4.0332 9.33372 4.31884 0.384443 0.744888 -0.115764
H 9.73761 3.70958 5.00171 0.305427 1.35964 1.136033
H 0.82835 0.45832 8.26601 -0.877382 0.327251 -1.547923
H 10.3143 4.17711 6.42145 -0.20078 0.311717 -0.301442
H 0.88806 2.04535 6.27695 0.270902 0.91641 -1.641127
H 1.41575 2.82798 4.82201 -0.825669 -0.895036 1.989924
H 2.0673 7.57469 1.22819 0.214726 0.871648 0.181827
H 1.90908 9.1391 1.00381 0.078252 -0.051346 0.497156
H 8.14687 0.63339 5.61623 -0.766864 -0.521755 -1.187485
H 11.376 1.81038 7.38643 -0.152717 -0.113906 -0.604464
H 2.15763 12.0765 8.60406 0.152448 0.08508 -0.402381
H 10.2307 1.06811 1.60823 -0.273817 2.334886 0.813783
H 11.14 0.3403 6.79166 -0.383667 -0.227134 0.329009
H 11.2911 0.25809 0.8209 -0.092684 0.096328 0.412207
H 12.1269 3.93705 8.039 -0.63921 0.145112 -0.18497
H 1.80818 5.14751 7.59868 0.121689 0.43924 -0.568006
H 0.03456 4.74932 11.2219 1.073005 0.879671 -0.435802
H 4.49632 5.53047 4.42897 -1.077944 0.341199 0.429963
H 8.30178 5.09687 6.21649 0.312582 0.094522 -0.144686
H 3.85045 6.96106 3.97357 -0.005991 -0.934632 0.162544
H 6.8615 5.83363 10.0872 1.786805 0.666178 -0.943164
H 5.15901 2.83206 8.14582 0.030022 -0.656544 -1.481213
H 9.16988 3.23352 3.2589 0.036397 -0.416508 0.007394
H 9.14078 1.90594 4.05078 -0.902883 -0.956564 0.345691
H 6.92589 7.86714 1.83148 -0.18378 -0.548634 -0.489177
H 7.08905 9.00002 2.86679 -0.142139 0.469045 0.19378
H 7.20327 0.66956 2.90876 0.247316 -0.273585 0.205676
H 6.77887 4.96551 6.04447 -0.506451 -0.279429 -0.461648
H 7.82185 1.24164 7.9109 -0.164265 0.272084 0.441962
H 6.58775 6.00144 12.3646 0.334298 -0.198739 -0.934087
H 8.02753 6.1307 0.68937 -0.943585 -0.136574 -0.480449
H 2.68458 6.38609 5.83663 0.032542 -0.085179 0.427355
H 10.8942 7.91143 8.21494 0.215675 -0.186391 -0.564454
H 1.35509 6.91568 6.39593 -2.523015 0.895144 -0.608691
H 9.46833 7.5519 8.76377 -0.621524 -1.243845 0.343274
H 5.39162 10.8167 5.93817 -0.427663 0.311349 -0.52443
H 1.60143 1.3495 10.534 -0.229871 1.078198 1.213546
H 8.11576 1.21011 10.6341 -0.494994 0.863357 -0.2898
H 9.45529 4.27889 10.8217 -0.185578 -0.338636 -1.104048
H 1.25893 2.85587 10.9143 0.026552 -0.027285 0.411791
H 1.70436 3.56128 7.76983 -0.150226 1.51454 0.089115
H 4.33271 11.0457 11.6634 0.234278 0.062919 0.137785
H 7.07723 2.28833 9.9406 -0.433315 -0.124166 0.071098
H 7.43093 9.35347 4.82607 1.081688 -0.195788 -0.818919
H 5.27007 2.73623 10.4934 -1.229423 -0.41715 1.348542
H 8.21093 10.6044 4.27803 0.022519 0.963443 0.126307
H 8.88221 3.08612 9.79663 -0.264451 0.623824 0.526783
H 6.06042 12.1245 6.64726 -0.205533 -1.537547 0.072223
H 10.4174 10.5801 6.88686 -0.166943 0.587702 0.046959
H 10.8152 10.1664 10.8503 -0.353489 -0.380915 -0.078987
H 10.2173 9.11227 9.88038 -0.258065 -0.320324 -0.04343
H 4.55587 8.30724 11.2249 0.183571 0.317109 0.462326
H 5.48491 6.28611 10.4968 -1.101364 0.696415 0.012158
H 3.69883 7.78208 10.0109 -0.075416 -0.302757 0.172193
H 8.92637 12.25561 4.44249 -0.455079 0.366479 0.083393
H 0.56946 5.17472 2.22523 0.808875 0.306706 -0.308141
H 6.00094 3.9698 9.90575 -0.477513 0.379792 0.289694
H 8.4861 9.35994 8.14305 0.602175 -0.329135 0.213678
H 11.5635 5.52025 1.60074 0.101348 -0.305152 -0.04004
H 8.72014 5.37474 9.24575 -0.62358 1.186208 0.131265
H 9.09394 11.1498 7.50687 1.443743 0.420139 -0.720367
H 3.13529 3.63824 2.10442 -0.380409 -0.348579 -0.134187
H 4.40101 3.00219 2.49527 0.839693 -0.45413 0.353362
H 7.88391 6.18781 8.17121 0.192527 -0.017001 0.631328
H 4.28441 2.21416 0.35162 -0.648224 -0.027914 -0.849009
H 3.25976 9.22549 8.51318 -0.372177 0.319282 -0.184402
H 1.19054 10.1723 11.5417 0.073983 0.417767 -0.239693
H 2.59966 8.0123 7.73117 0.055855 -0.55433 -0.394063
H 2.46877 10.7557 12.1877 1.680016 0.792643 -0.663776
H 4.14474 0.18604 11.2943 -0.155922 -0.087064 0.316359
H 3.16974 2.23553 11.6135 0.070999 -0.119956 0.299879
H 7.24681 10.1759 7.69934 1.205119 0.622519 0.988708
H 5.47275 9.3157 0.84467 0.0621 -0.085489 0.177954
H 12.314 8.6432 6.03438 -0.312174 -1.052815 -0.025106
H 0.59484 9.64156 4.02336 0.07807 0.277902 0.540224
H 0.79718 8.5957 2.93822 0.872143 -0.489968 -0.868678
H 11.4509 7.33715 5.46849 1.501978 1.18084 1.219336
O 7.96252 0.42632 12.2895 0.269739 2.20367 0.854579
O 7.00458 3.83205 2.68794 -0.303095 1.354437 0.483117
O 0.72352 2.98061 3.34929 1.671479 -0.909644 0.033555
O 0.42212 0.41522 4.26261 -0.073276 -0.147088 -0.940347
O 6.74359 8.02391 5.65757 0.920075 -0.46813 -0.421641
O 0.40552 0.35845 0.67487 0.802989 -0.807386 0.180024
O 9.71646 8.28856 0.79961 1.275957 -1.376219 -0.080066
O 10.6654 6.86402 4.00397 0.643609 1.009397 -0.542995
O 2.38874 4.91574 2.42794 -0.698043 -0.15357 -0.28737
O 11.1816 3.63342 7.93924 0.650768 -0.298449 0.428208
O 0.96156 4.98869 10.8913 -1.657912 -1.286289 0.263825
O 5.71823 4.3314 4.99488 -0.315345 -0.410595 -1.060216
O 4.14638 8.17039 3.23162 0.332872 0.13236 0.139272
O 5.16187 2.53695 7.16096 0.866252 1.88405 1.346532
O 2.5039 6.16859 0.16679 1.677565 1.181199 1.930619
O 3.39213 0.80553 6.09039 0.454274 -0.009902 0.126911
O 0.62748 10.0914 9.97604 -0.920529 0.311668 1.153959
O 7.5976 10.5474 10.9725 -1.538975 0.440491 0.959808
O 10.2177 11.5329 3.63552 0.351215 -0.617232 1.31762
O 0.12876 9.09844 3.38266 -1.472111 0.432831 0.247766
O 3.94834 10.2577 4.71642 -1.097194 -0.755024 0.039377
O 9.80294 4.51469 5.63965 0.171896 -1.471678 -0.577648
O 1.41487 4.43971 8.1418 -0.120758 -1.799322 0.509335
O 1.37639 0.14915 8.96179 0.855711 -0.337731 1.873604
O 1.5405 2.66859 5.83305 0.040404 -0.240493 0.272959
O 3.64647 11.0136 8.45581 0.161631 -0.047512 1.365139
O 2.14111 8.46184 1.69734 -0.430325 -0.979647 -1.041435
O 11.6897 1.14399 6.72778 0.45691 0.610211 0.498931
O 10.3754 0.22813 1.24481 -0.179379 -1.839247 -1.075669
O 7.44893 5.50273 6.48988 0.468821 0.744762 0.648783
O 3.62317 6.03646 4.38498 0.907551 0.022969 0.000409
O 9.73163 2.57987 3.72525 0.534318 1.224399 -0.700326
O 6.44385 8.59974 2.24114 0.306503 0.091969 -0.228011
O 6.74944 1.21573 2.25817 -0.838751 0.938615 0.41978
O 3.85242 11.6707 11.0901 0.096383 0.15613 -0.190558
O 2.17799 6.57109 6.67157 2.303051 -0.885174 0.076997
O 10.0759 8.27298 8.56623 0.324242 1.030369 -0.213249
O 7.39126 1.18042 7.05034 0.097531 -0.136922 -0.730795
O 3.72009 12.1214 2.49577 -1.326818 0.029399 -1.009628
O 1.53545 2.00909 11.3259 0.037221 -0.971367 -2.256903
O 7.95787 1.8637 9.89924 1.272398 -1.390034 -0.106453
O 8.05673 9.68317 4.10479 -0.850046 -1.216879 0.526376
O 9.21789 4.04161 9.86899 0.752663 -0.180788 0.401493
O 10.0517 9.56331 10.7522 0.781782 0.857176 0.589364
O 4.16234 7.50845 10.8457 -0.136613 -0.288574 -0.600007
O 8.04942 0.29489 4.65415 1.291457 0.339744 0.810683
O 5.70439 3.05503 9.71328 0.810325 0.439318 -1.242402
O 6.11827 5.578 10.6144 -0.576219 -1.152006 1.001585
O 12.074 5.43424 2.43687 -0.938983 0.176631 -0.150065
O 8.26451 6.30551 9.08664 0.282551 -1.155376 -1.015489
O 9.94159 11.4307 6.98094 -0.703291 -0.854209 0.448121
O 3.60953 2.75351 2.02103 -0.147817 0.038052 -0.081659
O 1.58343 10.523 12.38829 -1.734686 -1.133239 0.804238
O 2.82489 8.35521 8.60382 0.189407 0.433317 0.988558
O 7.04776 6.1215 0.80224 0.763381 0.189785 1.530485
O 4.11364 2.03116 11.7878 1.032039 -0.074954 0.424045
O 5.15494 9.57242 12.3594 0.188223 0.447018 -0.27785
O 8.06365 10.21 8.31573 -2.327679 -0.099062 -1.503357
O 5.80047 11.1534 6.74461 0.733386 0.834361 0.531352
O 12.0568 7.70087 6.23829 -0.889495 -0.073832 -1.039359
Na 10.1573 8.95142 3.09939 0.179357 0.057075 -0.004699
Na 1.72631 1.0362 2.43486 0.258086 0.079462 0.368804
Cl 10.4603 5.3011 12.1922 0.201419 0.113491 0.478118
Cl 1.03191 10.5361 6.00354 0.232634 -0.147365 0.039125
184
energy=-999.7354351 config_type=nep2xyz pbc="T T T" virial="-19.901139520122854 -4.938992211246353 -4.879752960419711 -4.938992211246353 -14.689168366587966 5.491447611080826 -4.879752960419711 5.491447611080826 -13.665774012913896" Lattice="12.4 0.0 0.0 0.0 12.4 0.0 0.0 0.0 12.4" volume=1906.6240000000003 Properties=species:S:1:pos:R:3:force:R:3
H 1.98013 2.08211 2.74347 0.339173 0.617385 -0.456602
H 0.97475 1.45127 3.68994 -0.306728 0.24077 0.0393
H 4.30022 2.06405 2.48266 -0.020275 -0.845169 -0.215061
H 12.3348 3.4192 2.06043 -0.178347 0.308906 -0.727494
H 3.73917 3.31813 2.00575 -0.649295 0.592914 -0.183801
H 5.42997 2.31136 4.04714 0.269897 -0.414403 0.107412
H 6.63 2.15216 3.08135 -0.936447 -1.003713 -0.094837
H 6.56096 12.3598 1.17938 0.262097 -0.273825 -0.183707
H 10.9921 3.21117 0.16781 -1.006388 0.357839 -1.225099
H 10.4033 3.14581 4.52069 -0.157279 -0.629412 -0.966886
H 9.37918 2.37754 3.57777 0.935907 0.430764 0.004558
H 6.68959 3.5289 5.68897 -1.063628 -0.347308 0.117708
H 2.84745 4.46964 0.4912 -0.528679 -0.095415 -0.421899
H 11.866 6.25175 3.23927 -2.350589 -0.309966 -0.841009
H 3.82174 5.47318 7.0034 -0.351408 -0.465572 -1.176964
H 2.88697 4.94987 5.71568 0.549556 0.077449 0.299057
H 1.35878 4.04293 0.53032 -1.172858 -0.157652 0.610851
H 2.1219 7.06096 11.2409 -0.748164 -0.229582 -0.422366
H 3.59395 5.71251 2.15827 0.448468 -0.818527 -0.447246
H 6.93233 6.00144 1.58537 0.344766 -0.664053 0.115934
H 3.70313 8.77937 12.219 -0.018818 -0.815788 -0.694504
H 5.07806 5.05958 1.9993 -1.661835 -0.241107 -0.477266
H 5.05228 10.7977 0.57009 -0.748909 -0.519548 -0.098898
H 3.89598 10.3945 1.5162 -0.461759 -0.332539 -0.655083
H 4.47977 7.62396 11.4306 -0.221936 -0.093108 -0.032894
H 7.00753 4.34071 1.82171 0.624308 -0.420777 -0.828507
H 11.5112 4.69151 1.61836 0.797197 -0.510335 0.052608
H 10.3306 5.7227 3.39757 0.185302 -0.052559 -0.333156
H 10.4795 7.17373 1.54302 -0.10711 0.404291 0.489813
H 8.2452 7.60951 0.77392 -0.376844 -0.14347 0.176171
H 1.91277 10.3577 2.82015 -0.053591 0.070196 0.501967
H 2.28105 12.3561 11.3724 0.241656 -0.727222 1.730209
H 1.035 0.15398 0.88769 -0.549691 0.760354 -0.59648
H 3.11512 11.5428 0.10707 -0.097014 0.361061 -0.359581
H 8.06725 9.08191 2.23486 -0.167537 0.279502 0.006704
H 7.75833 10.581 1.99546 -0.435371 0.20353 -0.317803
H 0.49545 1.25287 1.75767 0.239358 1.624746 2.22169
H 0.05009 10.7842 3.8767 0.356233 -0.223692 0.386195
H 0.07889 9.12542 3.69884 -0.062798 0.625736 0.232341
H 8.59286 10.6266 4.39896 -0.342163 -0.688429 -1.430352
H 9.37787 11.6381 5.23926 0.183227 0.447144 0.642916
H 1.46308 3.63838 4.44121 -0.106707 -0.426956 -1.291297
H 1.53282 3.37259 5.91563 0.304581 0.261385 0.474872
H 3.70498 0.54314 7.11878 0.658858 0.33829 -0.269781
H 5.16175 0.58443 6.43204 -1.106494 0.271294 0.899488
H 1.44547 12.2848 5.44013 -0.542034 0.223621 -0.27636
H 12.3056 0.34314 5.04796 1.06529 -0.495203 -0.008919
H 8.59375 3.3516 8.33979 -0.175393 1.03661 -0.08998
H 6.82771 11.7586 5.47113 -0.459062 0.176774 -0.297531
H 5.96886 0.32417 4.60642 -0.035155 0.38415 -0.848311
H 9.43925 2.0702 8.63616 0.331526 -0.08712 0.320191
H 4.78445 10.5859 5.33757 -0.141469 0.058184 -0.192801
H 10.3807 1.01997 4.78348 0.673378 -0.23295 0.81303
H 2.79649 1.91693 9.04445 0.330095 -0.143443 0.584063
H 10.7452 1.07792 6.27163 0.10009 0.262044 0.592378
H 12.1193 4.80722 5.50319 -1.026763 0.207933 0.180754
H 8.03984 3.08707 6.45123 -0.471991 0.542795 -0.656644
H 10.7087 2.27962 10.5092 0.152733 0.070242 -0.177356
H 0.92422 7.14393 4.10894 2.709018 -0.67057 -0.363099
H 3.8664 7.49613 3.27077 -0.103704 -0.271781 0.31276
H 4.69629 6.70404 5.53388 -1.302156 -1.011319 0.023218
H 4.82199 2.77187 6.12939 0.430465 -0.099494 -0.788889
H 4.74481 4.06069 5.29677 -0.22567 0.395896 0.398068
H 7.79919 5.39312 3.4532 -0.061832 0.047871 -0.382007
H 8.33788 4.64098 4.6899 0.121661 0.392131 0.045758
H 8.18683 5.80037 7.52654 0.159843 -0.456622 -0.154862
H 8.23175 6.86306 5.61231 0.22303 -0.445518 0.293031
H 12.275 7.4381 5.16628 -0.249559 -0.020328 -0.229174
H 10.8994 5.73051 5.93545 -0.005692 0.578313 0.198067
H 9.03623 5.20952 8.7157 0.593428 0.280544 0.511759
H 1.46242 5.55964 8.86564 -0.285493 0.229521 0.593161
H 2.76022 8.29766 2.63961 0.078798 -0.768836 0.149044
H 3.28635 10.1732 3.74447 -0.835521 0.134664 -0.331983
H 2.98757 11.0317 6.3432 0.035382 -0.218449 -0.178064
H 5.99617 7.36185 5.53231 -0.146607 0.610487 -0.291368
H 9.52554 9.67565 7.63521 -1.159759 -0.150364 -0.664659
H 8.52183 10.0758 6.35164 0.512404 -0.473998 1.760603
H 4.11728 9.13845 5.46796 0.307055 0.467769 -0.169896
H 8.20915 7.90115 6.82462 0.429791 0.212071 0.072447
H 10.6825 0.76965 10.1217 0.253209 1.506283 -1.130674
H 12.0407 6.6428 7.43702 0.251041 -0.20868 0.007162
H 11.6495 8.12436 7.22675 -0.177575 -0.524225 -0.175306
H 11.4197 3.62023 7.24031 0.310664 -1.667955 -0.576437
H 1.06506 2.34382 7.66277 -0.883558 0.035525 0.022762
H 1.95238 3.51283 8.11021 -0.379605 -0.327456 -0.30979
H 11.4038 2.5052 8.25766 -0.261042 -0.955312 1.569157
H 7.31512 1.4391 8.57431 0.219911 0.512237 0.044264
H 5.846 1.67967 10.513 0.155464 0.540765 0.145251
H 6.42993 2.0561 11.9126 0.479609 0.010108 0.322447
H 5.75034 1.05793 8.3473 0.121208 0.043307 0.037774
H 6.6544 12.1116 10.0381 0.655609 -0.69426 1.080278
H 8.07984 11.7145 10.4801 -0.882468 -0.72661 0.699375
H 11.1404 0.19202 0.88706 -0.404488 -0.160148 0.329374
H 10.0792 11.6524 11.5155 -0.224898 0.36589 0.252553
H 9.44787 2.85537 12.2553 0.892637 0.371724 -0.323875
H 10.233 4.61536 10.7016 0.230574 -0.133889 -0.552154
H 2.55415 0.7833 10.0532 0.740828 0.819873 -0.808515
H 4.45643 5.56033 9.02325 -0.544362 -0.219488 -0.420279
H 1.39485 5.8077 11.693 -0.145014 -0.487822 -0.212209
H 12.3376 7.4056 10.8714 0.329538 -0.438725 0.393969
H 4.05219 6.93489 8.54189 -1.074843 -1.022567 -0.086483
H 11.2314 8.4068 10.4641 -0.232254 0.753344 -0.828377
H 3.8245 9.20667 10.0808 -0.622949 -0.101287 -1.420906
H 4.67494 9.55159 8.82358 -1.441561 0.081606 0.281959
H 6.82484 7.54608 0.14558 -0.561151 -0.075485 -1.023305
H 6.12452 4.1392 10.0932 -0.324563 -0.209749 -0.001996
H 6.89474 4.99115 9.04292 0.263108 -0.081323 -0.537641
H 6.13943 6.24399 10.4842 -0.156514 0.077853 -0.370002
H 10.6635 7.74072 0.15619 0.01106 0.557757 -0.34131
H 10.7992 5.98252 10.3366 0.012725 1.039666 -0.008871
H 12.37579 5.0981 9.29291 0.408391 0.14174 -0.030316
H 2.51563 10.6259 9.3987 0.072256 -0.53405 -0.238224
H 0.87859 10.9517 9.38936 2.333639 0.404101 -0.233478
H 2.08185 11.5502 7.54804 0.204656 0.146863 -0.197539
H 6.25022 7.88268 10.2759 -0.292614 -1.376875 0.603433
H 6.87317 11.3391 0.015 0.14628 0.463685 -0.219927
H 6.7504 10.0975 9.68538 0.421469 0.778772 0.597683
H 9.56139 0.23354 1.14404 -1.396155 1.527092 0.299759
H 10.3665 11.0501 10.1394 0.5152 -0.857991 -0.98604
H 7.38311 9.33765 8.47012 -0.073804 0.287426 -0.127531
O 3.51071 2.36219 1.97862 0.7099 -0.112761 0.344942
O 1.04715 2.20165 3.02556 0.299405 -0.352879 0.995751
O 5.79044 1.67642 3.3514 0.743073 1.09013 0.219324
O 10.3382 2.43513 3.81571 -0.935744 0.416024 0.889908
O 12.1236 3.97402 1.26208 -0.54329 -0.128771 0.917626
O 7.64611 3.57768 5.68841 2.747955 -0.536212 0.533467
O 2.10307 4.11892 12.3374 1.746193 0.407184 -0.192999
O 3.80854 5.20041 6.00808 -0.085923 0.886864 0.828983
O 4.06316 4.90362 1.79037 1.325098 1.520108 0.932431
O 6.7657 5.19564 2.1707 -1.254161 1.023272 0.2342
O 3.58433 8.02406 11.5669 0.089746 1.070408 0.642641
O 4.13327 10.3787 0.543 1.029439 0.54287 0.934611
O 7.28232 7.51476 0.98695 1.207896 0.017435 0.713361
O 11.0287 5.93492 2.72626 0.993298 0.181417 0.558783
O 0.29418 0.81479 0.96344 -0.405113 -2.394231 -2.24152
O 2.85071 10.1136 2.83859 0.752575 -0.250682 0.038964
O 2.55772 12.3617 12.3354 -0.132979 -0.133012 -1.301735
O 6.62366 11.4059 0.96866 -0.231335 0.145023 0.152066
O 12.3346 10.0205 3.28656 -0.119608 -0.070638 -0.498708
O 8.37208 9.98004 2.45546 -0.08172 -0.507068 0.656798
O 8.54252 11.1283 5.20175 -0.004547 0.331006 0.529922
O 10.2771 12.064 0.94988 2.104455 -1.456238 -0.656208
O 1.58997 4.10163 5.26518 -0.658831 0.06371 0.61773
O 0.83221 0.14485 4.68495 -0.78669 -0.041152 0.328787
O 4.55836 1.06385 7.09785 0.695522 -0.379657 -0.711483
O 2.46581 11.7922 6.66474 -0.474485 0.194804 0.666927
O 5.89574 12.0156 5.26058 0.732195 -0.587197 0.761384
O 8.6091 2.39943 8.25238 -0.093551 -1.236473 -0.485946
O 10.9018 1.69998 9.72477 -0.554167 -1.424364 1.079761
O 11.1272 4.86752 5.58972 1.103906 -1.218531 -0.373715
O 5.08532 7.5171 5.20409 1.173532 0.383065 0.200336
O 5.25838 3.22408 5.34773 -1.398869 -0.7508 0.676956
O 2.97862 7.35405 2.89837 0.154198 0.830099 -0.127641
O 8.55262 5.3899 4.06498 0.49708 0.158838 0.73048
O 8.28887 5.00735 8.13743 -0.43245 0.212134 0.441139
O 0.07813 7.5126 4.18826 -1.554161 0.846324 1.083213
O 0.61598 5.20084 8.56295 -0.176938 -0.168306 -0.782882
O 8.09881 6.95759 6.57715 -0.629406 0.391906 -0.861111
O 8.60665 9.52816 7.2366 0.797422 0.442729 -0.591355
O 3.93514 10.093 5.28516 0.189961 -0.611399 0.096427
O 11.6501 7.23973 6.77096 0.256632 0.804537 0.30487
O 10.6798 0.42535 5.56088 -0.610444 0.323601 -1.514733
O 11.5877 2.62496 7.33397 0.033762 2.123423 -1.290393
O 1.97663 2.65194 7.64181 0.888856 0.48466 0.207231
O 6.51053 1.06288 8.98382 -1.013063 -0.838395 0.299166
O 5.7203 2.26818 11.2996 -0.613159 -0.054926 -0.352862
O 3.12402 1.58766 9.92697 -1.073901 -0.766534 -0.445724
O 10.2788 3.21268 11.8169 0.193353 -0.386538 1.636673
O 10.4492 5.18726 9.91706 -0.215293 -0.873244 0.486198
O 9.87409 11.7506 10.5604 -0.288543 0.474244 0.870639
O 1.29287 6.52377 11.0432 1.428974 0.806686 0.469009
O 3.70206 5.99486 8.53018 1.564172 1.232213 0.497836
O 6.02863 4.92062 9.52053 0.090569 -0.260799 0.590308
O 5.95715 7.12405 10.8936 0.719973 1.936648 -0.267674
O 10.2453 7.98254 1.01755 -0.004858 -0.892933 -0.022048
O 11.378 7.60703 10.9598 -0.354167 -0.583341 0.607167
O 1.8433 11.3302 9.34855 -2.513212 0.443778 0.267565
O 3.70077 9.48403 9.10725 2.289473 -0.48857 1.263783
O 7.12065 11.4663 10.7082 0.435987 1.503644 -1.715386
O 6.60932 9.37 9.07298 -0.649229 -1.266146 -0.286555
Na 3.41903 2.13052 12.0673 0.06189 0.063766 -0.015028
Na 10.4535 10.0421 2.07363 0.582673 -0.005454 -0.477909
Cl 8.06035 2.02974 1.20456 -0.264455 0.050592 0.195019
Cl 11.5215 9.78095 8.65684 -0.212573 0.123333 0.077571
184
energy=-999.85429892 config_type=nep2xyz pbc="T T T" virial="-5.265843409158071 2.8186839997586004 -8.125595037402558 2.8186839997586004 -10.769238832177416 -2.2630631437730857 -8.125595037402558 -2.2630631437730857 -14.71284978666531" Lattice="12.4 0.0 0.0 0.0 12.4 0.0 0.0 0.0 12.4" volume=1906.6240000000003 Properties=species:S:1:pos:R:3:force:R:3
H 1.21358 1.15493 1.21615 0.102376 0.310684 0.491427
H 3.13918 1.58539 1.4831 0.596567 0.884934 -0.36798
H 2.17542 10.3373 3.84748 0.375919 0.849419 -0.587432
H 1.56082 11.4272 2.72597 0.481412 -0.577961 0.616505
H 1.92652 0.06652 0.50084 0.28455 -0.871003 -1.017273
H 3.19801 3.98973 1.57218 -0.230967 -0.411517 0.335811
H 4.3889 2.42636 3.16348 1.087876 -0.195427 1.440098
H 4.33117 2.58056 4.81609 -0.306978 0.176776 0.11507
H 6.56161 2.95154 4.17367 -0.113838 0.351641 -0.044145
H 4.34098 2.39368 0.71672 -0.41365 -0.046461 0.244261
H 8.28208 0.58182 2.10781 0.199455 0.522701 2.282226
H 8.09644 0.1857 3.77062 -0.068972 -0.280367 -0.700496
H 11.8889 2.27698 2.22758 0.332905 -0.461817 -0.668225
H 11.5877 2.36873 0.69423 1.563241 0.059263 1.212846
H 10.0337 1.50403 3.55609 -0.001981 -0.239064 -0.486582
H 9.14149 2.77375 12.274 0.37264 -0.04723 0.068547
H 9.55729 4.2586 0.36375 0.776994 -0.814217 -0.443795
H 7.88761 2.3382 3.65255 -0.448206 1.245176 0.567711
H 11.1456 2.43561 4.2192 -0.033988 -0.548358 -0.484727
H 0.1014 4.31148 1.85191 0.864398 0.845462 1.039198
H 1.49356 4.94872 2.39543 -1.331392 0.044038 -0.434071
H 3.26779 6.11912 3.2859 0.035225 -0.449201 -0.260813
H 0.3831 6.77419 6.11976 0.263955 -0.888195 0.567638
H 3.60482 5.39929 1.23439 0.216518 0.753381 -0.139499
H 5.94424 6.98643 1.93389 0.274449 0.229545 0.801477
H 7.13271 6.59779 2.97102 -0.285298 0.055879 0.395147
H 4.6998 7.43153 0.40467 0.25241 0.603088 -0.183362
H 5.89737 6.38203 12.381 -1.395703 0.279214 0.604914
H 8.07332 4.64479 3.96537 -0.166157 1.179799 -0.675257
H 9.16999 5.60195 1.97962 -0.247662 0.178674 0.916404
H 9.90683 6.53251 0.90553 0.339335 -0.523273 0.189266
H 1.27744 7.69325 3.42784 0.277563 -0.40912 -0.062931
H 3.57997 9.53098 0.62937 0.80825 -0.406977 0.077918
H 1.54454 9.59493 1.77227 0.07106 0.638058 0.728979
H 1.45147 9.90864 0.23011 -0.320197 0.610786 -0.220406
H 3.89362 9.48596 4.82381 0.284711 -0.224172 0.038266
H 7.36572 8.59585 2.51406 0.293663 0.560663 -0.066758
H 4.82618 10.1024 12.231 -0.024946 -0.806199 0.844835
H 6.71962 11.8325 11.9808 -0.182488 -0.287552 -0.515285
H 12.2038 7.27887 3.69873 0.582855 1.023734 -0.350792
H 7.61011 10.5731 3.96848 -0.345338 -1.126312 -1.589079
H 8.46852 9.66029 1.86458 0.051042 -0.254805 -0.443736
H 9.48212 9.23204 3.84598 -0.864501 -0.037916 -0.518899
H 9.89181 8.67002 5.27071 0.546778 0.652814 -1.515288
H 1.70611 2.01803 6.84717 0.772803 0.233663 -0.220822
H 0.17402 12.2064 5.40762 -1.045294 -0.05782 -0.58579
H 0.46578 1.94151 7.76929 0.032264 0.374279 0.783933
H 3.32513 3.40697 6.74105 -0.000879 0.273465 0.130442
H 4.00817 1.97704 6.79407 -0.031841 0.808683 -0.45336
H 4.84039 0.65672 4.48896 0.235465 0.24483 0.855213
H 5.11288 0.06914 6.02973 -0.065127 0.692056 -0.568851
H 8.83544 3.63715 7.44517 -1.162568 0.634199 1.27338
H 8.34835 2.83178 5.64541 -0.508191 0.432517 -0.869673
H 11.5201 0.53618 4.3594 0.698186 -1.885181 0.330547
H 12.1014 3.13289 6.02644 -0.969925 0.607324 -0.473168
H 9.17838 1.59556 6.08058 0.292181 -0.287001 0.33494
H 10.4651 3.14887 5.89677 0.941649 0.717578 -0.300896
H 3.26427 7.43869 4.13366 -0.399765 -0.918441 -1.329954
H 1.94971 5.62517 7.60419 1.559502 -0.89317 0.173729
H 0.13522 6.92228 7.65231 -1.181757 0.437516 0.790035
H 5.52905 8.05873 4.14205 0.148583 -0.330876 -0.496484
H 7.27016 7.50814 6.55067 0.260356 -0.196868 0.308438
H 5.6242 8.38036 5.69515 -0.992507 -0.490892 -0.833805
H 5.48386 7.11497 7.90991 0.706713 0.48904 -0.661186
H 8.64496 5.93534 4.67685 -0.821293 -0.120282 -1.542509
H 8.32143 5.64504 6.92616 0.366979 -0.233738 0.792522
H 9.30123 6.94321 6.71756 -0.397071 -0.643296 0.229575
H 0.06557 5.57632 3.96799 0.395613 -0.259257 -0.395726
H 11.4724 5.34221 5.0268 -1.06562 -1.289025 1.00597
H 3.80657 11.0138 5.07425 0.5139 0.853684 -0.230197
H 6.98214 8.835 7.3434 0.744214 0.692492 0.669696
H 6.63346 11.6705 4.70975 -0.245554 -0.828753 -0.150297
H 7.96559 10.6411 8.69485 0.130772 -0.547937 -0.247631
H 9.03368 9.47254 8.34502 -1.049978 0.111204 0.005741
H 2.16698 9.87757 6.04407 -0.299236 -0.337899 0.217726
H 10.4043 12.1397 5.56448 0.830621 -0.230374 -0.396797
H 1.36978 8.74585 6.82696 0.100943 -1.688656 0.343296
H 8.81879 11.8356 5.5466 0.783389 0.526874 0.589986
H 10.6255 10.5699 8.01872 0.03298 1.156405 0.290663
H 1.96064 3.31744 10.0432 -1.607321 -1.109271 -0.132919
H 4.01119 3.24873 10.9438 0.547138 -1.116133 0.450964
H 12.2702 2.00804 9.85607 0.135294 -0.300536 0.248353
H 2.7125 4.3987 9.19702 -0.12919 -0.404102 0.245744
H 3.56044 5.57476 7.97998 0.157613 0.649316 -0.248525
H 6.2069 0.81944 7.91414 1.265883 -0.05689 -0.03314
H 4.40732 1.70209 10.9294 0.426051 1.307664 0.504385
H 8.26797 0.32735 9.10313 2.64099 1.284364 0.132701
H 5.86504 3.43717 10.0967 -0.381459 0.503223 0.039472
H 7.10774 12.2518 10.0017 0.367163 -0.158025 -1.795052
H 11.9753 3.4405 9.41397 0.958537 -0.894182 0.220551
H 10.0846 11.9295 7.4945 -0.532459 0.497055 -1.101296
H 10.3224 3.8724 10.7335 -0.161442 -0.402788 1.050667
H 2.11749 5.25078 10.895 -0.327448 0.393831 0.425086
H 0.88634 6.20326 10.6968 -0.294125 0.143213 0.013759
H 2.79303 7.64161 10.461 0.477202 0.210144 -0.113187
H 4.57504 7.1771 9.16435 -0.071502 -0.012054 -0.222714
H 3.80953 8.54658 11.1598 0.449912 0.272351 0.341246
H 7.67683 4.00794 8.57193 -1.442694 -0.572189 0.5216
H 7.93051 5.66829 12.0083 -0.463607 0.501002 -0.042391
H 5.52269 4.88534 9.3453 1.356982 -1.503805 0.309908
H 7.30172 7.91061 11.006 -0.036692 0.711846 0.48065
H 7.0033 5.40599 10.7607 -0.31282 -0.4943 -0.310771
H 10.529 8.34445 0.73453 -0.392031 1.592697 -0.068003
H 9.78157 4.27521 9.31204 0.607217 -0.229681 0.027858
H 11.201 7.36696 9.56191 0.767614 -1.400709 1.517434
H 11.2205 5.83749 9.97052 -0.209372 -0.315673 0.245908
H 10.8682 7.41496 11.9283 -0.223044 -0.179924 -2.588074
H 3.45043 11.7587 9.618 0.833229 0.332171 0.333237
H 2.81553 9.52971 9.694 0.520322 -0.756151 0.201373
H 1.5244 11.0351 10.5812 0.428653 0.150037 0.58468
H 1.99376 10.2252 8.56745 -0.65588 -0.164294 -1.349067
H 0.33081 11.8182 11.0725 -0.221242 0.233241 0.515896
H 4.83142 0.61431 8.34795 0.131135 0.10049 -0.870084
H 4.85815 11.8422 10.3375 0.821952 -0.580059 0.640122
H 7.72499 9.0127 10.0458 0.303697 0.536889 -0.906379
H 6.57217 10.5315 11.1223 0.775554 -1.557951 -0.005822
H 10.6227 0.2396 11.2152 0.084335 -0.198448 -0.733414
H 9.56285 10.7961 0.29994 -0.204927 1.330137 -0.213424
H 8.95749 9.45811 12.187 -0.14021 0.325551 -0.231956
H 10.9569 12.0963 9.69115 -0.273091 0.237514 0.34771
O 1.54531 10.5156 3.09454 -1.087226 0.321889 -0.340853
O 3.78653 2.39084 1.53539 0.040275 -0.458898 0.226817
O 4.89864 2.30302 4.06925 -0.532554 0.073437 -2.229234
O 8.34833 0.88048 3.11935 0.23016 -0.055276 -1.719005
O 12.3694 2.32292 1.35473 -2.095178 0.433062 -0.931274
O 11.0082 1.65171 3.56755 -0.054045 1.378509 1.374062
O 9.87799 3.41668 12.274 -0.744609 0.671156 0.454125
O 0.48024 5.0147 2.46353 0.297258 -0.728943 -0.921344
O 2.94593 4.92595 1.76013 0.660522 -0.625131 -0.234479
O 2.8067 6.9565 3.37144 0.816681 1.621615 1.792114
O 0.8019 6.70452 7.02766 1.454763 0.040984 -0.984233
O 6.44913 7.28537 2.759 -0.047649 -0.194509 -0.923768
O 5.05909 6.55318 0.56412 1.017779 -0.933517 -0.325596
O 8.27938 5.62974 3.76822 0.9958 -0.841598 1.595554
O 9.38017 5.70319 1.048 -0.584909 -0.199963 -0.765598
O 0.36981 8.00049 3.29236 -1.08373 -0.206404 0.149598
O 1.81736 9.29829 0.88115 0.504878 -1.029784 -1.067312
O 4.54579 9.33073 0.39342 -1.199682 1.074454 -0.970449
O 7.88597 9.46272 2.60755 -0.160747 -0.117053 0.832308
O 9.63566 9.85337 0.36737 -0.223455 -1.531555 0.286931
O 10.2378 9.03212 4.39533 -0.488964 -0.773886 1.877818
O 0.7515 1.99313 6.85487 -0.843271 -0.420608 -0.960351
O 2.76146 5.02327 7.88969 -1.619261 0.621916 -0.915639
O 11.7914 11.9845 4.83462 0.788081 1.983017 0.160459
O 3.48526 2.601 6.2227 0.015239 -0.746733 0.839878
O 7.52643 3.18061 4.14878 0.111501 -2.010813 -0.501085
O 4.97726 12.2584 5.07004 0.190228 -0.823358 -0.07791
O 9.09785 2.5774 6.20422 -0.071229 -0.488807 0.662051
O 11.3217 3.5988 5.56406 0.291718 -1.505991 0.405303
O 6.56772 8.0616 6.96523 -0.930915 -0.485129 -0.734658
O 4.97053 8.24329 4.91249 0.326675 0.625365 1.029827
O 8.53409 6.41518 6.37475 0.288587 0.837068 -0.954365
O 12.106 5.9929 4.77974 0.593837 1.264014 -0.597246
O 3.24737 10.2374 4.91155 -0.076604 -0.784857 0.502958
O 5.34224 0.91896 7.51779 -1.672042 -0.407371 1.219802
O 1.33179 9.64229 6.54787 0.036375 1.883215 -0.37294
O 9.55817 12.3872 5.98433 -2.227282 -0.322027 -0.144597
O 7.47987 11.1559 4.70362 0.356824 1.894356 1.764441
O 2.02828 0.59302 1.29275 -0.867005 0.14541 0.574111
O 2.67432 3.92958 10.1098 1.801892 1.334999 0.414526
O 4.6994 2.58784 11.3274 -1.052628 -0.491619 -1.313755
O 7.45263 12.309 9.02979 -2.804603 -1.125586 1.56419
O 0.34623 2.7641 9.47442 -1.075155 0.316683 -0.206538
O 1.6737 6.08975 11.2524 0.539598 0.082801 -0.279637
O 3.49342 8.32793 10.265 -0.676034 -1.636137 0.49801
O 8.42872 4.32673 8.09395 2.614729 -0.079448 -1.700256
O 6.24202 4.19786 9.59512 -0.997819 1.228058 -0.272025
O 4.86644 6.59385 8.43531 -0.615812 -0.676245 1.185011
O 7.16129 6.02031 11.4965 0.959554 0.129643 0.429572
O 11.0175 7.59493 0.42724 1.118448 -1.047959 2.34429
O 10.6154 4.11791 9.84208 -0.750142 1.098063 -1.382201
O 11.5234 6.71192 10.296 -0.792282 1.681757 -1.954272
O 1.18293 11.4535 11.4149 -0.113687 -0.381968 -0.552605
O 2.49188 10.3808 9.35561 -0.310691 1.607845 0.27799
O 8.07256 9.66046 8.53529 0.681731 0.526161 -0.010121
O 4.21728 12.35949 9.8648 -1.727424 0.809061 -1.207119
O 6.19952 11.3944 11.2557 -0.211427 1.37021 0.86753
O 7.444 8.89268 10.965 -0.163844 -1.181748 0.760435
O 10.468 11.5243 8.27273 0.706374 -1.908828 0.910654
O 11.2969 0.15588 10.5059 0.214366 0.327686 0.380523
Na 0.85322 7.23147 0.85601 -0.006098 -0.323647 0.385379
Na 12.1648 9.77568 4.78324 0.590047 -0.02033 -0.389036
Cl 8.62932 0.49521 0.03357 -0.066262 -0.111391 0.168756
Cl 10.6762 8.3455 7.4179 -0.109966 0.194182 0.400986
184
energy=-999.90448508 config_type=nep2xyz pbc="T T T" virial="3.9701246248056443 4.144415116490456 3.863094126224926 4.144415116490456 -3.615391232300349 4.292013434691105 3.863094126224926 4.292013434691105 -8.78821069133551" Lattice="12.4 0.0 0.0 0.0 12.4 0.0 0.0 0.0 12.4" volume=1906.6240000000003 Properties=species:S:1:pos:R:3:force:R:3
H 0.10189 3.44299 5.00978 -0.086569 -1.582998 0.065842
H 2.19491 5.40958 3.35632 1.268032 0.607259 0.41615
H 9.43331 0.70762 2.9827 0.6464 0.58439 0.017093
H 8.17406 12.371 2.37671 0.118394 -0.447456 0.449412
H 11.7349 4.67727 5.51538 -0.981913 0.428053 0.679246
H 1.25165 4.97228 10.6104 0.917867 -0.460147 0.275844
H 11.9209 11.1312 2.45544 -0.40851 -0.209538 -0.264859
H 1.00834 11.2918 2.82392 1.17996 -0.797899 0.518279
H 3.83773 0.0228 8.3567 -0.301142 -0.383417 0.048943
H 0.93436 4.54697 3.77625 0.737476 0.858657 -0.842843
H 0.38233 1.55586 7.68402 -0.929889 -0.603241 -0.408504
H 12.2866 2.6665 8.68404 -0.238881 -0.113224 0.203392
H 7.97482 4.97288 1.14018 -0.090732 1.138795 -0.331438
H 8.70484 6.33646 0.73655 1.286158 0.512897 -0.160275
H 2.2841 9.70624 2.26659 0.202575 0.246342 0.420157
H 6.75398 8.13546 9.05666 0.069115 -0.483659 0.083158
H 6.064 9.16997 8.25206 -1.319458 0.472546 -1.035382
H 5.17771 12.1937 7.68108 0.2721 -0.045393 0.099835
H 2.97511 10.4 3.57435 -0.050815 0.053652 -0.404843
H 8.09961 3.65827 5.88686 -0.020619 0.102655 0.436379
H 8.7079 2.6241 6.9067 -0.57152 0.643847 0.368337
H 11.2424 5.98208 11.7123 0.068924 -0.580925 0.108139
H 11.1399 9.74451 11.456 -0.991775 -0.402267 0.802627
H 2.28743 4.44127 11.6448 -0.309403 -0.403349 0.200233
H 1.12834 1.17168 4.77002 1.631395 0.09137 0.502766
H 12.39088 0.48681 3.87574 0.829688 0.445948 0.411943
H 4.63311 10.2148 7.30165 -0.538956 1.029037 0.465102
H 4.67605 9.16775 6.18597 0.491406 -0.177697 -0.510718
H 4.3528 6.1515 4.05603 0.51901 -0.0175 0.766577
H 3.00856 7.95704 10.2721 0.210361 0.009197 -0.26067
H 2.83077 6.45198 9.99274 0.693606 0.272096 -0.018196
H 5.40152 0.57031 11.4045 0.029477 0.328044 -0.365849
H 7.62323 0.83888 10.758 1.263567 0.321872 -0.521567
H 10.1886 7.76247 12.29892 0.154503 1.467889 -0.244167
H 10.8381 7.05545 1.18607 -0.299509 0.194978 -0.777814
H 11.3932 1.95358 3.32034 -1.405444 0.264007 -0.316921
H 1.69404 2.68313 0.77127 0.618722 0.687064 -0.783782
H 9.18816 1.30998 10.6545 -0.254858 -0.210829 0.422789
H 1.71835 0.11899 11.8428 -0.269302 0.664623 0.295705
H 5.40229 2.02071 10.7637 -0.293536 -0.006383 0.195903
H 8.85261 9.87362 5.86381 -0.269763 0.022367 -0.670796
H 1.8657 4.10634 1.34127 0.29754 0.128469 0.169753
H 4.61414 11.3768 9.92355 0.702509 -0.077698 -1.884915
H 3.65325 11.602 11.0403 0.122721 -0.232383 0.471691
H 7.92816 9.98682 9.54539 -0.056528 0.164053 0.873902
H 1.30682 10.652 10.8122 0.444562 0.715774 0.155538
H 8.38094 11.3733 10.2339 0.255548 0.210881 0.080747
H 6.24324 3.53027 4.27846 -0.83062 -0.695377 0.014391
H 6.99105 4.83673 3.90537 0.15106 -0.313605 0.509976
H 12.2052 7.88834 2.80215 0.082512 -0.561934 0.282922
H 0.5029 6.44727 2.44549 -0.597098 0.833629 -0.245592
H 3.15757 0.60745 5.55578 -0.249957 0.135025 0.198935
H 9.07753 7.59768 5.30478 0.616568 0.240669 0.163841
H 1.11345 9.32757 11.6148 0.808874 -0.367534 1.11985
H 12.328 1.52277 0.42858 -0.431728 0.079853 -0.382098
H 8.70698 6.75734 4.16004 1.278181 -0.217468 0.227615
H 0.75664 0.58625 1.36881 -0.183018 0.580023 -0.329818
H 11.4134 4.43241 11.5426 -0.303243 -0.490066 0.089266
H 0.37008 7.82436 8.46657 -0.661291 -0.692522 0.284529
H 9.55078 9.86429 11.3555 0.87828 -0.584361 0.738064
H 9.97633 10.8259 2.45548 -0.031911 0.073174 -0.358416
H 5.67512 5.66555 6.02576 1.212868 -0.128017 0.117921
H 10.4208 9.90901 1.26041 -0.293805 -0.514348 -1.863527
H 9.35096 0.40735 7.06422 -0.676662 0.273976 0.601911
H 4.08228 6.63954 2.57175 -0.498871 -0.22249 0.925458
H 1.15221 5.55099 7.99673 -0.652639 0.006776 0.469076
H 1.09347 5.01339 6.53482 -0.129917 0.006314 -0.043037
H 9.96779 4.46425 6.65296 -0.836858 0.208914 -0.223936
H 10.144 5.84432 5.76548 -0.424921 -0.543964 0.320052
H 10.5517 2.16747 2.00454 0.130429 -0.053598 -0.322201
H 4.27445 5.25717 6.25954 0.192382 0.849773 -0.688644
H 7.97315 9.09273 6.79276 -0.430843 -0.487527 -0.175324
H 6.0191 11.9971 2.62615 -0.094225 0.417561 0.507238
H 6.39196 11.4818 1.27196 0.301518 0.204775 -0.272365
H 11.2258 6.1772 8.1327 -0.212036 -0.385696 -0.128809
H 9.39077 11.6078 4.61101 -0.105512 0.15177 0.761038
H 11.7082 6.05378 9.66292 -0.372058 -0.501249 0.197566
H 10.3312 11.1989 5.8225 1.41435 -0.420065 0.273631
H 4.82195 6.75127 0.44044 0.225721 -0.145109 -0.753215
H 3.30509 2.07531 9.05875 0.358247 -0.212111 0.220629
H 12.1946 9.52647 7.17378 -0.12785 0.305762 0.197366
H 5.47815 10.349 11.9161 0.592129 -0.206446 0.834118
H 1.81388 1.76122 8.67858 1.160815 -0.614205 0.397607
H 0.80419 9.09728 9.29221 0.244641 -0.636445 -1.037252
H 6.80219 9.17909 4.80832 0.709294 0.149832 0.614078
H 11.866 9.39156 5.70765 -0.370847 0.138126 -0.612336
H 6.30511 6.31117 10.2475 -0.209808 -0.426818 0.071282
H 5.11796 3.69422 9.40844 -0.745037 -0.259734 -0.021658
H 5.06881 6.8795 9.61969 -2.040093 0.550572 0.358765
H 6.97156 10.0296 12.0871 -0.556787 -0.228728 0.386976
H 5.11597 8.28067 0.52054 0.514237 0.37949 0.013726
H 6.9021 6.60545 2.54243 0.087871 0.046988 -2.244665
H 2.94712 8.33593 0.58964 0.323734 -0.711306 0.123954
H 1.40498 8.19624 1.01303 -0.34524 -0.876895 0.546664
H 12.2695 11.8673 6.96364 0.121958 -0.382791 -0.697083
H 8.53799 0.84486 8.47584 0.666687 0.032392 -1.359562
H 12.1452 0.79818 5.96335 -0.073955 -1.270473 0.981536
H 2.9737 1.83724 6.43597 1.18856 1.872765 1.697679
H 6.48465 5.70591 12.2081 3.679224 0.614977 2.237524
H 3.65497 3.79215 10.089 -0.429317 0.607318 0.166709
H 10.8109 7.96695 4.2647 -1.188057 -0.966768 0.207198
H 5.22522 4.83978 12.35703 0.71457 0.060183 -0.15794
H 6.99131 4.20004 7.67023 0.735633 -0.123316 -0.164231
H 6.48096 7.3545 3.84648 -0.213677 0.585057 -0.115605
H 2.63358 7.50739 4.45942 0.13295 -0.175928 0.135342
H 1.6386 8.63425 4.53844 -0.064828 0.217475 0.230053
H 6.02765 5.40648 8.37894 0.811523 -2.108667 -0.469103
H 4.37687 1.83902 4.05421 0.667666 0.490042 -0.334918
H 8.59687 3.37216 2.43836 -0.656999 -0.306546 -0.644581
H 5.99182 0.35098 5.78289 0.042117 -0.044649 0.066196
H 8.83104 3.12176 0.94151 1.035423 -0.447145 -1.026662
H 7.12043 0.59334 6.88192 -0.064054 0.314667 -0.15443
H 5.58709 9.84384 4.11325 0.157409 -0.635784 0.216928
H 4.07875 3.17262 4.65287 0.246686 0.284355 -0.006344
H 11.0237 9.32608 3.41324 0.671885 -1.62151 1.134667
H 2.28776 0.51579 10.3839 -0.086445 -0.418796 0.106552
H 4.41396 3.91073 7.19748 -1.170868 -1.218901 -0.332444
H 4.67739 3.48304 2.20978 -0.12175 0.15933 0.696862
H 3.97299 3.45203 0.86144 -0.059323 -0.024609 0.173319
H 2.89346 4.18212 6.85566 -1.663163 1.088187 0.843269
O 9.00841 12.2432 2.89476 -0.419403 -0.814472 -0.138752
O 1.50749 4.86436 2.99917 -2.178759 -1.105774 -0.221399
O 0.19275 11.7875 2.70966 -0.797068 1.391875 -0.432255
O 0.62821 2.37998 8.15083 0.456456 0.793992 -0.034532
O 7.84785 5.93276 0.87646 -1.672402 -1.714329 0.62702
O 2.13734 10.1927 3.11958 0.078455 -0.48984 -0.242873
O 6.90988 8.99481 8.63531 1.728338 0.12727 0.312401
O 8.46341 3.59408 6.80728 0.252333 -0.844509 -0.754532
O 2.21118 4.72798 10.7085 -0.814111 1.136154 -0.882348
O 11.7201 5.27916 11.2032 0.154863 0.934163 -0.033614
O 10.3109 9.48907 11.9663 0.079159 1.135391 -2.042173
O 0.2367 1.28176 4.46499 -2.22112 -0.201313 -0.884925
O 4.65711 9.26817 7.14304 -0.282442 -0.917231 0.036558
O 3.66736 6.26718 3.39616 0.159161 0.764868 -1.526557
O 3.36484 7.24648 9.7113 -0.905336 -0.553785 0.354597
O 5.84384 1.45309 11.4282 0.372159 -0.644824 0.234178
O 10.1525 6.98905 0.45564 0.859258 -1.559561 1.025038
O 8.52394 0.66032 10.3374 -1.549105 0.094503 -0.229836
O 2.1913 3.56032 0.5897 -0.624806 -0.827247 1.138952
O 4.86188 3.59445 1.2679 -0.237239 -0.155445 -0.613236
O 4.5873 11.2924 10.8693 -0.400159 0.190348 1.832254
O 8.3006 10.4122 10.3744 -0.034517 -0.612702 -0.160031
O 0.87955 8.63568 8.38855 0.579764 1.470525 0.523633
O 0.90533 9.77404 10.8043 -1.283525 -0.177333 -1.260304
O 7.09028 3.96583 4.36165 0.964302 1.072512 -0.315359
O 4.5137 11.7069 8.24507 -0.003676 0.788384 -0.378497
O 0.02377 7.24854 2.07047 0.595387 -0.591086 -0.192267
O 9.53826 6.93017 4.72763 -2.281241 0.20486 -0.415022
O 0.84103 1.2764 0.65099 0.488531 -0.903387 0.925233
O 4.80386 6.02323 5.9155 -1.423461 -0.393931 0.149539
O 10.6213 10.1325 2.15941 -0.152474 1.020346 2.005111
O 1.68524 5.39029 7.22121 0.902189 0.293857 -0.510223
O 10.5559 5.20319 6.41058 0.885723 0.698653 0.105804
O 10.4543 2.05768 2.96291 1.321705 0.151405 0.485266
O 5.94259 8.9752 4.42498 -0.979634 0.258399 -0.592367
O 11.8545 6.47563 8.80301 0.514314 0.23384 -0.386774
O 9.45357 11.4777 5.59381 -1.070334 0.204947 -0.949737
O 8.24067 9.08893 5.84898 0.442876 0.25072 0.977334
O 0.20839 4.35522 5.22672 1.251472 0.452583 -0.57402
O 2.71799 1.29697 8.95937 -0.946864 0.413371 -0.022607
O 11.6747 9.97367 6.46321 0.575141 -0.354268 0.558655
O 5.9607 6.65398 9.41118 1.973932 -0.209821 -0.563941
O 6.13448 9.98254 0.21819 -0.086303 0.626893 -1.466273
O 2.09359 8.78453 0.69464 -0.392463 1.293029 -0.225552
O 11.9808 0.37904 6.88153 -0.286715 1.500893 -0.351909
O 2.5152 1.2813 5.85673 -0.893957 -2.354081 -2.21106
O 4.35627 3.19528 9.81311 1.435027 -0.196398 -0.272821
O 8.64855 0.97559 7.47229 0.336568 -0.320267 1.018096
O 5.69755 5.49896 11.8014 -4.097802 -0.874239 -1.561872
O 6.12782 4.40852 8.04799 -1.731531 1.980669 0.740994
O 7.04739 6.6642 3.46223 0.39569 -0.574472 2.256641
O 2.09773 7.99823 5.10799 0.184161 -0.07188 -0.131142
O 6.16809 0.72457 6.66213 -0.227521 -0.25725 0.124578
O 8.12706 3.23805 1.57432 0.119213 0.723716 1.712526
O 6.55276 12.2732 1.85202 -0.31926 -0.968484 -0.427172
O 4.66243 2.78652 3.96752 -0.979716 -0.821519 0.398352
O 2.15251 12.1705 11.0574 0.164284 0.029903 -0.717015
O 11.4517 8.64593 4.09198 0.839265 2.46359 -1.440931
O 4.45908 7.60257 0.72582 -0.458398 0.025367 0.675726
O 3.58035 3.54704 6.73241 3.249173 -0.171888 0.033352
Na 2.90333 7.74495 7.40552 -0.341858 0.101133 -0.248183
Na 6.43639 1.94755 1.25602 -0.463235 0.129271 -0.506439
Cl 10.4643 2.19595 12.0393 0.101514 0.509445 0.320128
Cl 4.70822 11.8166 4.25264 -0.197166 0.067449 -0.151833
184
energy=-997.50247321 config_type=nep2xyz pbc="T T T" virial="-16.44396159431913 0.6833934225033232 -0.9173515726141656 0.6833934225033232 3.1029562423754773 -3.6017416901753676 -0.9173515726141656 -3.6017416901753676 -20.668191426618" Lattice="12.4 0.0 0.0 0.0 12.4 0.0 0.0 0.0 12.4" volume=1906.6240000000003 Properties=species:S:1:pos:R:3:force:R:3
H 4.66528 2.68025 11.8172 -0.337386 -0.785744 1.934336
H 4.02289 1.26124 1.49694 0.165032 1.676988 -1.456876
H 2.34043 2.0673 0.22232 0.062398 -0.145581 -0.364916
H 5.39569 2.98039 0.74195 0.333402 0.091879 0.246726
H 7.70105 2.01144 0.95226 -0.01041 -1.029008 0.121158
H 8.04761 0.73529 0.17434 0.144193 -0.017893 -0.028037
H 5.5534 3.14002 3.48415 -0.499667 -0.432908 0.734785
H 7.19024 12.329 5.07071 -0.521082 0.197909 -0.968424
H 4.14612 3.87752 9.88846 -0.036191 -0.465165 -0.701975
H 0.78444 2.33687 12.3552 1.251779 -0.441306 0.274268
H 10.9539 4.50359 4.85562 0.18668 -0.839507 -0.405081
H 11.9469 3.52938 4.08181 -0.695729 0.110997 0.525665
H 7.43299 2.81923 8.01045 -0.037512 -0.109277 -0.714442
H 11.0419 0.59501 1.917 1.250351 -0.195834 0.264499
H 1.70057 4.73866 0.0461 -0.284819 0.602336 -1.462209
H 2.20577 5.5405 11.119 -0.812251 -0.55988 0.606965
H 5.18538 7.07301 4.61096 -0.380056 -0.225203 -0.425891
H 11.8257 4.97163 1.40252 1.799791 -3.66427 -0.495123
H 3.72376 6.48312 4.28729 1.209563 0.405678 -0.671274
H 11.6797 6.32962 1.01094 -0.509557 0.717321 0.48283
H 5.78787 9.83065 4.47951 -0.157011 0.187176 1.214298
H 4.82404 2.78892 4.89073 0.28645 0.238859 -0.136758
H 7.67505 4.13981 3.65301 0.141797 -0.284837 1.454014
H 7.264 3.2466 11.697 0.232338 0.373613 1.165667
H 8.34291 3.14759 4.76805 0.30381 -0.357812 -0.312899
H 4.41103 6.61943 11.9594 0.315504 -0.295581 -0.4197
H 7.92947 4.05628 0.54934 -0.558437 -0.180644 -0.479784
H 9.72429 5.65493 0.9554 0.017142 0.130311 0.27441
H 2.99897 11.9899 2.16158 -1.714762 -1.763844 -0.890161
H 12.3823 0.0754 3.53918 0.483945 0.488285 1.229952
H 2.70133 10.3573 1.97194 -0.102459 0.51232 0.279703
H 4.51925 0.94484 2.94353 -0.509139 0.209092 -0.575151
H 6.18464 7.61073 0.83328 -0.419231 -0.378225 -0.014926
H 7.94686 9.38869 3.71692 -1.639039 -0.072361 -0.764206
H 11.8295 8.25968 12.035 -1.292874 3.903442 -0.591408
H 0.55227 11.778 2.29237 0.988459 -0.465307 -0.304206
H 7.00544 8.81647 2.55169 -0.15073 -0.592579 -0.70774
H 7.68353 8.86482 12.0241 0.447111 0.072614 0.513041
H 8.94117 1.05114 4.39498 -0.641011 -0.56824 0.095622
H 9.1233 9.41755 11.5929 0.192504 -0.32939 0.340044
H 1.17131 0.86821 5.55479 -0.667451 0.149773 -1.198364
H 2.15368 9.80326 4.48937 0.09459 0.214673 0.856505
H 3.46498 9.9541 5.26057 0.231262 0.142039 0.256261
H 5.73632 11.1982 12.2696 0.122452 -0.942598 1.333567
H 0.92043 1.70928 4.24018 0.656881 1.168654 -0.762528
H 6.35297 0.81678 4.08681 0.750804 -0.274535 0.018864
H 3.88841 2.96722 6.83599 -0.13184 -0.240382 0.107387
H 8.46765 5.19107 5.65522 -0.352183 -0.430895 0.060424
H 9.46299 6.21207 5.30105 1.35918 0.546396 -0.982153
H 7.10353 3.01454 6.47373 0.166172 0.035108 0.36998
H 0.21031 6.9556 7.01685 -0.108433 -0.499014 -0.542353
H 0.26301 5.38437 6.79441 -0.209424 -0.688366 0.50527
H 3.10175 4.67021 5.34251 0.734733 -0.194429 -0.018254
H 1.95614 5.63672 5.37728 -0.433066 0.53475 -0.116167
H 5.82615 10.4418 5.97954 0.586934 1.006637 0.222762
H 11.7497 6.57082 4.92102 -1.766411 -0.42562 -1.057338
H 5.78612 8.27274 5.80292 0.660547 0.03805 0.141697
H 6.15448 5.0762 1.43587 -0.337215 0.510225 0.252945
H 5.64811 5.80054 2.81785 -0.140121 -0.269359 -0.724965
H 7.5132 9.13793 9.49271 0.551513 0.28886 1.95548
H 2.03401 3.60511 3.44817 -1.432387 -0.397288 -0.421105
H 7.14704 7.38503 5.69726 -0.716442 0.157692 0.117038
H 11.1134 6.14201 3.38386 -0.188135 0.945678 1.870761
H 10.0818 9.63362 3.46152 0.351291 0.362381 -0.905959
H 2.39859 0.06595 11.1427 -0.890572 -1.261174 0.394868
H 1.53651 11.4989 7.84009 0.126346 0.277381 0.31097
H 7.65757 7.2605 1.21399 0.061741 -0.252574 -0.113992
H 6.8353 0.86884 6.8578 0.346123 2.368756 0.595609
H 7.52703 11.9387 7.23496 -0.824015 0.643061 -0.873839
H 4.41112 9.23228 7.50912 0.121308 -0.052455 0.224529
H 10.4695 11.8309 7.15439 -1.390848 -1.202148 -0.549483
H 12.0554 11.8967 7.27048 -1.645322 0.567329 0.277435
H 9.43314 10.2701 6.0117 -0.475425 0.879154 0.788202
H 9.81527 8.26298 4.21979 0.463137 0.39424 -0.200622
H 3.00285 1.084 10.2482 0.397455 -0.149526 0.858332
H 9.95062 2.14069 4.11835 0.647667 0.406321 -0.101734
H 12.2471 3.92397 8.89603 0.223124 -0.610765 -0.896687
H 1.81158 10.8268 0.1006 0.051095 -0.531532 -1.00841
H 0.11545 4.53273 10.8608 -1.291485 0.029057 -0.209865
H 11.6392 1.66591 12.2585 -0.974715 -0.331052 0.826403
H 5.16302 11.7359 1.1525 -0.734638 0.764929 0.816741
H 5.00885 4.14589 6.71081 -0.87557 -0.891898 -0.462453
H 4.22864 2.55314 8.95855 -0.892087 -0.371984 -0.850774
H 4.69842 12.1124 10.8213 -0.107553 0.293936 0.264818
H 7.4508 12.12 10.953 -0.01357 0.003971 -0.379599
H 10.8834 4.53667 10.3384 -0.679841 1.156826 0.33504
H 9.71964 1.21495 1.51072 0.303108 0.397971 -0.621418
H 0.85882 3.04969 7.99406 -0.328707 0.441846 0.105556
H 7.30145 2.01025 10.1721 0.103671 1.863747 -0.351886
H 6.25323 3.23189 9.8843 0.450638 -0.545887 -0.169607
H 8.84136 4.55481 9.95883 0.064484 1.168723 -0.211576
H 1.35492 2.9556 2.19399 0.084699 -0.518264 -1.053145
H 8.95403 0.07663 10.5578 0.010462 0.219062 0.392653
H 12.0166 9.04647 7.33259 -0.168496 -0.142251 0.523317
H 11.0233 7.9755 8.05561 0.256377 0.573151 -0.046127
H 5.65951 5.41573 8.50172 0.144755 0.083604 -0.689233
H 4.15517 7.47155 0.77216 0.153668 0.035397 0.594143
H 6.40718 5.828 7.19407 0.455542 2.249565 -1.200373
H 9.38335 6.80414 7.51375 -0.512201 -1.023382 -1.219167
H 8.49248 7.80578 8.30316 -1.055536 1.006797 -0.134262
H 9.43103 6.11163 9.74579 -0.594279 0.047311 -1.125856
H 2.1291 7.73305 10.0255 0.963217 -0.526158 0.468645
H 0.97451 8.28538 9.34319 -0.784744 0.73381 0.183053
H 8.83636 10.2652 7.43968 -0.536628 -0.851675 0.956482
H 9.05725 5.83692 11.9771 -0.253991 -0.154669 0.539848
H 10.9092 10.8143 11.6197 -0.364699 0.299988 -0.656911
H 1.64407 10.5383 6.63569 -0.864512 0.290136 0.450389
H 12.2834 10.3545 12.0432 -0.417219 -0.405378 -0.078697
H 1.76477 9.77864 11.1872 -0.010844 -0.017071 0.133044
H 11.885 2.39471 10.9397 -0.727431 1.861469 -1.219822
H 4.20301 8.35139 3.06376 0.324259 -0.566233 0.241261
H 4.10057 8.41204 8.72069 -2.498614 -2.570633 1.65121
H 4.81549 9.48214 2.12415 0.501689 0.279069 -0.179984
H 10.3992 11.51 2.37356 -0.283655 -0.44664 -0.031441
H 6.54555 9.02035 8.35154 0.670437 0.134168 -0.020124
H 5.17691 11.0495 9.90297 -0.065327 -1.141949 -1.178866
H 10.3407 10.4517 1.30263 -1.140728 0.782448 0.424068
H 0.45502 7.21846 11.6486 -0.722885 0.069332 0.508345
H 10.897 12.0484 9.55348 0.047894 -0.136001 -0.63412
H 11.3826 0.29909 10.8786 -1.187691 -0.246055 -0.51824
O 4.63972 2.47683 0.41774 -0.175706 0.706626 -2.405213
O 4.09188 0.5733 2.13129 0.443708 -1.671058 2.270372
O 1.54961 2.48288 0.58186 -0.464589 0.889916 0.323971
O 7.92311 1.03135 1.10237 0.168116 0.788892 0.166115
O 4.58278 3.0082 9.71382 0.794202 1.101448 1.76057
O 5.18071 2.41468 4.04463 0.465116 -0.273518 -1.17842
O 11.1352 3.54664 4.66399 1.078128 1.199165 -0.292821
O 10.6994 1.37305 1.46918 -1.279874 0.656866 -0.318688
O 1.38819 5.26513 11.6476 1.229621 -0.406693 0.628056
O 4.52642 6.98049 3.87161 -0.527325 -0.64855 0.939119
O 7.25205 3.36619 0.3142 0.495682 0.838375 -0.811127
O 7.8725 3.98121 4.62281 -0.605836 0.600597 -1.040397
O 4.76747 6.78913 0.44728 -0.612563 0.419739 -0.24833
O 5.30188 9.92043 5.38238 -0.251089 -1.136771 -1.475627
O 11.3392 5.67611 1.70213 -1.278509 3.155383 0.080013
O 2.23233 11.2246 1.90439 1.631339 1.004071 0.22852
O 12.1411 11.991 2.75589 -1.553705 -0.685995 -0.751966
O 6.99538 9.4172 3.31379 1.64241 1.108041 2.031817
O 8.18009 9.44544 11.4246 -0.680049 0.290608 -0.880713
O 9.55922 1.63857 4.83771 -0.463243 -0.206748 -0.057366
O 12.0627 7.40071 12.2033 1.625779 -4.078646 0.344009
O 0.55662 1.01433 4.77777 0.205495 -0.904991 2.357061
O 7.06931 0.12633 4.07928 -0.249593 0.564011 1.308667
O 8.93321 5.95628 6.04296 -1.014723 0.066227 0.886739
O 2.50055 9.91284 5.40403 -0.1201 -0.311763 -1.191237
O 4.37323 3.51946 6.19858 0.697439 1.386121 0.77106
O 7.54583 2.4259 7.11044 -0.198891 0.413353 0.475353
O 1.192 3.16834 3.1215 1.161168 0.902562 1.721163
O 11.1662 0.001 7.42824 3.295093 0.73563 0.649405
O 0.29797 6.22629 6.33248 0.402583 0.938217 -0.068101
O 2.68528 5.36206 4.7992 -0.405622 -0.386489 0.316578
O 6.0772 5.01975 2.39544 0.42541 -0.593641 0.902733
O 6.19336 7.37956 5.93782 0.493402 -0.131204 -0.037527
O 9.60743 9.22122 4.17637 -0.790268 -0.789987 1.414722
O 10.888 6.51591 4.33285 1.892558 -0.459888 -1.069112
O 1.00422 10.8519 7.36263 0.685691 -0.348112 -0.845772
O 6.9898 7.96736 1.25421 0.713386 0.063054 -0.535033
O 6.78197 12.3445 6.7183 0.467494 -3.352266 0.23702
O 3.13668 0.66344 11.1439 0.494673 1.189252 -1.457082
O 9.16606 10.8623 6.77869 0.72737 -0.7026 -1.9017
O 11.7012 4.05184 10.4788 2.424104 -0.931468 0.063743
O 0.09287 3.67109 7.94136 0.121667 -0.118769 0.375763
O 5.7331 11.0249 0.87476 0.533187 -0.168588 -1.808578
O 5.46872 11.5254 10.66 0.03169 1.074635 0.794251
O 8.09259 0.44686 10.8768 -0.261158 -0.075646 -0.211355
O 7.22884 3.0328 10.0001 -0.144498 -1.75485 0.504107
O 11.9603 8.27447 7.9246 0.007695 -0.330614 -0.099869
O 7.50763 9.19276 8.55143 -1.285457 -0.185445 -1.66873
O 6.12494 5.10164 7.69456 -0.978902 -2.368592 1.666867
O 9.30177 7.30602 8.31525 2.005312 -0.225887 1.47789
O 8.84952 5.82162 0.54758 -0.013368 -0.17797 -0.663198
O 9.43473 5.28693 10.2509 -0.049229 -1.131217 0.988511
O 1.43666 8.37427 10.1996 -0.028021 -0.503566 -0.792133
O 11.314 10.0989 12.1308 0.642097 -0.119967 0.720986
O 1.50645 10.6433 11.5546 -0.044673 1.09897 1.395265
O 12.1151 1.61676 11.4187 0.790233 -1.642044 0.695262
O 4.0116 9.04057 2.39873 -0.969959 0.466839 -0.608442
O 4.74445 8.94807 8.3769 2.463005 2.749998 -1.954651
O 9.71227 10.9563 1.93148 1.697771 -0.824221 -0.40605
O 10.642 12.1096 10.4815 0.799373 0.422258 0.495236
Na 7.52581 11.5574 2.21402 -0.054911 -0.412026 -0.302821
Na 11.1658 2.04796 6.49789 0.003192 0.091686 -0.250044
Cl 2.60494 1.39453 7.79226 -0.092808 0.175633 0.075639
Cl 3.8005 6.05712 9.81865 -0.105733 0.129563 0.182324
184
energy=-1000.43807868 config_type=nep2xyz pbc="T T T" virial="-18.61297736981521 -3.675653901281087 3.3806357680461994 -3.675653901281087 -17.152440661808907 3.656494561419518 3.3806357680461994 3.656494561419518 -7.539426339538379" Lattice="12.4 0.0 0.0 0.0 12.4 0.0 0.0 0.0 12.4" volume=1906.6240000000003 Properties=species:S:1:pos:R:3:force:R:3
H 12.0381 5.59272 3.88269 -0.054388 -0.611452 -0.189167
H 10.7884 7.43021 1.40025 0.484918 0.194223 -0.340336
H 12.1598 0.77006 3.17024 -0.049072 0.288136 0.032955
H 0.08558 0.72757 1.60989 -0.098504 0.076128 0.322852
H 10.8893 5.67247 2.92821 -1.183366 1.012626 -1.136522
H 0.686 5.77538 10.464 0.314217 0.027391 0.47482
H 3.00371 10.3292 4.26322 -0.347858 -0.448108 -0.025553
H 1.5649 9.8579 3.6599 0.287468 -0.183391 0.421242
H 2.8054 11.5145 11.2173 -0.042491 0.207216 -0.561411
H 9.47946 7.52625 2.1661 -0.347847 0.046013 0.280667
H 11.2861 2.83927 7.9631 -0.263474 0.726181 0.272054
H 10.0493 3.70742 8.4895 0.139159 0.099142 -0.429032
H 9.11248 4.34515 12.26511 0.104592 -0.0714 0.208529
H 9.66706 5.60545 0.61874 0.100052 0.224497 0.14514
H 3.52995 1.87929 3.00789 -0.513414 -0.881072 0.71959
H 7.11552 8.4253 7.84804 -0.671557 0.648463 -0.107413
H 6.30032 9.49919 8.73053 -0.081971 0.265049 -0.329788
H 4.29832 10.954 10.9654 -0.199256 -0.152061 -0.286655
H 2.28441 0.89201 2.97811 0.102506 0.50665 0.494898
H 6.94296 0.8028 8.0744 -0.443681 0.376286 -0.153798
H 8.45514 0.28296 8.20651 -0.421475 0.307173 0.606006
H 10.9711 5.35882 10.9803 -0.011551 0.342377 -0.143584
H 1.70375 11.0105 7.13766 0.621353 1.892237 0.284101
H 2.16251 5.56354 11.1755 0.208834 -1.465863 0.886669
H 9.39532 11.936 6.56431 0.213495 0.1614 0.868696
H 10.2048 11.054 7.65396 -0.300856 0.891087 -0.306549
H 6.19027 10.2896 6.60709 0.380549 -1.150316 0.60302
H 5.71022 11.7435 6.63506 0.147561 -0.014611 -0.691075
H 3.93815 8.4854 1.67339 -1.553052 -2.01088 0.390455
H 2.80233 6.41817 7.76122 -0.207323 -0.704854 0.400745
H 1.97608 5.77121 9.05404 1.747471 -0.522155 -1.338157
H 3.8469 12.2117 3.908 0.907481 -0.609909 0.47134
H 4.59588 1.63107 11.7142 0.358347 -2.237971 1.205029
H 8.92421 8.88692 10.607 0.58861 -0.653711 -0.492603
H 8.8345 10.1702 11.4638 0.125983 0.026098 0.026105
H 11.2557 3.32722 4.22435 0.034455 -0.438656 0.078333
H 1.75862 4.33795 0.51458 -0.098813 -0.416673 -0.376085
H 4.45838 0.06654 12.115 -0.851043 -0.642776 -0.392551
H 0.9118 0.03667 10.8983 -0.16569 0.272881 -0.03802
H 4.96385 11.2058 4.73061 -0.184733 0.491221 -0.058486
H 7.79711 6.48634 8.39808 -0.170513 0.042747 0.446076
H 3.2714 4.73177 0.4333 0.691705 0.029782 -0.108819
H 4.22858 10.6026 0.92968 0.745536 -0.831796 0.272627
H 4.58399 10.444 2.44908 0.262971 0.209475 0.467035
H 6.03425 11.5753 9.39965 -0.112937 0.18799 -0.249627
H 12.0343 9.88519 7.29314 -0.345906 -0.253843 0.813979
H 6.81505 10.5951 10.258 -0.510752 -0.155346 -0.091903
H 8.12428 2.62838 4.66255 -0.843106 1.561163 1.654421
H 9.53698 2.19752 4.09745 -0.668462 -0.078147 0.513085
H 2.31228 8.91101 11.5843 -0.913882 -0.850116 0.473201
H 1.90743 7.4205 11.1864 -0.74479 0.34812 0.370997
H 2.23258 2.76495 4.71015 -0.207168 -0.985348 -0.459912
H 9.17592 9.47739 2.95443 -1.77545 -0.81797 -0.906292
H 10.8153 9.16995 8.26023 0.983707 0.045301 -0.25088
H 12.34255 3.07404 1.02029 -0.970363 -1.546191 -0.860881
H 7.81222 8.84922 1.87377 1.751448 0.415663 0.854868
H 0.032 4.24359 2.01109 -0.061691 0.012125 0.187014
H 11.4394 4.93397 9.56358 -0.034743 -0.208098 -0.355246
H 9.84877 7.57123 8.77233 -0.440981 -0.52049 0.133801
H 1.64456 10.0212 5.89917 0.0262 0.171545 0.279298
H 12.0008 10.0552 3.52086 -0.086749 0.334462 -0.088038
H 5.75706 6.99148 4.81605 -0.090061 -0.631958 -0.698591
H 0.39114 10.9714 2.43402 -0.513183 -0.300244 0.77209
H 7.72534 0.81367 10.3765 0.206223 -0.142494 -0.440311
H 2.7576 7.5847 1.06801 -0.519556 0.22072 -0.512439
H 0.80349 6.15944 5.57284 -0.127965 0.946206 -0.98911
H 0.14997 7.54463 4.91941 1.616314 -1.171778 0.093917
H 6.59286 3.93347 5.7455 -1.618454 -0.254469 -0.041
H 7.5858 3.35032 6.87467 -0.070748 -0.001711 0.100603
H 11.3796 2.3002 5.4057 0.209215 -0.40963 1.239948
H 4.82882 7.16299 6.06767 -0.500934 -0.240697 -0.709223
H 8.47214 6.68031 7.02744 0.39536 -0.501989 -1.19728
H 7.51389 11.7659 5.7116 1.083135 0.044784 -1.264043
H 8.41572 0.49049 4.79958 -0.288836 -0.39358 0.476779
H 7.74097 4.2898 8.79524 0.312297 -0.818887 0.946621
H 10.5773 10.3671 0.42697 0.352902 -0.425492 0.10985
H 8.14303 2.71582 9.18664 -0.663101 0.002206 -0.051473
H 10.2882 11.8732 0.11 -0.49229 -0.994723 0.463164
H 5.61907 5.81386 0.75709 -0.123767 -0.090518 -0.17889
H 0.20608 1.07193 7.27584 0.128767 -0.27796 0.124903
H 11.1788 9.03121 5.83266 -0.086148 0.354709 1.045139
H 6.14853 9.36132 0.90601 0.695209 -0.247853 -0.521155
H 10.9902 0.57533 7.44363 1.036679 0.861527 -0.375365
H 11.0452 7.3311 9.77916 -0.300184 -0.325009 -0.019121
H 7.37233 7.57151 3.54044 0.243002 -0.588983 -0.148086
H 10.5447 8.54815 4.53549 1.022932 0.179162 0.193602
H 6.79018 5.93074 10.531 -0.262946 -0.237515 -0.641755
H 3.59009 2.9683 9.80817 -0.014913 -0.799974 0.239181
H 6.01062 5.05721 9.40189 -0.427106 -0.082706 0.07256
H 7.42664 9.15381 12.2042 -0.002635 0.100125 -0.212533
H 4.28113 6.29099 1.53364 0.581614 -0.322999 -0.225901
H 9.66051 5.71913 5.23658 0.381502 0.002919 -0.189933
H 8.16035 11.4488 1.31119 0.465511 0.083023 -0.223306
H 6.77026 11.3726 1.92424 0.128679 0.26182 0.122555
H 1.8752 0.50379 8.55885 0.653199 0.164276 0.075907
H 6.74739 0.84664 11.5687 0.454856 -0.368835 0.206766
H 2.88347 1.02072 7.37037 0.203608 -0.074553 0.576556
H 1.61942 3.89244 5.67413 1.090911 -0.55381 -0.60636
H 6.8447 7.15947 0.1853 -0.143249 1.529256 0.292056
H 2.79252 3.10831 11.0739 -0.107845 -0.130313 0.586709
H 12.2068 9.15211 1.59005 -0.519138 0.267878 -1.339919
H 7.77604 6.00624 12.3178 0.980626 -0.658884 -0.056343
H 4.01132 4.86425 8.57537 0.12367 -1.696905 -0.364032
H 8.4073 4.84317 5.73818 -0.021211 0.875205 0.010628
H 3.11459 8.77465 7.42496 -1.2338 1.473266 0.104663
H 4.60321 8.37356 7.72327 -0.116424 0.298308 -0.068417
H 4.58459 3.42236 7.96185 -0.03033 0.814271 0.713452
H 4.2096 3.76053 5.27977 0.392218 0.098962 0.125425
H 8.43118 1.84612 12.3267 0.016932 0.601202 0.516525
H 9.97902 11.2735 2.72062 -0.150343 0.426611 -0.648982
H 9.58039 2.11328 0.89451 0.322028 0.176729 -0.021867
H 9.41262 11.218 4.19496 -0.101492 -0.042459 -0.152953
H 7.67041 6.2921 4.42038 -0.694467 0.60538 -1.260407
H 4.99985 5.09978 5.32199 -0.062946 0.318763 -0.298141
H 0.27906 8.65164 0.16833 -0.975901 0.404049 0.12924
H 2.10008 0.96501 10.5047 0.243132 0.31211 0.00945
H 1.23166 5.12159 7.16084 0.982585 0.05585 0.793601
H 5.50852 3.69375 3.52999 -0.057178 0.131447 1.167724
H 5.40095 4.11047 2.09949 -0.098164 -0.050356 -0.257161
H 12.203 4.48675 7.09294 0.151701 0.168613 -0.375496
O 0.41573 0.48881 2.51968 0.505535 -0.599494 -0.178719
O 10.1828 6.8653 1.90119 -0.006113 -0.266292 -0.115151
O 2.28058 9.6357 4.33115 0.433586 0.554015 0.143183
O 10.9953 3.78742 8.20538 0.338722 -0.83355 0.055841
O 9.36274 5.28235 12.1475 0.085808 -0.322509 -0.083067
O 3.01555 1.22487 3.56192 0.232059 0.367286 -1.320532
O 6.37611 9.11342 7.82919 0.631365 -1.428774 -0.059573
O 7.70329 0.77233 8.67652 0.983426 -0.607406 -0.080143
O 1.67784 5.97612 10.4498 -0.985811 1.361605 -1.481538
O 11.5569 5.63702 10.2388 -0.179734 -0.451882 0.376193
O 1.37987 10.1803 6.84726 -0.785603 -2.10074 -0.514202
O 9.77339 11.969 7.51775 -0.022408 -0.79096 -0.80485
O 6.14293 11.0639 6.0358 -0.814444 1.462572 0.203881
O 3.33856 7.61961 1.83618 1.867219 2.308563 0.226661
O 2.49788 5.53564 8.112 -0.7604 1.802858 0.925657
O 4.2958 11.3 4.00895 -0.484545 0.298805 -0.642993
O 8.29116 9.49597 10.9947 -0.203158 1.064867 0.189412
O 4.98559 0.84061 12.2728 0.570259 3.268725 -0.916557
O 2.51767 4.46171 12.2804 -0.012277 0.235904 0.453458
O 5.64528 3.33775 2.65083 0.072705 -0.347785 -0.941572
O 4.80763 10.0739 1.56434 -1.263956 0.650828 -0.667786
O 5.9397 10.7025 9.8081 0.640509 0.273649 0.914002
O 10.3431 7.95215 9.52007 0.051519 1.120536 -0.150699
O 11.061 9.70901 7.4606 0.040515 0.010641 -0.242433
O 8.54621 2.02579 4.08929 1.296562 -1.791908 -2.019017
O 3.54371 10.9678 11.5822 0.491055 -0.566248 0.77958
O 1.71489 8.15216 11.8535 1.788363 0.861476 -0.67821
O 8.53508 8.71238 2.64376 0.266279 0.681124 0.177948
O 0.50773 3.75887 1.31456 0.845841 1.610845 0.894742
O 4.8681 6.73337 5.17975 0.195359 0.976302 1.069559
O 0.29918 10.0637 2.83563 0.200239 0.48809 -0.402218
O 0.95133 6.87383 4.86438 -1.826304 0.059826 0.722592
O 7.50227 3.713 5.97603 1.850814 -0.45615 0.210983
O 11.1066 2.39038 4.49859 -0.018751 0.800748 -1.474148
O 7.02579 6.66207 3.7076 0.756546 0.270031 1.406442
O 8.35283 3.51926 8.69634 0.309291 0.839035 -0.836529
O 9.8538 11.0187 0.44389 0.227644 1.237228 -0.632071
O 8.34844 7.10294 7.87777 -0.304054 0.718255 0.874116
O 11.3884 5.01577 3.40226 1.560033 -0.364241 1.455491
O 11.6708 1.33422 7.24489 -1.020757 -0.020893 0.02799
O 11.4241 8.74023 4.94728 -1.098481 -0.73397 -1.232575
O 6.72715 5.69577 9.55999 0.446789 0.132043 0.182434
O 6.98272 8.87264 0.64538 -1.185127 -0.118265 1.039936
O 7.5639 11.9333 1.89757 -0.610904 -0.268657 0.072218
O 2.0095 0.67117 7.61249 -1.138074 -0.49205 -0.599334
O 2.441 3.56393 5.17329 -0.453595 1.286743 0.935054
O 3.1664 2.39668 10.5182 0.377367 0.840031 -0.492163
O 7.70961 0.72665 11.3482 -0.87197 0.308058 0.452077
O 6.86199 6.28692 12.2021 -0.467309 -0.678873 -0.540154
O 4.58474 4.03925 8.74647 -0.093737 0.512086 -0.263508
O 8.76812 5.81153 5.57616 -0.218826 -0.695476 0.098741
O 3.75808 8.10505 7.30533 1.286941 -1.618064 0.044846
O 10.051 10.8066 3.5499 0.068567 -0.591717 0.485598
O 8.70477 2.47309 0.6907 0.073724 -0.602651 -1.157544
O 8.41608 11.9872 5.24408 -0.468451 0.367573 0.555046
O 5.13379 4.13283 5.21696 -0.837073 -0.278427 0.030151
O 1.74941 0.05428 10.4044 -0.113845 -0.156667 0.089405
O 11.8641 9.01096 0.63923 0.938557 -0.726301 0.843802
O 4.77414 5.51361 1.15544 -0.66226 -0.230182 0.446696
O 0.56628 4.79166 6.53538 -1.361031 -0.292822 -0.20837
Na 2.93567 7.54071 4.1542 0.027297 -0.218275 -0.007641
Na 7.2737 1.76831 2.1503 -0.409101 0.105552 0.400928
Cl 11.682 1.13783 12.2791 -0.208332 -0.015908 -0.126336
Cl 5.05399 1.24105 7.281 0.016735 -0.128509 -0.026321
184
energy=-998.97300494 config_type=nep2xyz pbc="T T T" virial="-5.074023906531588 0.473307095847331 -0.040317915186954906 0.473307095847331 -9.030998798078205 -7.055063947584589 -0.040317915186954906 -7.055063947584589 -12.36944831779567" Lattice="12.4 0.0 0.0 0.0 12.4 0.0 0.0 0.0 12.4" volume=1906.6240000000003 Properties=species:S:1:pos:R:3:force:R:3
H 1.04595 6.90348 10.9886 2.147181 1.52501 -0.562426
H 3.43437 11.7997 5.21638 -0.078207 -0.712975 0.108979
H 4.8641 10.3127 2.36892 0.176563 -0.664284 -0.688374
H 0.65851 1.54402 2.6719 -0.21869 0.098921 -0.838163
H 2.64049 4.87564 1.53279 -0.427555 -0.243317 0.65474
H 2.6847 4.46904 0.03563 0.181777 0.301861 0.354622
H 9.79913 2.73009 4.96803 1.35926 0.042006 -0.433246
H 11.3841 2.26186 4.91422 -0.201894 -0.426137 -0.276968
H 0.77471 5.36966 11.2778 -0.195666 1.148073 -0.550784
H 8.06472 5.38592 10.5493 0.301975 -0.352033 0.047031
H 9.89765 1.31308 0.97243 -0.222691 -0.146224 0.309824
H 8.15329 4.89093 2.98812 -0.327399 0.567447 0.474183
H 9.336 4.67018 11.3244 -0.45805 0.202504 -0.292369
H 6.37355 4.98297 12.168 -0.480572 -0.15408 0.316845
H 9.23709 9.83347 2.72048 0.085663 0.110786 0.129956
H 0.64658 9.07101 1.57216 -0.425858 -0.003922 0.055253
H 9.67953 10.8227 1.66891 0.22576 0.378015 -0.937359
H 2.80084 6.01948 6.05865 0.6436 0.959445 1.489371
H 5.18934 4.58654 0.71695 -2.231307 0.471451 0.202661
H 7.20382 9.3204 12.3301 -0.373491 1.863957 -0.527829
H 8.09672 8.19095 0.40826 0.244255 -0.230433 0.008163
H 3.8532 0.95875 11.7408 0.646754 -0.519586 -0.096772
H 7.02568 6.86227 9.55551 -1.217067 -0.467941 1.415342
H 7.37471 4.4622 1.66431 0.553085 -0.229988 0.689676
H 8.7058 6.04398 4.77346 -0.144491 0.086592 -0.011774
H 2.01203 11.3096 0.30829 -0.634295 -0.516916 0.012509
H 4.18179 2.03739 10.6909 -0.22962 0.866868 -0.861105
H 0.48885 2.09861 1.06812 0.642182 -0.627279 1.886679
H 10.7788 10.2738 4.23222 0.140323 -0.616419 -0.151278
H 11.9721 9.13681 2.73496 0.079532 -0.327289 0.02431
H 0.59548 11.2182 6.77078 -0.796431 0.428687 -0.917144
H 5.99923 8.75009 1.25629 0.506722 0.028444 -0.010856
H 4.56832 8.2797 1.58421 0.171753 0.36231 0.810511
H 6.03144 12.0706 2.99443 0.610553 0.445484 -0.118982
H 6.69401 0.95638 2.34784 0.256965 -1.579699 1.661952
H 3.84204 8.05481 6.40806 -0.448075 -0.531774 0.580704
H 3.76132 11.5392 9.85826 -1.497818 0.105251 -0.935394
H 12.0426 9.97531 4.99129 0.64949 0.363638 0.753759
H 10.308 2.4031 1.88382 0.118957 -0.395634 0.437789
H 11.8791 12.1308 10.4586 0.301073 -0.175094 -0.441097
H 3.76782 10.2434 5.48647 -0.825933 0.213043 -0.150824
H 4.47696 1.4734 5.95222 0.432673 -0.482247 -0.652161
H 5.64833 0.86179 4.93034 -0.544586 0.626788 0.29761
H 11.4192 4.43464 5.94655 0.383287 1.094388 0.475488
H 6.18317 8.60567 3.51086 0.160351 -0.147874 0.172096
H 0.28238 5.39988 6.14988 -0.733709 -0.219231 0.104097
H 0.66463 5.16019 2.37616 -1.547242 1.295233 -1.075155
H 7.89573 2.8612 4.97923 -0.365138 0.346544 -0.372818
H 7.22302 7.74153 4.36708 -0.791874 0.667671 -0.013255
H 0.08217 11.4611 11.691 1.269041 -0.930685 0.731441
H 1.18587 3.74001 2.4762 0.418601 0.076638 0.337409
H 9.80244 11.6543 6.6028 0.505216 0.043135 0.230868
H 10.6582 6.51665 5.80908 1.639996 -1.138576 0.331164
H 11.4408 6.94469 10.2217 0.030298 -0.064464 0.294446
H 3.4458 6.12787 7.59802 -0.12208 0.30089 0.077654
H 5.26175 5.96175 6.78325 -2.088381 -0.114401 -0.526637
H 6.60112 2.33387 6.48722 0.210941 0.581157 0.198112
H 6.50317 6.51296 7.32688 0.438552 -0.66987 -1.297906
H 6.91941 3.87061 6.87792 -0.163809 -0.103211 -0.267898
H 10.4839 8.03137 5.31809 0.031313 -0.673762 -0.208925
H 8.3335 3.06637 3.40084 -0.503357 -0.005359 0.400705
H 11.7798 1.39909 11.9889 -0.467555 -2.067958 -0.573717
H 11.6392 2.76723 8.38361 1.609284 -1.571577 -1.181165
H 0.51232 2.19648 7.40529 -1.203034 0.228479 0.728451
H 3.69174 12.0633 1.48335 0.524127 -0.331596 0.412065
H 4.9481 8.43507 5.39838 -0.383902 0.92282 1.459479
H 2.69871 0.80668 1.07051 -1.202695 1.082219 0.974972
H 10.0186 6.32939 10.1958 0.05578 0.648239 0.157092
H 0.21069 0.46559 8.41407 -0.077874 0.185931 0.472819
H 3.46973 4.31187 9.21994 -0.58078 -1.32354 -0.348458
H 10.1121 10.0879 8.28805 0.169654 -0.838079 -0.149431
H 11.241 11.2462 8.30086 -0.033086 -0.518971 0.442771
H 6.6361 10.1101 7.52203 1.664726 1.362633 -1.139138
H 5.36952 9.41646 7.30357 -0.122069 -0.241726 0.742067
H 3.27887 10.2034 9.58218 -0.716615 -1.14768 -0.168056
H 9.88829 7.87131 7.17754 -0.197712 0.272338 0.583443
H 10.03 7.87246 8.79114 1.004758 -0.653483 1.047235
H 8.19786 7.73747 8.35091 0.024964 0.128066 -0.41503
H 6.79709 8.38213 8.45025 -1.297657 1.495556 -0.109754
H 7.73419 0.37411 9.24588 1.273674 0.574216 -0.81177
H 9.153 12.3062 8.7295 0.342033 -0.613678 0.027212
H 5.70498 11.5316 9.03846 0.129089 -0.649909 -0.622676
H 12.2609 6.91331 1.72092 -0.386789 -0.702844 -0.059106
H 2.80203 3.11612 8.24773 0.852599 0.484419 1.916422
H 1.69062 5.20289 4.37321 -0.078423 -0.118611 0.364008
H 5.41486 0.19443 10.1138 0.150388 0.561301 0.210856
H 5.89582 1.25368 12.292 0.588474 0.141712 0.416891
H 6.3986 2.60889 0.46763 0.264948 -0.788949 0.108662
H 9.50917 9.89574 12.29453 0.086905 1.222343 0.421704
H 8.10341 1.5673 12.2478 1.173732 0.122829 -0.650297
H 9.29205 1.04214 11.2852 -0.199286 -0.617731 -0.755097
H 10.2837 11.1763 11.8287 -0.846042 0.204242 0.801153
H 9.44282 4.17498 1.02723 0.550368 0.537862 -0.493056
H 10.6177 5.19617 0.8755 0.324744 0.018194 -0.191882
H 2.10132 4.19992 5.45324 -0.181888 0.373744 0.379468
H 0.8924 1.71545 4.71164 0.685293 0.236237 0.475557
H 7.65305 11.3066 12.257 3.099898 0.812965 -0.254237
H 0.19214 0.36572 4.68122 -0.119768 0.052804 0.221032
H 6.45161 11.1314 11.2785 0.379253 0.389299 -0.368438
H 1.41086 11.9422 8.90267 -1.086841 -0.354819 0.312913
H 3.78731 6.6608 9.73253 -0.158654 -0.286374 -0.105376
H 3.92163 10.9897 3.39908 0.053674 0.181701 -0.230503
H 6.16165 11.4332 5.66211 0.376438 -0.649152 -0.077681
H 6.7335 7.03041 11.1607 -0.196504 0.46616 0.320117
H 7.0478 10.0222 5.25709 -0.953774 2.009944 0.945323
H 7.2094 5.84948 5.16803 0.139786 -0.490437 -0.357025
H 11.2568 2.88886 11.9106 0.227438 -0.476305 0.725674
H 1.81333 9.97807 11.9714 0.026189 -0.422068 -0.451526
H 10.3246 8.10878 11.8782 -0.45025 -0.079303 1.256096
H 10.9076 8.25201 0.939 -0.215596 0.50419 0.01754
H 1.38526 11.0456 5.54364 0.702282 -0.04563 -0.785732
H 5.01079 5.72486 9.44423 -0.852728 0.490173 0.090585
H 0.1622 6.08105 0.50688 0.31568 0.052085 -1.455915
H 2.95007 7.9147 0.31199 0.48443 -0.451685 0.535233
H 0.87453 3.21058 11.5549 -0.325447 -0.787872 -0.041256
H 3.33713 6.58212 1.00615 0.044446 -1.091116 -0.442358
H 1.9941 3.6383 10.4256 -0.354999 -0.194112 0.762234
H 8.4328 11.8829 6.13444 -1.45916 -0.374398 -0.199611
H 10.599 4.84886 7.75472 1.07513 0.770911 -0.794608
H 9.75178 4.57806 8.99916 -0.851145 0.207536 1.266389
O 0.37008 6.30966 11.2299 -1.337292 -2.85593 0.583572
O 3.14836 10.881 5.00206 0.601058 0.574604 0.363303
O 1.11732 1.87385 1.85749 -0.292607 0.748311 -0.937281
O 3.19623 4.9457 0.74495 0.640874 -0.465971 -0.842894
O 10.748 2.90349 5.28188 -1.444667 0.749167 0.718932
O 8.9006 4.85191 10.4396 0.280358 0.5423 0.533626
O 8.18407 4.28564 2.23485 -0.32709 -0.446372 -1.267968
O 10.1681 1.43862 1.92102 -0.093606 0.434993 -0.337512
O 12.2907 8.59652 1.97629 0.369464 0.298684 0.005333
O 4.05297 5.86452 9.20252 1.109553 -0.209912 0.509504
O 9.76735 10.6371 2.61855 -0.513769 -0.190696 0.803221
O 6.11193 4.49674 0.58042 2.35914 -0.252405 -0.876882
O 7.21684 8.37789 0.04715 0.220118 -1.546325 0.306459
O 4.49782 1.2031 11.0198 -0.518918 -0.496797 0.969305
O 7.8625 5.67982 4.43659 0.099222 0.826564 0.661775
O 3.03015 11.0976 9.32988 1.895083 1.238093 1.057779
O 0.47049 11.28 5.77895 0.594134 -0.336458 1.742274
O 5.35 8.84297 1.97488 -0.581732 -0.739339 -0.202295
O 6.80189 0.29207 3.14168 -1.436467 0.898634 -1.758762
O 11.3537 9.52327 4.49945 -1.002155 -0.083308 -0.629815
O 5.26415 0.88107 5.83888 0.398675 -0.065371 -0.074403
O 11.7203 5.3035 6.4027 0.08873 -1.276268 -0.860262
O 3.12918 3.3383 9.19757 -0.331595 0.906099 -1.412091
O 6.60516 8.51941 4.41484 0.503535 -0.491958 -0.480836
O 1.38645 4.67499 2.74241 1.534914 -1.886675 0.941554
O 10.5013 7.2025 10.1084 -0.271516 -0.950856 0.383119
O 3.31018 6.61612 6.76429 -0.470416 -0.987449 -1.337631
O 6.17518 5.91919 6.55946 1.849581 0.675524 1.585207
O 7.29304 3.03729 6.54282 -0.101201 -0.613187 0.165425
O 8.27601 2.45226 4.17288 0.898086 -0.360697 0.124012
O 10.0316 7.20327 5.62115 -1.407409 1.973346 -0.347516
O 12.1199 1.95145 7.98018 -0.429519 1.82248 0.129405
O 3.27613 0.14009 0.73574 0.111532 -0.531802 -1.434639
O 4.40245 8.82779 6.16726 1.195402 -0.082972 -2.180371
O 10.3124 11.0107 8.48459 -0.109773 1.036062 -0.333105
O 5.9871 9.69676 8.05148 -1.643303 -0.81039 0.738885
O 11.7497 12.0015 11.4079 -1.712324 1.141691 -0.173745
O 9.68549 8.35552 8.03547 -0.913194 0.618843 -1.912001
O 7.22562 7.51834 8.45986 1.655904 -1.289258 -0.454536
O 8.60563 0.69432 8.82709 -1.57793 0.108467 0.800623
O 6.12941 12.0531 9.72275 0.060431 -0.049565 0.116981
O 4.46422 11.1787 2.59509 -0.244119 0.640406 0.985069
O 9.06665 1.71709 11.9131 -0.960919 0.351101 1.14456
O 6.59906 1.62917 0.48531 -0.781642 0.938338 -0.237824
O 9.44522 10.9035 12.3403 1.081947 -0.907941 -0.873326
O 10.1739 4.46387 0.40135 -0.898029 -0.64309 0.397165
O 6.76078 11.1004 12.1934 -3.357551 -1.333037 0.640253
O 0.13972 1.26821 4.31101 -0.289201 -0.462392 -0.499619
O 1.81413 5.14682 5.36603 0.13015 -0.789079 -1.104838
O 6.56216 6.3867 10.4606 0.982955 -0.622314 -0.629727
O 6.9534 10.8864 5.84436 0.419681 -1.405045 -0.928123
O 1.31691 10.608 0.11058 0.812581 0.759355 0.467423
O 12.0149 2.29853 12.1357 0.008777 2.394296 -0.291588
O 10.0744 8.3642 0.42365 0.30808 -0.771728 -1.741714
O 12.112 5.99202 1.34333 -0.396645 1.235074 1.867037
O 0.41012 12.0148 8.8685 1.256685 -0.142876 -0.757659
O 3.28786 7.52477 1.16706 -0.329081 1.870413 -0.060856
O 1.58016 3.83281 11.3302 0.825934 0.953764 -0.986096
O 9.32238 12.1547 5.92986 1.121505 0.514572 -0.29165
O 9.91615 4.29415 8.10446 -0.092927 -1.119176 -0.436997
Na 8.97337 0.30348 3.60452 0.13714 0.090326 0.031069
Na 9.47124 2.28847 7.40347 -0.311863 -0.44401 -0.254653
Cl 2.41539 2.14441 6.16723 -0.019576 0.252616 0.223124
Cl 2.72695 8.26503 10.7273 -0.021508 0.083451 -0.267794
184
energy=-998.20213648 config_type=nep2xyz pbc="T T T" virial="-10.399166067571771 -1.05600093207202 0.1620451744689389 -1.05600093207202 -6.558253934826328 -5.752859548185855 0.1620451744689389 -5.752859548185855 4.544143207142703" Lattice="12.4 0.0 0.0 0.0 12.4 0.0 0.0 0.0 12.4" volume=1906.6240000000003 Properties=species:S:1:pos:R:3:force:R:3
H 1.29296 2.91228 2.39101 -0.590838 -0.129941 -0.499305
H 1.54785 1.37942 10.2773 0.273972 -0.524664 0.233405
H 0.46533 4.78518 3.15543 -0.619573 0.276267 0.055876
H 1.45109 2.80623 3.92856 -0.433157 0.22365 -0.193494
H 2.83379 1.45609 11.1865 1.311656 -0.990953 0.241809
H 4.50842 4.34386 1.54663 -0.788746 0.014582 1.381798
H 5.64335 4.05828 0.55952 -0.087421 0.069158 -0.259409
H 8.61714 8.57323 1.02717 0.245098 -0.017486 0.00248
H 11.7582 6.50667 12.1483 -0.609405 0.71723 -0.344401
H 9.63583 1.77054 1.50201 -0.040214 0.837759 0.09463
H 8.88533 0.45658 1.22492 0.026622 -0.080582 -0.096804
H 10.4817 4.02729 0.68801 1.181797 0.758525 -1.619577
H 3.4921 4.2749 11.2053 0.03016 -0.220843 0.329661
H 2.29276 9.24092 5.46531 0.206045 0.781517 0.036843
H 4.84266 3.13677 3.80919 -0.51859 0.845236 -0.282986
H 7.2286 2.88324 1.43753 -0.66457 -0.901239 0.497316
H 6.04171 2.12912 3.60092 1.342759 -0.187795 -0.807556
H 8.19719 3.63901 0.73082 0.096686 0.377013 -0.665945
H 10.5994 5.54937 3.2392 0.303355 0.0925 -0.691558
H 0.56727 8.42639 4.16012 -0.198393 -0.530361 0.068999
H 0.25749 5.72517 1.97261 -0.485175 0.246865 -0.749535
H 9.51503 5.07123 4.13516 -0.653243 -0.605462 0.269682
H 2.24327 11.1696 3.79906 -1.149129 -0.308731 -1.755931
H 11.6185 11.842 4.83391 -0.607541 -0.863646 0.560766
H 2.34989 11.6136 1.7658 -1.396338 -0.796899 0.350654
H 1.16443 10.4826 1.57806 0.659793 0.487098 0.301252
H 3.63446 11.3411 4.3728 -2.314635 0.073178 0.918218
H 3.43462 11.9558 11.8179 0.347039 -0.138363 0.209903
H 3.48814 7.44665 4.79834 -0.651442 0.405089 0.213315
H 4.86904 7.27954 3.91564 -1.203957 -0.880188 1.354414
H 8.74367 8.30011 3.27482 0.22529 0.825894 0.885496
H 11.6088 9.00876 2.49448 -0.055916 -0.586056 0.390685
H 10.5219 9.39178 1.35445 0.639051 -0.221644 0.31097
H 8.83716 6.85662 2.80765 0.151439 -0.485167 -0.035916
H 6.63929 7.5182 2.56123 -0.123427 0.210482 0.327758
H 1.19471 2.74346 8.11454 -0.670689 2.355455 0.667503
H 2.35167 1.69063 8.04217 0.811325 -0.10852 0.581541
H 7.45899 2.56629 11.335 -0.481446 0.19841 -0.985696
H 1.99808 0.48628 4.99194 -0.163458 0.173094 0.092437
H 1.38426 1.42423 6.09783 -0.190854 0.11598 -0.12531
H 2.89712 4.07627 3.19212 0.463366 0.661645 -0.040997
H 10.8249 4.07583 10.8374 1.007681 -0.183846 0.219169
H 7.63185 1.58939 10.1166 0.482438 -0.79496 -0.417611
H 4.87861 11.9801 1.99702 -1.107533 1.578683 0.881097
H 4.574 0.97603 2.80246 -0.815949 -1.570253 -0.597074
H 5.86914 4.96526 6.34818 0.185111 0.162357 -0.197721
H 10.4335 11.2269 6.86864 -0.941935 0.759146 0.395205
H 7.23743 0.86655 2.54044 -0.3621 -1.650992 -1.068266
H 11.4471 4.99854 8.11786 2.418712 -0.59549 1.14282
H 10.0115 0.98937 4.68777 0.341161 -0.027808 -0.325066
H 9.82367 4.21642 2.03362 -0.201075 -0.373697 0.153161
H 9.68555 2.52809 4.8969 -0.479472 -0.338128 0.396425
H 3.89093 5.35964 3.41118 -0.378222 -0.337501 0.488253
H 10.7409 8.54541 4.55597 -0.750662 0.22472 0.307697
H 2.09785 7.89571 6.19613 -0.097682 -0.43785 1.172081
H 4.10431 8.6742 8.59026 0.409497 0.029022 0.190203
H 0.15884 4.01646 9.7763 -0.714903 -0.574277 0.69335
H 6.44352 3.18417 7.1968 0.521788 0.223459 -1.310049
H 6.50615 3.01333 5.54265 -0.748986 -0.597506 -0.643764
H 5.13282 6.16232 5.61712 -1.088235 0.523121 -1.360141
H 6.13238 7.4221 6.8115 -0.07668 0.199056 -0.070403
H 5.64069 8.93317 8.19134 -0.598428 -0.163821 0.224972
H 12.3843 7.06374 3.4684 -0.385526 1.60268 0.535133
H 8.577 3.89096 5.89127 0.148588 0.083754 -0.177496
H 10.2011 9.67506 5.45402 0.139564 0.225446 0.000231
H 10.0505 4.3874 6.27255 -0.519434 -0.126079 -0.421841
H 0.0022 0.54589 4.28745 -0.010975 0.550622 0.089284
H 4.13221 0.86759 7.43476 0.16417 -0.076181 0.652206
H 4.35597 0.4553 8.94487 0.767103 -1.320816 0.605189
H 7.95882 1.55727 3.72063 1.434928 -0.068527 1.164005
H 8.37617 12.3367 8.47201 0.222793 0.269307 -0.512748
H 4.78143 1.08864 5.31811 0.637799 2.278491 -2.015137
H 6.72661 9.54058 5.81471 0.564941 0.525191 -0.496102
H 6.4162 10.1834 4.42564 0.561961 0.16964 0.428166
H 5.41539 12.37705 6.13406 0.204251 -0.166264 -0.09305
H 11.9023 10.8063 6.92014 0.019513 -0.460525 0.03515
H 12.2568 9.15041 8.73023 0.038679 0.582312 0.142133
H 1.38478 9.05428 8.50583 -1.077394 1.080054 -0.148744
H 5.1356 7.37197 2.13219 -2.2826 -1.386985 -3.303208
H 9.39639 8.00748 6.32314 0.171503 -0.309526 0.409422
H 9.79285 6.66503 7.10325 -0.263925 0.62778 0.388662
H 11.5278 2.46198 0.84919 3.132113 -1.345583 0.131693
H 0.51513 2.09623 0.02578 -0.556462 -0.064913 1.170274
H 12.0466 4.76118 11.5648 0.462933 0.288788 0.384743
H 8.64508 0.71814 6.18217 0.174056 0.567332 -0.774378
H 8.08591 11.6252 6.26675 -0.25693 0.053787 -0.518077
H 7.22327 5.48738 9.09018 -0.107809 0.211224 0.233237
H 6.75227 6.64943 10.022 0.330788 0.525143 0.335695
H 12.1263 11.9128 11.1974 0.799876 0.639272 -1.49434
H 6.35048 2.90099 9.20545 -0.620389 -0.087464 0.268248
H 0.93172 6.56171 12.3525 0.651536 0.760747 -0.507718
H 8.55077 3.77933 9.99376 0.023496 0.287957 0.274494
H 9.93222 4.81218 8.4423 0.736997 0.042288 -0.05888
H 11.1339 0.27171 12.1172 -0.29905 1.112573 0.066181
H 4.94511 2.45579 8.46438 0.401916 -0.244552 0.480388
H 1.08014 4.88811 9.00368 -0.240619 -0.480474 -0.557882
H 2.45534 3.32064 10.4246 1.32857 1.161952 0.479444
H 3.13551 7.4955 12.0031 -0.183474 -0.422374 0.141057
H 2.13979 7.34831 10.7765 0.298344 0.25969 0.69463
H 7.55381 8.9004 11.4941 -0.093763 -0.379788 -0.19571
H 5.164 7.7293 0.2383 0.985304 0.410621 -0.593732
H 6.33235 8.87707 10.4832 1.061993 -1.353559 1.38188
H 9.64316 7.518 11.819 0.558049 -1.279059 -0.831338
H 7.52064 7.69163 7.28849 1.1198 0.290163 0.016551
H 9.04242 5.36157 10.31 0.458374 -1.366637 -0.204315
H 10.3852 7.53593 10.5368 0.515397 0.26162 -1.002874
H 2.27116 9.47528 11.6717 0.739334 -0.319012 0.1342
H 1.11783 11.4725 9.22095 -1.403314 1.610995 0.56146
H 0.63793 0.58141 8.78478 0.233193 -0.907656 1.058289
H 1.43175 10.6681 11.8033 0.485219 0.519868 0.061948
H 5.16554 10.7809 9.11431 -0.168096 0.491591 0.687437
H 7.04878 12.1664 9.21437 0.572928 -0.170524 0.617684
H 4.9605 6.08364 0.37816 -1.239587 1.553 0.031109
H 4.65176 0.44891 0.06027 -1.287857 -0.654637 -1.574197
H 5.18367 11.8928 10.3134 -0.629476 -0.046833 1.911555
H 8.94895 11.2534 10.3339 0.166276 -0.136511 0.18157
H 8.9781 9.63713 12.218 0.514966 -0.326666 0.125257
H 10.4203 9.56187 9.88281 -0.322202 -1.13612 -0.454118
H 10.2587 11.1774 11.2903 -0.597593 -0.625517 -0.3453
H 10.0997 8.40682 8.74996 0.069224 0.190325 -0.019755
O 2.00061 1.86302 10.9877 -2.021317 1.292626 -0.125397
O 1.26528 3.45189 3.19502 1.076206 -0.95336 0.933972
O 4.74366 4.44429 0.62983 1.074665 0.17151 -1.619084
O 9.7731 0.85659 1.2641 0.027807 -1.185066 -0.306063
O 12.2989 5.55985 2.85781 0.730949 -0.096667 0.440422
O 9.90253 3.5722 1.26515 -1.01701 -0.111261 1.418418
O 5.25901 2.32803 4.11833 -1.263704 -0.410466 1.333985
O 7.2652 3.34843 0.59406 0.738943 0.179673 0.095118
O 9.64125 5.34708 3.19637 0.337185 0.478388 0.168695
O 12.1709 8.05403 3.72772 0.617805 -1.436695 -0.230746
O 9.88588 8.9148 4.94143 0.519298 -0.944239 -0.574683
O 11.5675 0.06695 4.10899 0.22395 0.455217 -0.484768
O 2.64843 11.2249 4.64739 3.025184 0.121506 0.856728
O 4.05849 0.28875 11.6416 1.204245 0.456988 1.220347
O 1.48372 11.2372 2.1197 0.823309 0.41344 -0.440673
O 4.18467 6.80834 4.61611 1.82511 0.751821 -2.742734
O 8.38548 7.70243 2.6232 -0.477794 -0.272774 -0.705517
O 11.3095 9.67844 1.86827 -0.269889 1.306472 -1.006846
O 9.20731 8.78284 0.26928 -0.613362 0.671511 0.387662
O 7.43587 2.5103 10.3286 0.31697 0.494585 1.576223
O 1.37635 1.24949 5.1296 0.596552 -0.076565 -0.077785
O 4.1209 0.15228 2.41868 1.480835 -0.096746 -0.015078
O 7.38135 1.69233 2.97899 -0.465346 1.908354 -0.376981
O 1.40603 1.8516 7.93665 -0.242044 -2.317668 -1.343859
O 9.29186 1.61424 4.89091 0.170984 0.143067 -0.28117
O 3.8268 4.42177 3.11897 -0.036101 -0.17038 -0.006347
O 2.07666 8.31495 5.34265 -0.120863 0.077491 -1.056588
O 4.90486 9.21094 8.80636 0.616217 0.004551 -0.325579
O 11.7407 3.90129 11.2214 -1.741643 -0.426088 -0.547506
O 6.94655 3.42004 6.28037 0.026728 0.5068 2.042715
O 5.28824 5.74695 6.45762 1.411242 -1.218936 2.389163
O 6.72872 8.18119 7.01795 -1.273341 -0.392378 -0.010295
O 9.46342 4.11648 5.49602 0.339392 0.377289 0.85138
O 3.99379 1.13625 8.3923 -1.518664 1.999896 -2.014974
O 6.98165 10.3006 5.21582 -0.971381 -0.600485 0.261063
O 4.58385 0.41289 5.91879 -0.542864 -2.159012 1.974624
O 0.6298 9.72957 8.49436 1.206797 -1.64378 -0.049423
O 11.1229 10.8438 6.33911 1.025173 -0.071285 -0.133594
O 9.28502 7.51575 7.19357 0.359231 -0.369546 -0.422005
O 5.69198 7.70113 2.76688 2.513847 1.534077 3.049071
O 0.06889 1.97967 0.92172 -1.998369 1.306646 -1.023093
O 8.53163 12.341 6.73763 0.1055 -1.087875 1.327146
O 6.49783 5.79941 9.65244 -0.108817 -0.469625 -0.437079
O 11.6076 11.8566 11.9878 -0.507186 -1.246205 0.879988
O 0.13721 6.02677 0.04759 -0.181731 -0.912877 0.927623
O 10.5985 5.06895 7.74784 -3.393991 0.563177 -1.69358
O 9.26605 4.4599 9.9089 -0.347511 1.088486 0.385901
O 5.67559 3.13393 8.52132 0.100566 0.596783 -0.876714
O 0.38547 4.19867 8.84735 1.645425 1.190731 -0.3038
O 2.19718 7.64825 11.723 -0.15244 0.056445 -0.981016
O 3.04359 4.16306 10.3619 -0.896542 -0.510853 -0.82233
O 6.89747 8.2944 11.1156 -1.627746 1.450182 -1.583685
O 4.53227 7.04801 0.43151 0.118667 -1.976566 0.230112
O 10.0942 6.85702 11.1639 -0.978239 0.115826 2.029609
O 2.37935 10.4373 11.8556 -1.277765 -0.214991 -0.223496
O 0.62996 12.3129 9.55522 0.801781 -0.929661 -1.412156
O 8.02507 12.3487 9.38026 -0.96426 -0.102905 0.112793
O 5.38937 11.7209 9.41084 0.912575 -0.895662 -2.022838
O 9.54101 10.6276 10.8394 0.207518 0.842259 0.120795
O 10.7062 8.67254 9.47539 0.144942 1.03468 -0.267472
Na 11.7422 12.1255 1.83029 -0.05333 -0.173113 0.356219
Na 4.60026 5.35264 8.49527 -0.146654 -0.519689 0.541472
Cl 6.66081 12.0185 1.06081 0.424321 -0.362873 -0.325324
Cl 2.68161 7.01853 8.49386 -0.511839 0.572862 -0.115955
184
energy=-999.00058759 config_type=nep2xyz pbc="T T T" virial="-3.503184141893679 -0.5490638396726424 -2.545931161480854 -0.5490638396726424 -0.8799135085119931 -7.5345115523564985 -2.545931161480854 -7.5345115523564985 -3.911920692344193" Lattice="12.4 0.0 0.0 0.0 12.4 0.0 0.0 0.0 12.4" volume=1906.6240000000003 Properties=species:S:1:pos:R:3:force:R:3
H 0.68338 3.25016 2.68601 -0.308542 -0.548721 -0.409842
H 2.51721 0.05258 10.7754 -0.154652 0.477248 1.43416
H 0.08137 5.35126 3.54705 0.595229 -0.809433 -0.297377
H 0.65504 3.29089 4.28242 0.453226 -0.271687 -0.038243
H 3.70858 0.0195 11.7804 1.154218 -0.666654 0.151577
H 3.50548 4.84588 1.50274 0.323263 -0.480552 0.130343
H 4.36583 4.68484 0.13626 0.916199 -0.158339 -0.185278
H 8.81083 8.27501 2.23329 0.491028 0.496083 -0.290354
H 9.77584 7.69012 0.23985 0.014995 -0.387231 -0.831029
H 10.717 0.68637 0.51883 -1.208766 -0.264243 1.127224
H 9.34749 0.96132 1.38214 0.022752 -0.086119 -0.430331
H 10.9691 4.41401 0.4057 -0.476043 -0.535812 -0.626423
H 2.44972 3.69458 12.1844 0.366535 -0.154303 0.320083
H 2.36243 10.1723 4.6634 0.700808 0.216127 -0.141314
H 4.50372 3.29712 3.90396 -0.277688 0.32748 -0.141526
H 7.27396 2.75139 0.61744 -0.203918 -0.589023 1.235206
H 5.69505 2.36209 3.47549 -0.125732 0.155902 0.231061
H 8.72874 2.98712 0.0266 -0.59215 0.260243 -0.036645
H 10.4419 5.54899 3.58812 1.220235 1.398728 -0.921732
H 0.87525 8.87826 4.14685 -0.273029 -0.121799 0.248295
H 11.9918 6.19771 2.28014 0.357301 -0.252364 0.761062
H 9.80668 4.50402 4.24369 -0.852749 -0.749129 -0.245414
H 2.6345 11.5756 2.58072 0.770893 0.26331 0.915918
H 11.1388 0.3237 5.20257 -1.224832 -1.142429 1.447348
H 2.10458 12.365 0.61477 -0.525196 -0.764267 1.028217
H 1.57755 10.9487 1.06808 -0.019076 0.670122 0.058185
H 4.08731 11.0018 2.88255 0.12956 -0.059535 0.814855
H 3.78449 9.9272 11.8258 1.585814 1.338867 -0.292782
H 3.17039 7.68059 4.95267 0.78954 -0.07407 -0.846038
H 4.30341 7.32271 3.81662 -0.665672 0.312837 0.673015
H 7.46943 7.25685 4.23107 0.43846 0.929923 2.633071
H 12.0921 9.82815 2.44909 -0.15401 -0.963408 0.322278
H 10.6687 9.80331 1.7741 0.031012 -0.172794 0.409639
H 8.14816 6.18278 3.32446 -0.595342 0.38784 0.306719
H 6.04782 7.25944 2.61543 -0.189705 0.843075 -0.551457
H 1.08019 2.85882 8.80733 -0.136038 -0.538739 -0.303544
H 2.13537 1.95596 8.26446 1.539655 -0.475366 -0.231747
H 7.69212 2.22373 10.6272 -0.195677 -0.2993 0.115965
H 1.95738 1.77417 5.43819 -1.196987 0.278491 0.233863
H 0.75625 2.1409 6.41059 -0.325839 -0.051108 2.601967
H 2.37981 4.11891 3.36435 0.072877 -0.274023 -0.062196
H 0.43832 6.35297 0.07394 0.732292 0.038152 -0.434572
H 7.5965 1.24875 9.35322 0.365405 -1.542791 -0.275142
H 5.45215 9.30285 2.63942 -0.113152 0.958141 0.908779
H 6.10351 10.6444 2.33433 0.719557 0.854227 -0.440473
H 6.19175 5.21497 6.09226 0.002417 -0.550712 -0.577114
H 9.78981 12.2341 6.80627 0.337354 0.069429 -0.062348
H 6.60276 1.01443 1.57256 0.411075 0.733283 0.923226
H 11.9024 4.78506 8.33451 1.766815 -0.241121 0.780103
H 9.8862 1.47337 3.52048 0.674762 -0.561664 -0.033636
H 9.95773 4.22527 1.45406 -0.23021 -0.844652 -0.323974
H 9.00103 2.46579 4.26738 -0.05097 -0.966187 -0.822123
H 3.44164 5.1907 3.62587 0.341371 1.290898 0.786886
H 10.9221 9.24577 5.2575 0.511876 -0.07489 -0.815704
H 2.61303 9.49425 6.08801 -0.06485 0.079215 -0.487567
H 4.168 8.84661 7.94383 0.092832 -0.866198 0.234604
H 1.43808 4.18226 10.269 -0.145553 -0.053504 -0.290081
H 6.57513 3.57846 6.90743 -0.148077 -0.289186 0.799059
H 6.2943 3.2193 5.43855 -0.034368 0.060716 -0.411245
H 4.88248 6.31063 5.95176 2.511191 -0.992998 0.733906
H 6.81434 7.18544 6.2212 0.217306 -0.206208 0.163313
H 4.69354 9.50242 6.57985 0.088993 0.219816 0.579524
H 12.3156 7.71262 3.79422 -0.005472 -0.754977 -0.374683
H 8.94417 3.40519 6.07884 -1.027691 -0.211048 -0.099862
H 10.579 10.3305 6.35663 0.402762 -1.367706 0.022468
H 10.2208 3.86219 6.64603 0.920769 0.116009 0.119738
H 12.1252 1.17239 4.71996 0.315535 0.383873 -0.567965
H 3.77819 1.40424 7.04662 0.249784 -0.089436 0.873626
H 4.2058 0.8159 8.44458 0.154429 -0.314952 0.354746
H 7.61259 1.66999 2.63128 0.17121 -0.011099 -0.004661
H 7.59712 12.2524 7.88483 0.240775 0.026599 -1.433095
H 4.36843 1.46303 4.96812 -0.175535 0.536545 0.091232
H 6.65797 9.17905 5.52726 -0.39722 0.809377 -0.145086
H 5.73519 10.2323 4.64035 0.901091 -0.451266 0.475715
H 3.62856 0.14764 4.76403 -0.460051 0.246126 0.352972
H 10.8298 12.3005 7.96093 0.246376 0.184874 0.724159
H 0.35634 9.06725 9.48168 0.561285 0.263232 0.048082
H 1.91794 8.98193 9.11786 -0.658941 0.351155 0.167847
H 5.36353 7.82343 1.28142 0.082366 -0.462093 -1.097603
H 10.3319 8.02922 6.99379 -0.277357 0.032782 -0.106578
H 10.3783 6.50797 7.53431 0.516898 -0.770732 0.065006
H 11.8106 2.61875 1.12976 0.189344 -0.181456 -0.147334
H 0.92693 2.38548 0.76009 1.011337 0.676543 -1.617002
H 11.3025 6.41856 12.3476 -0.133391 -0.180111 0.237967
H 8.06556 0.41468 5.30003 0.325192 0.592421 -0.276916
H 7.93894 11.4119 5.74309 -1.265467 -2.419302 -0.44021
H 6.60949 4.05385 11.7609 0.130739 0.465611 -0.092722
H 6.0002 5.55945 11.8452 0.493732 0.340461 0.147705
H 12.3405 12.2404 11.2022 -1.282357 -0.481618 0.467011
H 6.34099 2.91507 9.09097 -0.321569 0.514605 -0.531057
H 10.4716 7.75412 11.2412 0.159 0.210253 -0.762142
H 8.69148 5.16257 9.56559 0.855439 -1.834764 -0.022665
H 10.3689 4.65364 8.64116 0.209808 -0.062707 -0.026228
H 11.6606 11.3171 12.2888 0.321312 -1.184976 1.161094
H 4.83693 3.06858 8.47681 1.673444 0.158955 -0.129602
H 1.93249 5.11127 9.09381 -0.747293 -0.661828 0.190802
H 2.45056 2.14463 11.7982 0.345057 -0.210638 -0.248845
H 2.52104 6.30371 12.3182 0.797397 -0.566292 -0.296741
H 2.3027 6.90945 10.856 0.838156 -0.22251 -1.480102
H 8.26893 7.02209 8.15067 -1.247096 -0.293462 1.065358
H 6.48207 7.93699 11.7276 -0.14682 -0.04005 -0.164943
H 7.58981 7.68287 9.39542 -0.326257 -0.650604 -0.269918
H 8.42609 7.75394 11.2108 0.190566 0.854125 -0.022084
H 8.19853 7.95674 6.6001 -0.868374 -0.434571 -1.367246
H 8.77344 3.51954 9.52892 -0.362324 0.02934 -0.169224
H 8.16252 9.35905 10.9784 -0.047581 -0.984034 0.100422
H 1.5962 8.55933 0.03741 0.229599 0.415049 -0.075652
H 0.9337 11.3444 9.28224 0.464838 0.163621 0.600405
H 1.08304 0.53112 9.28462 -0.160235 0.931894 -0.536849
H 1.52756 9.66036 11.3755 -0.0711 0.065779 0.082434
H 4.60252 11.1354 8.38044 0.714834 0.947111 0.936459
H 6.67647 12.0085 9.07262 -0.13169 -0.335715 -0.123036
H 4.99324 7.52364 11.4207 0.161614 0.009549 0.140074
H 5.29345 10.6318 12.0978 -0.145389 -0.290433 0.219862
H 4.8067 11.2066 9.89804 -0.172674 -0.118834 0.953157
H 8.84434 11.0921 9.60647 -1.727972 1.385405 -1.402446
H 8.53165 9.53574 1.47439 -1.512185 1.719789 -0.696951
H 10.6478 9.43871 10.0319 -0.215016 -0.770258 -0.825768
H 10.0748 11.2059 10.5013 0.560674 1.015334 0.870653
H 10.7061 8.14532 9.05271 0.054364 0.520332 0.73234
O 2.85642 0.41833 11.6723 -1.055711 0.243934 -1.50532
O 0.93217 3.77125 3.47249 -0.498114 0.645545 0.53701
O 3.50528 4.86689 0.52416 -1.288119 0.538919 -0.039767
O 10.2679 0.69223 1.42974 0.891733 0.229285 -0.85712
O 12.0552 6.16915 3.28094 -0.762412 0.78457 -0.727491
O 10.2158 3.79005 0.59733 0.968219 1.366512 1.27543
O 5.20478 2.71465 4.2653 0.634787 -0.606721 -0.506209
O 7.78489 2.77079 12.2109 1.048547 0.429689 -1.126157
O 9.71047 4.96865 3.38143 -0.799601 -0.718624 0.976485
O 0.0469 8.66058 3.67493 0.389708 1.21091 0.597131
O 10.6425 9.34345 6.16432 -0.441532 1.594275 0.689948
O 11.3929 0.62362 4.34856 1.18732 0.931498 -0.481806
O 3.30858 11.4193 3.33287 -1.112919 0.200781 -0.433827
O 4.53157 10.5329 11.4814 -1.417066 -0.971043 0.225258
O 1.68728 11.8776 1.42559 0.0872 -0.355486 -1.621168
O 3.85149 7.02459 4.64514 -0.073215 -0.230979 0.015778
O 7.44816 6.88606 3.37917 0.739299 -1.599348 -3.034501
O 11.5116 10.2787 1.82956 0.343421 1.536702 -0.968727
O 9.23824 8.94139 1.63476 0.452411 -2.521988 0.856226
O 7.64528 2.15181 9.64913 0.081042 2.324794 0.686137
O 1.0026 2.11724 5.51497 1.644676 -0.530417 -2.638416
O 5.51174 10.2834 3.0014 -0.52271 -1.802956 -0.225086
O 6.788 1.8364 2.12141 -0.791171 -0.773011 -0.706708
O 1.19308 1.94697 8.41187 -1.35449 0.818573 0.207136
O 8.96137 1.71316 3.61739 -0.891976 1.379323 1.211331
O 3.34949 4.34231 3.21447 0.135538 -0.541196 -0.553753
O 2.27532 9.3507 5.17123 -0.181729 -0.333446 0.482258
O 4.00853 9.53652 7.30398 0.099334 1.190609 -0.793755
O 12.0318 6.00283 0.46674 -0.690538 -0.245548 0.436735
O 6.94918 3.66764 6.01663 0.426326 0.074111 -0.208167
O 5.77079 6.00738 6.45981 -2.876066 1.760312 -0.480098
O 7.536 7.7841 5.87017 0.655554 0.633095 0.861352
O 9.88805 3.28605 5.93444 -0.066844 0.399822 -0.119154
O 3.85706 1.61782 8.0279 -0.547401 0.401376 -1.251847
O 6.15354 10.0494 5.53873 -0.27974 -0.25221 -0.008755
O 3.65475 0.92741 5.39174 -0.039936 -0.622555 -0.59815
O 1.21718 9.57977 9.47281 -0.03067 -0.999166 -0.133919
O 10.744 12.0979 7.0374 -0.562922 -0.321798 -0.939314
O 9.86579 7.32898 7.52467 -0.13958 0.755051 0.445666
O 5.34231 7.87944 2.23874 0.044183 -0.873426 1.606143
O 0.25534 2.2041 1.40189 -1.493034 -0.19741 1.819609
O 8.33802 12.2114 5.99703 0.529713 1.683053 0.738789
O 5.89282 4.66553 11.4908 -0.623232 -0.409166 -0.187186
O 11.4862 12.0594 11.7315 0.906922 1.312858 -1.878588
O 9.91515 7.16732 11.792 -0.322011 0.478687 1.594363
O 11.0584 4.9484 7.9676 -1.47616 0.405897 -1.369125
O 9.29672 4.34463 9.53532 -1.377246 1.762078 0.568325
O 5.75095 3.51239 8.5249 -1.169408 -0.753765 0.189356
O 1.24287 4.42665 9.33839 0.789294 0.82317 0.275043
O 1.99308 6.87502 11.7451 -1.459639 0.540402 1.887623
O 1.90827 2.94722 11.8552 -0.549639 0.468142 -0.132644
O 7.4449 6.93625 8.7501 1.599238 0.55271 -0.346941
O 5.72081 7.37174 12.0474 -0.396549 0.04007 -0.114446
O 7.75729 8.45131 10.9618 0.153502 0.45279 -0.137842
O 1.68289 9.53433 12.3373 0.208696 -0.187543 -0.319233
O 1.08475 12.1404 9.84531 -0.09351 -0.725985 0.15708
O 7.62282 12.1572 8.8288 -0.335649 -0.403778 1.007258
O 4.94679 11.7636 9.11636 -0.55553 -1.21498 -1.99244
O 9.47413 10.5979 10.083 1.156152 -1.78309 1.058155
O 11.1061 8.571 9.86683 0.160643 -0.165748 -0.341266
Na 12.2029 0.15861 2.39805 -0.313994 -0.351952 -0.375974
Na 5.47 5.67354 8.7646 0.642581 0.016795 -0.024409
Cl 7.05362 11.2696 0.76125 0.206936 0.147476 -0.498297
Cl 3.31139 6.91798 8.84348 -0.453604 0.170648 0.373664
184
energy=-1000.06175281 config_type=nep2xyz pbc="T T T" virial="-9.338797758028202 3.042764974661305 -1.5145398659515203 3.042764974661305 -12.810850947699604 -2.798453640898558 -1.5145398659515203 -2.798453640898558 -10.242642591050515" Lattice="12.4 0.0 0.0 0.0 12.4 0.0 0.0 0.0 12.4" volume=1906.6240000000003 Properties=species:S:1:pos:R:3:force:R:3
H 1.6658 6.75415 10.8465 0.092902 0.382348 -0.153756
H 2.53146 11.9677 6.52646 -0.006518 -0.422736 -0.178476
H 4.06163 11.0093 2.96531 -0.489438 0.768406 -0.049912
H 0.3097 1.58612 3.11125 -0.238839 0.163499 0.251548
H 3.01118 3.56638 1.24289 -0.213961 0.434691 -0.084665
H 2.67027 3.21892 12.0892 0.79122 0.531592 1.225795
H 10.0557 3.21153 5.23198 -0.13319 0.04031 -0.14152
H 11.4381 2.55406 5.50641 -0.588571 -0.04349 0.228053
H 1.08676 5.27255 10.8407 -0.241523 0.636649 -0.033465
H 8.0077 5.22478 11.3709 -0.76428 0.165148 -0.127498
H 9.8986 1.1552 0.96849 -0.115366 -0.967976 -2.083068
H 8.16592 5.95348 3.04772 0.181608 1.302673 0.930249
H 9.28556 4.85708 12.2398 0.024051 0.099398 -0.536576
H 5.76297 4.80262 11.3218 0.066861 -0.773386 1.302606
H 7.96237 10.3784 3.29431 0.114858 0.504411 -0.476638
H 0.62015 9.09379 1.35849 0.926882 0.751245 -0.979621
H 8.68184 10.9507 1.93642 0.056242 -0.242816 0.455188
H 3.38395 5.8151 6.01953 -0.735932 -0.498584 -0.182941
H 4.84505 4.00777 12.3511 -0.355172 0.197143 0.172917
H 7.31199 8.55282 0.02447 0.388168 0.881584 0.258499
H 8.46924 7.4046 0.03883 -0.512602 0.628297 -0.134511
H 3.59689 0.85683 11.9824 0.425544 -0.621047 -0.716403
H 6.9293 6.73571 9.47044 -0.204173 0.031935 0.448903
H 7.23911 5.27113 2.00733 0.395039 -0.119098 0.236138
H 9.21042 7.0422 4.75743 0.184549 0.11689 0.532292
H 1.94924 10.9197 0.62776 -1.191385 -1.933978 -1.460447
H 3.78844 1.48953 10.5544 0.179102 0.143678 -0.176132
H 12.3378 2.18679 1.68671 0.297827 -0.124253 0.196909
H 10.1337 10.2046 3.33476 -0.703643 0.322685 -0.096773
H 11.9599 8.93786 2.43045 -0.499227 0.185505 0.67317
H 11.4952 10.8508 6.46605 0.092413 0.280372 -0.207376
H 5.6315 10.3237 1.28063 0.102975 -0.45434 0.065787
H 4.7149 9.07891 1.56622 -0.075216 -0.439949 -0.323546
H 5.56796 0.16078 2.47481 -0.287949 -0.250738 0.439829
H 6.40139 1.27862 1.91537 0.288242 -0.036475 -0.113957
H 4.24015 8.07822 6.28579 -0.11031 -1.444045 0.099249
H 3.24737 11.9996 9.90073 0.047367 -0.47444 0.085282
H 11.2709 10.2584 4.42947 -0.097049 -0.02646 -0.299503
H 10.0248 2.35597 1.78169 -0.119137 0.27726 0.151223
H 12.1655 12.0142 10.4577 -0.06916 -0.456051 1.014557
H 2.957 10.4954 6.10412 0.402419 -0.456522 0.282556
H 4.72763 1.74847 5.3615 1.39399 -0.393725 -0.133717
H 5.87576 1.55223 4.25952 0.021854 -0.166222 -0.517223
H 11.6352 4.6691 5.05653 1.083343 0.928168 -0.522976
H 6.2223 9.44156 3.31584 -0.564181 0.026035 -0.522456
H 0.66632 5.36855 4.83421 1.105102 -0.681704 0.688057
H 1.44358 4.90745 2.06292 0.544142 -0.735645 0.541106
H 7.90511 3.01222 5.23158 0.00143 0.32452 -0.520013
H 7.47231 8.74831 4.10707 -1.501675 0.543157 0.296625
H 0.19889 11.656 11.9784 -0.488489 -0.01387 -0.797161
H 1.5732 3.41459 2.53148 -0.272308 0.316663 0.389485
H 10.2009 12.1757 6.24967 -0.72687 0.217123 -0.033938
H 11.3471 6.85338 5.15177 -0.138634 -0.237888 -0.093551
H 11.8557 6.66018 10.2742 -1.084896 -0.532596 -0.618527
H 3.69109 6.09305 7.52045 -0.284435 -0.56716 1.431746
H 5.6747 5.79543 6.26164 -0.404269 0.299197 -0.028471
H 6.5528 2.56317 6.41115 0.546353 1.056402 -0.024656
H 6.8302 6.3974 7.11635 0.05916 -0.535928 -1.37678
H 6.92317 4.15707 6.49661 -0.026138 0.257418 0.182192
H 10.7442 8.24718 4.74284 -0.004357 1.157465 -0.657396
H 8.04915 3.60247 3.77201 -0.450125 1.456432 -1.030633
H 11.7188 1.3832 11.8154 0.63788 -0.93498 0.15878
H 11.2729 2.85942 9.17841 0.254969 -0.382387 -0.190067
H 12.1265 2.86098 7.91645 0.245135 0.263991 -0.777306
H 3.01331 12.3811 1.79151 0.070317 -0.384005 -0.061907
H 5.27309 9.10095 5.65276 -0.143376 -0.41078 -0.191592
H 2.06713 0.96413 1.25403 -0.556057 0.159814 -0.337072
H 10.2984 6.0544 10.2423 0.632261 0.760571 -0.041631
H 0.14161 0.4985 8.89413 -0.115912 -0.747033 -0.577866
H 3.56709 3.51681 9.59196 0.221704 0.540535 -0.402509
H 10.354 9.65342 8.04286 0.018592 -0.163198 -0.10725
H 11.3149 10.867 8.62186 -0.51578 -0.380817 -1.082578
H 6.48661 10.5642 7.23956 -0.05864 0.676469 -0.687599
H 5.17813 9.78579 7.66736 -0.028726 -0.182055 -0.615819
H 2.96601 10.4702 9.51773 -0.008355 0.671749 0.040956
H 10.1921 7.67904 7.0131 -0.621733 1.497995 1.169522
H 10.4736 7.63484 8.54168 0.170323 -0.451846 1.106342
H 8.39313 7.67486 8.22763 -0.25407 0.398754 -0.253138
H 6.98146 8.51686 8.21606 0.421445 -1.060662 -0.21179
H 7.79435 12.251 9.21466 -0.872412 -0.625931 0.285947
H 9.23455 12.0259 8.51126 -1.452195 0.994995 1.001622
H 5.96839 10.8367 9.40878 0.006916 0.254637 -0.473055
H 0.13527 6.31562 2.0759 -0.333934 0.716554 0.786897
H 3.17515 2.44879 8.44219 0.118204 0.278822 0.723329
H 2.32482 4.67295 4.1954 -0.289253 -0.576336 0.578372
H 5.50564 12.2487 9.99083 0.606224 -1.008311 0.403651
H 5.7933 1.30596 12.0596 0.49427 0.271892 0.365451
H 6.29631 2.72982 0.03421 0.295347 -0.232484 -0.074279
H 9.70617 9.63268 0.14059 0.183703 -0.484874 0.06414
H 8.10899 1.40304 11.8371 0.498443 0.464635 0.346705
H 9.17992 0.77117 10.8947 -0.022221 0.858312 0.769091
H 10.0765 11.091 12.3385 1.176428 1.203506 -0.785649
H 9.58871 4.52991 1.72319 -0.966231 0.71877 1.132516
H 11.0624 4.48126 1.20061 -0.414194 0.138688 0.051563
H 2.19628 3.79603 5.60794 0.109003 1.73679 -1.036675
H 0.74552 1.54385 5.28747 -0.677063 -0.570922 -0.084644
H 7.79156 10.5403 0.10604 -0.405538 -0.064665 0.120989
H 11.9616 0.43482 5.24428 0.542216 0.281446 -0.029218
H 6.63878 10.2122 11.5286 -0.338902 0.687338 0.443543
H 1.19778 11.8324 9.15526 2.095575 -0.819533 0.02805
H 3.68964 6.07043 9.87316 0.112469 -0.283655 -0.165423
H 3.32147 11.814 4.1 -0.459609 0.050427 0.397577
H 6.24767 12.2984 5.54292 0.995018 -1.205949 0.144489
H 6.55031 6.71813 11.0278 0.374738 0.840974 0.731872
H 6.96526 10.8066 5.26291 -0.466053 -0.596215 -1.272158
H 7.6412 6.64374 4.93746 0.145572 -0.135477 0.550145
H 10.787 2.48071 12.0273 -1.215548 0.710176 0.13666
H 2.04391 9.62564 12.0096 0.271636 0.001888 -0.24841
H 10.6701 7.79906 11.4117 -0.681228 0.043426 0.540934
H 11.0354 8.07999 0.55115 -1.141002 0.057252 -0.95805
H 0.45551 11.0733 5.82979 2.225056 -0.096166 0.083393
H 5.10947 5.57714 9.64959 -0.299971 -0.024977 -0.032251
H 0.36389 6.23038 0.57528 -0.273301 -1.0585 0.817821
H 4.06268 8.01124 12.2054 0.610444 -0.388022 0.676131
H 0.4254 3.14878 11.1908 -0.723202 -0.315844 0.785142
H 5.45262 7.65357 0.50638 -0.023374 -0.273234 -0.183373
H 1.50382 2.93513 10.1533 0.604672 -0.219231 -0.925887
H 8.61921 0.03394 6.28324 0.017355 -0.717444 -0.10085
H 9.17857 4.03813 10.0757 0.075575 -0.922552 -0.977482
H 9.05594 2.54288 10.1469 -0.18118 -0.901516 0.595758
O 0.84022 6.24496 10.8973 0.27532 -0.966309 0.424708
O 2.30921 11.1916 5.96968 -0.340325 0.641064 -0.301427
O 0.62839 2.14899 2.38524 -0.160652 -0.480026 -0.782895
O 3.40413 3.33191 0.37984 -0.664593 -0.698931 -1.301127
O 10.7753 3.2168 5.89107 0.194547 0.155189 -0.18156
O 8.95933 5.29377 11.4071 1.031568 -0.527821 0.110841
O 7.97882 5.11904 2.62789 -0.550895 -1.397223 -1.334153
O 9.7929 1.41566 1.85369 -0.07352 0.589161 2.531103
O 0.04296 8.44736 1.7568 -0.915215 -1.110045 0.256971
O 4.16383 5.3018 9.48851 -0.171464 0.427654 0.092525
O 8.63245 10.996 2.91543 0.103324 0.146061 0.235167
O 5.76863 4.32857 12.2042 0.349578 0.48331 -1.179898
O 7.50697 7.61317 0.02319 -0.20301 -1.568153 0.039443
O 4.10549 0.74774 11.123 -0.448159 0.399237 0.665745
O 8.3048 7.09984 4.39111 -0.811158 0.394382 -1.064888
O 2.84329 11.4088 9.22605 0.107069 -0.218309 0.230974
O 11.943 11.2384 5.64749 -2.095592 -0.475674 0.596684
O 5.15378 9.84993 1.9945 -0.169823 1.065762 1.042581
O 6.303 0.72959 2.72735 0.151914 0.57127 -0.24678
O 10.8066 9.67163 3.78276 1.006445 -0.423257 0.276878
O 5.71596 1.56935 5.22165 -1.908506 0.09636 0.860509
O 12.1492 5.39588 4.57713 -2.840785 -0.001321 0.049873
O 3.26473 2.61236 9.41914 -0.218814 -0.710041 -0.616195
O 6.72874 9.45801 4.15104 1.97935 -1.216174 0.427073
O 2.04094 4.28836 2.59035 0.135497 0.388382 -0.724478
O 10.9061 6.75224 9.88227 0.626626 -0.266695 0.811043
O 3.93409 6.31719 6.63836 1.027829 0.815225 -1.262883
O 6.64894 5.83367 6.27261 0.291317 0.476623 1.333612
O 7.26097 3.24108 6.64131 -0.608962 -1.151429 0.017811
O 8.32888 2.89685 4.32878 0.775444 -1.341696 1.228301
O 10.6504 7.52766 5.37106 0.326616 -1.356428 0.837153
O 12.0459 2.41623 8.75417 -0.727254 -0.192314 0.90837
O 2.56441 0.19403 0.93113 0.058613 0.291836 0.356533
O 4.4219 8.99349 6.10413 -0.165282 1.87182 -0.159486
O 10.6497 10.5907 7.92405 0.327449 0.956203 0.615984
O 6.09922 9.97919 7.89892 0.247852 -0.656298 1.483815
O 11.8807 12.0531 11.4252 0.232836 0.121231 0.024184
O 9.90293 8.11698 7.92253 0.54982 -1.12407 -2.39155
O 7.39642 7.58881 8.24643 -0.502028 0.639722 0.115691
O 8.58613 0.30768 8.92078 2.437017 -0.593674 -1.202085
O 6.21093 11.5516 10.0296 -0.200355 0.829521 0.06065
O 3.56801 11.865 3.16994 1.247432 -1.250632 -0.18418
O 9.08729 1.46461 11.6149 -0.759523 -1.468592 -1.323328
O 6.52725 1.76104 0.15615 -0.753194 -0.0715 -0.539456
O 9.47038 10.5499 0.41093 -1.107381 -0.6076 0.367558
O 10.1597 4.09227 1.10575 1.167136 -0.427207 -0.709463
O 6.84132 10.2356 0.08813 0.804705 -0.054359 -1.007346
O 12.2339 1.3382 4.92871 0.850005 0.298188 -0.049514
O 2.16665 4.7394 5.19046 0.838849 -1.1621 0.483803
O 6.52214 6.20157 10.2256 -0.023617 -0.917893 -0.965469
O 6.92411 11.5824 5.81495 -0.465875 2.124969 1.201173
O 1.42686 10.1107 0.17675 1.014379 2.416104 1.614947
O 11.6797 2.25317 12.2527 0.793186 0.070437 -0.352084
O 10.2533 8.05303 12.2814 1.932098 0.052867 0.697447
O 0.14021 5.66678 1.37825 0.366126 0.376101 -1.888814
O 0.28762 11.9101 8.88516 -1.863363 2.03352 0.202023
O 4.50318 7.74867 0.67379 -0.474738 0.288381 -0.507657
O 1.27863 3.4809 10.9021 0.287631 0.937055 0.613792
O 9.4762 0.36481 5.96159 0.259625 0.468024 0.082339
O 9.24712 3.20932 9.48637 0.439474 2.052375 0.399814
Na 8.67178 0.808 3.80224 0.021552 -0.48269 -0.593948
Na 9.14247 2.3486 7.37792 0.227409 -0.113915 0.422064
Cl 2.57122 1.85495 6.43851 0.123878 0.170816 -0.134396
Cl 3.26052 8.39848 10.3887 -0.19249 -0.054457 -0.011659
184
energy=-998.44910312 config_type=nep2xyz pbc="T T T" virial="-13.417250004423826 3.573573890515532 0.5400553798743765 3.573573890515532 -18.38222037648869 -2.863404993050388 0.5400553798743765 -2.863404993050388 -18.98037258692467" Lattice="12.4 0.0 0.0 0.0 12.4 0.0 0.0 0.0 12.4" volume=1906.6240000000003 Properties=species:S:1:pos:R:3:force:R:3
H 1.21693 6.82669 10.6531 -0.231861 -0.313205 0.095432
H 3.49477 12.0989 5.3732 0.011304 -0.750476 -0.203748
H 4.99465 10.4644 2.43665 -0.429005 0.397696 0.67157
H 1.06591 1.06657 2.95315 -0.873067 -0.305653 0.979356
H 2.38318 4.4117 1.65171 0.276458 0.535597 -0.373471
H 2.4791 4.22247 0.1163 0.443714 1.06242 0.627474
H 9.63904 2.87131 4.68721 -0.109344 0.42771 -0.172614
H 11.1616 2.46268 4.92102 -0.225006 -0.393234 0.111177
H 0.67936 5.33042 10.9148 0.603847 -1.452405 -0.048801
H 7.83598 5.0324 10.7469 -0.77348 0.423049 -0.102336
H 9.49893 2.03939 1.07728 -0.129297 -0.138449 -0.639982
H 7.7913 5.82649 3.39969 0.369075 0.729258 0.649271
H 8.96092 4.04028 11.3502 -0.750753 1.003281 -2.03369
H 5.88481 5.08795 12.2252 -0.605232 -1.227626 2.538366
H 8.80514 10.6103 3.34888 -0.278492 0.009892 -0.014044
H 0.60336 9.37922 1.41751 1.072296 0.588482 -1.134508
H 9.59372 10.8022 2.02502 0.172929 0.058061 -0.368635
H 3.41938 6.01101 5.97772 -0.635972 -0.686281 -0.36306
H 4.76316 4.74402 0.89767 -1.207387 0.027594 0.0873
H 6.92769 9.08252 0.1801 0.197369 1.119086 -0.882221
H 7.98947 7.92302 0.37201 -0.557616 0.493896 0.088457
H 3.85092 0.43207 11.5757 0.097764 -0.897316 -0.16121
H 6.56794 6.76007 9.93834 0.512956 -0.933386 0.80801
H 7.0914 5.25043 2.18136 0.745718 -0.737139 0.329307
H 9.08323 7.113 4.87452 -0.975703 0.278547 0.423737
H 2.40562 10.663 0.24746 0.157153 0.549373 0.390184
H 3.52756 1.28135 10.3698 0.12512 -1.539676 -0.64972
H 0.9068 1.33794 1.35642 0.622374 -0.158737 1.015006
H 10.7248 9.92734 3.94367 0.535895 0.083252 0.066383
H 12.2013 9.43638 2.77567 0.085518 -1.928202 -1.513085
H 0.58292 11.38 6.35989 0.115329 -0.549176 -0.604418
H 6.20145 8.50903 1.7782 0.234871 -0.583097 -0.590766
H 4.73357 8.10884 2.04901 -0.368521 0.015275 -0.425587
H 6.06898 0.05571 2.81161 1.643639 0.972343 -0.03936
H 6.83027 1.06107 1.83343 -0.106951 0.011301 0.571664
H 4.24774 8.11421 5.95076 0.166824 0.73803 0.25674
H 3.27618 11.4017 9.51355 -0.210437 -0.145923 -0.538463
H 12.0886 10.0409 4.79847 0.417557 0.736589 0.376059
H 10.4879 2.69034 2.05332 -0.482278 -0.645868 -0.541648
H 12.2376 11.5648 9.92723 -0.081648 0.34374 1.120827
H 3.66662 10.5047 5.28314 0.810174 -1.262407 0.690098
H 4.34014 1.7232 5.79346 -0.35605 0.52673 -0.366027
H 5.71068 1.91806 4.87686 -0.812099 -0.335063 0.048994
H 11.4214 4.32843 5.74736 0.446598 0.208804 0.668399
H 6.54486 9.86995 3.34936 -0.54012 -0.240416 -0.209464
H 0.54218 4.80465 6.0845 -1.469573 0.433755 0.241401
H 0.36041 4.33451 2.32611 1.58207 -0.628668 0.927961
H 7.90004 3.18555 5.11834 -0.412197 0.048117 0.185967
H 7.41123 9.16783 4.36918 0.582833 -1.986882 0.548988
H 0.27868 11.1843 11.3452 1.570783 -1.3965 1.445963
H 1.32152 3.06423 2.55183 -0.116607 -1.109585 -0.072604
H 9.15992 11.7681 6.43843 -0.334384 0.945273 -1.190886
H 11.3506 6.38987 5.69923 -0.672217 0.776635 0.222988
H 11.2501 6.60788 10.778 -0.181163 -0.317857 -0.217408
H 4.09711 6.21425 7.40488 -0.096148 -0.029208 -0.625603
H 5.8567 5.99544 6.43704 1.966922 -0.322689 0.327368
H 6.47891 2.75755 6.48217 -0.67092 -0.244946 0.082904
H 7.07145 6.56012 7.37997 -0.47902 -1.245423 -0.83234
H 7.09667 4.22126 6.74439 0.095402 -0.535635 0.166015
H 11.107 7.95815 5.22421 -0.29963 -0.87476 0.103451
H 7.96484 3.77832 3.65195 -0.177883 -0.244551 -0.135886
H 0.01247 0.83467 11.6517 0.094989 0.92183 0.782413
H 11.3028 2.26596 8.61707 1.160209 -0.700084 -0.389198
H 0.12519 2.33772 7.67059 -0.496312 -1.355313 0.927139
H 4.36778 12.38338 1.50261 -0.055971 0.30906 -0.597844
H 4.48186 8.4956 4.53996 0.242489 1.496722 1.252544
H 3.10576 0.84558 1.36548 0.491617 0.068383 -0.62978
H 9.68067 6.06206 10.7968 0.772894 0.261304 -0.577667
H 0.08578 0.00963 8.19062 1.39292 -0.600531 -0.00772
H 3.49652 3.39525 9.22675 -1.801303 -1.405882 -0.197223
H 9.56664 10.1256 8.08816 1.038435 1.540115 -0.080615
H 10.9175 10.9756 7.99846 -0.635091 -0.067883 -0.071209
H 5.9904 10.1737 7.27278 0.88044 1.831114 -3.363785
H 4.7067 9.93478 8.08436 -0.087597 0.092062 -0.112388
H 3.00313 9.90072 9.4484 -0.345239 -0.336497 -0.152956
H 9.97255 7.90606 7.31262 0.142856 -0.188759 0.45321
H 10.1711 7.69676 8.89517 -0.218669 -0.130694 0.305569
H 8.07403 8.01457 8.35243 -0.295189 -1.124077 0.906786
H 6.59769 8.39922 8.45954 -0.829828 0.165061 -0.012294
H 7.67808 0.41988 9.21262 1.579053 0.548237 0.460645
H 9.25188 12.36372 9.02342 -1.55012 1.821383 0.560618
H 5.96886 11.371 8.99903 0.020935 -1.066487 -0.716638
H 12.329 7.26473 1.74654 -0.056939 -0.183102 -0.335075
H 2.53837 2.39581 8.39903 0.003109 -0.085526 -0.802308
H 1.86876 4.78957 4.43076 0.53363 -0.120819 1.628427
H 5.39058 0.14203 9.80242 0.676909 -0.246819 0.18178
H 5.67951 1.4479 12.33711 0.413518 0.720312 0.588452
H 6.06476 2.95082 0.50785 0.308543 -1.485009 -0.405569
H 9.94074 10.013 12.2334 -0.47077 -0.240019 0.138365
H 7.94807 1.96815 11.9562 -0.760493 0.07695 0.345183
H 8.93309 1.55238 10.8789 0.164304 -0.089036 -0.294335
H 10.3444 11.2652 11.5168 0.202965 0.513521 0.099129
H 9.83448 4.93854 1.9498 -1.641561 1.17298 0.670527
H 11.3136 5.12864 1.43285 -0.877691 0.402371 0.024232
H 2.22088 4.0851 5.79978 0.471256 -2.341981 0.586389
H 0.80193 1.51527 5.09751 1.089652 0.805094 0.812039
H 7.8766 11.1509 0.0145 1.527067 0.364137 0.489667
H 0.15109 0.20781 4.79687 -0.167 0.203083 -0.259008
H 7.06693 11.1 11.1326 -0.425389 -0.862703 2.342228
H 1.36817 11.1995 8.31654 -0.790959 0.775708 0.188587
H 3.62815 6.41005 9.53966 0.325095 -0.73545 -0.549315
H 4.05529 11.381 3.46372 0.749073 -0.500336 -0.109932
H 5.94109 12.3213 5.99655 -0.345163 -0.734403 -0.658416
H 6.55123 6.74413 11.4756 0.002621 0.395901 0.186208
H 6.31712 10.7565 5.4087 -0.197722 0.526447 -1.175725
H 7.62468 6.7621 5.44699 0.001271 -0.341562 0.447779
H 11.5293 1.58239 0.26342 -1.04769 0.203693 0.694797
H 1.8159 9.61 11.8126 -0.064903 -0.89907 -0.508905
H 10.0568 7.41682 12.0453 -1.180221 0.811583 0.926668
H 10.2432 7.94227 1.16242 -0.743499 -0.140615 -0.590042
H 1.64527 11.2441 5.1955 0.648724 -0.249999 -0.205721
H 4.97431 5.63016 9.4404 -1.251761 0.077166 -0.483626
H 0.30898 6.61489 0.36164 -0.775874 -0.562741 0.701574
H 3.16577 7.69157 0.23424 -0.146393 0.197244 -1.36454
H 0.56059 3.15021 11.6213 0.622034 0.517769 -0.645219
H 3.06751 6.47711 1.17901 -0.323862 -0.999636 -0.420528
H 1.57377 3.35088 10.4247 0.162587 -0.179556 -0.378603
H 7.76075 11.9167 5.85593 -0.264861 0.071199 -0.144434
H 10.6354 4.45772 7.90606 0.373569 0.666673 -0.175896
H 9.65147 4.01593 9.13 0.366328 0.419258 -0.479857
O 0.468 6.25957 10.9426 -0.725818 2.197729 0.03282
O 3.26805 11.2767 4.88488 -0.967229 2.110224 -0.221771
O 1.53462 1.32641 2.16264 0.262947 0.63832 -2.254257
O 2.90572 4.74644 0.8637 -0.577478 -1.45736 -0.390051
O 10.3796 2.88837 5.33296 0.664283 -0.21684 0.111907
O 8.71346 4.67684 10.5649 1.789737 -1.707361 1.989237
O 7.85056 5.07127 2.80493 -1.072263 0.589997 -1.215044
O 10.1084 1.80387 1.78765 0.733401 0.682964 1.077991
O 12.3695 8.87497 1.90072 -1.268353 1.16661 2.61354
O 4.07216 5.68481 9.00132 0.858364 0.65205 1.300899
O 9.67216 10.8749 2.9822 -0.311596 0.173116 0.452597
O 5.70737 4.63964 0.76006 1.750784 0.987162 -2.698456
O 7.0027 8.13278 0.2856 0.400505 -1.699293 0.467432
O 3.82841 0.33216 10.5764 -0.407997 2.390789 0.590154
O 8.10313 7.33113 4.82138 0.985346 0.247781 -1.139496
O 3.00029 10.6923 8.86905 0.245091 0.623629 0.534194
O 0.69992 11.1354 5.3958 -0.859611 0.579341 1.260643
O 5.45571 8.67872 2.37825 -0.415447 0.436533 0.674287
O 6.88455 0.68496 2.74524 -1.380294 -1.018839 -0.394426
O 11.5289 9.4515 4.27902 -1.089963 -0.864132 -0.354639
O 5.26423 1.47653 5.63065 1.301176 -0.128327 0.063806
O 11.9676 4.90307 6.35492 0.695384 -0.52394 -0.905888
O 2.7738 2.67248 9.2896 1.925946 1.670337 1.092422
O 7.15626 10.0225 4.06856 0.430315 1.612851 -0.018455
O 1.21059 3.99969 2.7659 -1.401118 1.598765 -0.366623
O 10.2895 6.85334 10.6588 -0.00726 -0.211986 0.066214
O 4.18527 6.39025 6.41763 0.949946 0.685872 1.142524
O 6.88173 5.84496 6.63658 -2.084485 1.312638 0.643031
O 7.28153 3.22461 6.7213 0.430774 0.917408 0.125655
O 8.04507 2.93873 4.18407 0.38818 -0.039647 0.048084
O 10.6782 7.13709 5.61905 0.817595 0.52094 -0.169468
O 12.0863 1.69185 8.30872 -0.659137 1.885265 -0.58881
O 3.92884 0.59689 0.84619 -0.701623 -0.435031 1.181354
O 4.445 8.95734 5.44437 -0.270414 -2.180693 -1.596379
O 9.93202 11.0762 7.96384 -0.076088 -1.708476 0.212536
O 5.67125 9.83607 8.05381 -1.097325 -1.979106 4.105041
O 12.0882 11.7579 10.9044 -1.266679 0.990758 -2.488805
O 9.67711 8.19205 8.21449 0.034056 0.43121 -1.055852
O 7.16473 7.61812 8.6135 0.827724 0.760573 -0.771615
O 8.65604 0.79007 9.28166 0.080084 -2.398396 -1.155633
O 6.25216 12.1326 9.5042 -0.46654 1.055982 0.654747
O 4.88308 11.3409 2.90295 -0.371706 -0.135676 -1.07298
O 8.88102 2.05 11.7165 0.610553 0.283657 0.020866
O 6.41203 2.0026 0.28851 -0.775664 0.959011 -0.026275
O 9.65718 10.9356 12.1173 0.66095 -0.419406 0.134315
O 10.5878 4.47765 1.65724 2.220258 -1.466488 -0.635482
O 7.0669 10.7734 12.1175 -1.805787 0.628793 -2.800982
O 0.14728 1.16046 4.5122 -1.622162 -0.905704 -1.258993
O 2.16617 4.92572 5.39804 -0.985383 2.16612 -2.551425
O 6.4765 6.11164 10.7276 -0.296429 0.958275 -0.728099
O 6.28119 11.4023 6.13459 0.20538 0.478598 1.127699
O 1.54783 10.2725 0.06058 -0.14139 0.512025 0.077077
O 0.02108 1.61269 12.3212 0.708327 -1.059541 -1.20663
O 9.54749 7.85005 0.46556 1.966494 -0.202936 -0.186613
O 12.1807 6.44543 1.19625 1.037113 0.221723 -0.525104
O 0.40153 11.4434 8.13294 -0.533956 0.371496 -0.011957
O 3.2659 7.40708 1.12809 0.76142 0.977224 2.081678
O 1.12519 3.83321 11.1374 -0.513491 -1.05094 1.10996
O 8.66104 12.3017 5.72821 1.284656 -0.551424 1.564131
O 10.2221 3.7367 8.37241 -0.902672 -1.352867 0.820834
Na 8.93475 0.91458 3.68365 -0.07526 -0.456519 -0.401256
Na 9.00427 1.94304 7.25867 0.33236 0.119928 0.0025
Cl 2.23829 1.96685 6.24182 0.78549 0.131 0.640741
Cl 2.72703 8.16957 10.6084 0.362523 0.059112 -0.449271
