186
energy=-1001.66950629 config_type=nep2xyz pbc="T T T" virial="-5.067371688529962 -4.0955409495268125 -5.04645111742646 -4.0955409495268125 0.6872966917422021 -2.9864174751305397 -5.04645111742646 -2.9864174751305397 -9.048123201842674" Lattice="12.4 0.0 0.0 0.0 12.4 0.0 0.0 0.0 12.4" volume=1906.6240000000003 Properties=species:S:1:pos:R:3:force:R:3
H 6.50916 11.1128 8.24158 -0.582124 0.122394 -1.054255
H 11.6759 9.12574 5.11947 -0.755539 0.041855 2.374629
H 1.55867 5.87677 9.14556 0.215198 -1.664432 -0.544287
H 11.584 0.63748 10.479 -0.051266 -0.750093 -0.180348
H 9.73105 10.7603 9.33538 0.259317 -0.079191 0.710202
H 1.809 8.22273 6.67487 -0.598284 -1.889951 0.313442
H 6.62464 9.70632 9.40147 0.093518 0.008554 -0.680803
H 2.60041 9.93467 9.89869 0.463309 0.587841 0.73848
H 8.13398 7.83948 7.91283 -0.189803 -0.380283 0.257471
H 11.214 10.8101 9.33943 2.702476 -0.104253 -1.526622
H 6.4378 9.5773 0.45196 -1.372842 0.967356 1.775117
H 7.36159 3.84636 6.62032 0.602761 0.326565 -0.330095
H 10.1823 2.67018 10.291 0.221388 -0.441157 0.610687
H 1.87354 6.56541 6.35985 -0.96384 1.942506 0.597748
H 3.65165 7.37326 2.22707 -0.102279 0.346025 0.195128
H 4.95001 5.95985 1.63049 0.884755 -0.533579 0.555867
H 0.0089 1.15695 1.33854 0.3844 -0.321945 -0.697246
H 5.3553 4.36151 0.37782 -0.59223 0.055852 -0.006542
H 2.01799 5.07859 2.41875 1.014066 0.666562 -1.405011
H 5.17284 2.62979 10.976 -0.876952 -0.081691 -0.969261
H 9.83937 2.58429 8.89082 1.231132 -0.623613 -2.945282
H 8.8774 0.0039 5.27343 0.072483 -1.784649 -0.136933
H 12.3348 4.10536 2.38775 -0.106775 -0.328504 0.188045
H 2.0415 5.19054 4.16982 -0.287052 -0.258449 1.169803
H 0.88173 4.97165 8.08229 0.940752 -0.67781 0.231323
H 3.04347 2.07323 9.39285 -1.263298 0.015323 -0.746516
H 5.94689 0.67839 4.90242 0.062185 -1.278822 -0.392765
H 3.53739 0.36694 0.68918 0.527511 1.399087 0.074501
H 9.64495 10.2385 5.37915 0.678893 -0.190277 -0.530313
H 4.23134 5.05389 6.571 0.341958 -0.02838 0.212644
H 11.5313 1.82448 2.27448 -0.840975 1.250331 0.509605
H 6.0375 8.32058 5.59697 -0.189795 0.077326 -0.070012
H 0.51774 2.80888 0.53504 0.348225 0.20264 0.114572
H 3.88805 2.73648 0.70291 0.302827 0.072364 -0.304938
H 7.67774 2.88676 8.66569 -0.709643 -0.290879 -0.725276
H 4.73057 10.8597 1.40389 1.032338 -0.949768 0.704321
H 3.76892 6.22131 10.6578 0.352089 0.821844 -1.049008
H 7.85399 9.08809 4.14194 0.283107 -0.373113 0.621817
H 5.05516 10.6986 10.4673 -0.207197 0.645295 0.176463
H 8.81043 6.15289 8.8862 -0.484362 -0.10357 -0.149631
H 10.0616 9.05057 7.19017 1.666735 -0.206888 -1.234099
H 8.1176 7.74986 4.94559 0.057139 0.463895 -0.337751
H 8.94989 3.53507 4.17229 0.512044 -0.754629 -0.278114
H 5.40216 6.94487 5.61043 -0.452712 0.062835 -0.012411
H 3.58973 6.83772 8.35915 1.31509 1.483619 2.190253
H 1.80844 11.8444 4.06785 -0.142504 -1.131366 -0.010857
H 0.02386 7.2802 10.6853 -0.033219 0.453487 0.256986
H 7.84129 7.66571 2.46244 -0.132756 -0.142293 0.984315
H 3.99026 11.4171 11.351 0.144404 0.374875 -0.424434
H 2.68295 9.68152 7.73853 -0.118099 -0.291619 0.988127
H 11.5611 3.56517 6.68062 -0.364553 -0.267446 0.164943
H 6.34452 11.1376 3.51827 -0.153969 -0.150703 1.643156
H 6.83799 4.62541 5.39734 -0.136743 0.436777 -0.447136
H 0.44927 4.19496 5.97504 -0.271372 0.313873 0.285001
H 3.06123 4.77788 5.41526 -1.619168 0.563827 -0.590291
H 8.90102 9.51432 0.02769 1.870076 -0.151334 -0.018863
H 7.30176 10.9766 4.74088 1.205938 -0.145827 0.270307
H 3.41039 2.85163 4.78169 -0.944611 -0.319637 -0.559272
H 3.35679 2.14947 2.11833 0.181741 -0.413505 -1.535516
H 1.8036 2.83574 8.82934 -0.30536 0.972662 0.133114
H 0.0407 1.69262 11.221 0.589968 -0.031215 0.32666
H 3.24786 4.97642 7.79676 1.20202 0.456259 -0.207513
H 9.51338 6.27736 1.72783 -1.56378 0.385086 -0.381683
H 2.28976 6.13755 11.1163 0.691101 0.135459 -0.032809
H 8.37045 0.89839 10.1689 -0.632599 -0.166446 0.321929
H 11.1753 1.64374 6.92038 0.019761 -0.503534 -0.048164
H 3.75503 9.1088 6.68503 -0.195961 -0.003801 0.169116
H 7.87841 9.33994 7.81567 -0.849809 1.820838 0.931765
H 10.9183 11.5557 2.16884 0.108623 0.523175 0.179335
H 4.88051 1.15265 10.6472 0.107017 -1.247254 0.17497
H 10.2594 3.15476 3.329 -0.28083 0.140682 0.013863
H 1.18514 0.90546 7.23055 0.036457 0.120663 0.131655
H 0.51794 0.08494 3.34396 -0.285467 0.043705 -0.422054
H 10.2109 10.0789 11.695 0.21629 0.625838 -0.989874
H 6.88456 9.14428 11.5083 -0.044643 -0.531417 -0.904849
H 4.86966 9.57573 2.26107 -1.29721 -1.844298 1.432965
H 11.6301 9.5327 7.34048 -0.33172 -0.042479 -0.243156
H 6.8491 1.78328 5.40229 -0.416241 -0.409684 0.154252
H 7.56028 0.0335 11.2523 0.149005 0.580664 -1.443626
H 9.47388 10.7007 3.70698 0.817057 -0.420038 1.590221
H 7.54487 11.5521 9.26125 0.024421 -1.202109 -0.918716
H 11.9246 7.32943 3.93594 0.581016 0.922942 0.236393
H 4.70737 4.66418 4.54925 0.277911 0.038422 0.540349
H 10.3912 10.1688 1.72735 0.042048 0.324904 0.22027
H 10.0958 4.94338 9.78359 0.007293 -0.298784 -0.140982
H 10.853 6.27832 2.54113 0.111613 -0.44215 -1.518449
H 9.18125 5.41246 5.74765 0.228217 0.340808 0.071572
H 5.17206 5.35686 8.97078 1.564632 -0.90796 1.595072
H 10.6689 8.09318 11.9008 -0.12259 -0.932764 -0.296285
H 1.97773 3.15473 3.45403 -0.835114 1.527187 -0.687561
H 10.3222 6.09126 4.95627 1.377435 -0.137013 -1.87375
H 5.6145 5.37816 3.63123 0.674008 0.521851 -1.396304
H 4.54225 8.09506 4.09107 -1.1354 0.785071 -0.733355
H 6.34986 3.54739 8.53208 -0.632813 0.797688 0.59674
H 5.4148 8.56961 9.63104 0.347199 -0.161942 -0.325629
H 6.66245 5.36297 9.46407 0.126183 0.494446 -0.08167
H 11.4423 9.39799 3.67101 0.172477 0.203798 -0.430864
H 0.71367 0.58625 5.73208 -0.264103 -0.796767 1.824086
H 4.75857 2.64071 5.37097 0.378842 -0.199677 0.190904
H 10.9746 4.48723 1.84669 -1.536876 1.639873 -0.878539
H 1.23514 9.61158 4.22094 -0.617839 -0.314029 0.056178
H 0.25597 5.92815 3.45023 -0.374141 0.062605 0.089647
H 4.16729 4.56409 11.7923 -1.876856 2.505724 -1.587207
H 2.64563 11.6673 1.13894 0.107204 -0.418951 -0.300607
H 4.65586 11.4404 8.72078 -0.603333 0.019725 0.184371
H 1.20048 8.12864 9.89571 0.227413 0.702859 -0.009014
H 3.27109 9.03415 3.69592 -0.37865 0.243199 0.475472
H 10.7579 6.37371 9.99851 -1.131763 -0.621796 -0.431521
H 9.7384 2.24965 6.52635 1.882823 -0.37171 1.060323
H 1.9423 2.08662 0.64026 0.816639 0.23737 0.118293
H 6.6144 6.02469 1.64489 -0.947451 -0.674884 0.603665
H 4.53612 11.1314 7.17317 -0.345264 -0.332772 0.069912
H 0.92017 10.3112 8.78383 3.424106 -1.41763 1.483021
H 3.33595 6.7081 0.76883 -0.211486 0.124064 -0.881408
H 10.8691 6.50375 12.1626 -0.035605 1.025692 0.026831
H 0.28027 11.4411 7.74973 0.299718 -1.547895 1.070989
H 3.20385 8.10761 9.24674 -0.097152 0.035463 0.20614
H 2.13806 1.61042 3.76055 -0.019927 0.161132 -0.107662
H 2.32403 9.92908 5.32374 -0.086025 0.19506 -0.498343
H 7.44872 7.7077 1.00111 0.477558 -0.034144 -0.234584
H 9.18979 1.37801 4.68555 -0.102145 0.468983 -0.145583
H 7.9238 5.97084 7.62074 -0.091544 -0.608836 -0.958903
O 4.80742 2.01801 10.2678 0.242692 1.277073 0.14881
O 7.55991 0.34796 10.3046 0.721532 -0.201448 1.16409
O 7.87021 6.22994 8.53327 0.638784 0.541936 0.799086
O 1.39998 7.32837 6.90693 1.148024 -0.377183 -1.204304
O 4.6358 3.92821 12.2573 2.551813 -3.088415 2.13889
O 7.19649 9.21991 0.0271 1.594874 -0.553226 -0.738372
O 6.41121 11.2234 4.52408 -1.471556 0.394982 -2.063998
O 0.86738 7.26162 10.2004 0.309627 -1.477607 -0.28615
O 1.07963 2.09635 0.19058 -1.306613 -0.156267 -0.191479
O 7.85168 7.11254 1.67332 -0.114174 0.267503 -0.833489
O 3.91273 3.08731 5.58117 0.870515 0.773178 1.112229
O 11.4234 3.72014 2.15833 1.997966 -1.975682 0.790122
O 10.6092 10.7117 2.53563 -0.281519 -0.745589 -0.883723
O 3.04469 9.77169 6.82019 0.597076 -0.042654 -0.896722
O 11.8081 6.40648 3.69572 -0.260565 -1.500384 -0.163911
O 4.18742 5.28191 7.50779 -1.797406 -0.56533 0.428732
O 2.2923 2.02722 8.71273 1.870785 -0.980218 0.690429
O 3.95842 8.45094 3.33203 1.533281 -0.730562 0.395991
O 10.9958 9.08688 6.70833 -1.734041 0.190018 1.673591
O 9.43616 2.81045 9.69035 -1.362618 0.78134 2.131267
O 7.67643 4.41244 5.85324 -0.224247 -0.700059 0.792712
O 5.17471 7.88812 5.74158 0.398804 0.009077 -0.069696
O 10.9528 7.21789 11.4789 -0.066823 -0.217903 0.547672
O 5.43891 5.31269 4.58177 -0.532918 -0.605013 0.572801
O 4.53958 11.5495 10.5349 0.23543 -1.341876 0.382363
O 9.4821 2.78357 3.81745 -0.148377 0.829059 0.165308
O 9.94634 9.52353 0.02669 -2.12895 -0.396832 1.121857
O 10.4137 6.00919 1.61476 1.448062 0.29395 1.146047
O 12.1666 4.32787 6.66155 1.107206 0.760247 -0.240926
O 3.60693 6.56299 1.67353 -0.293077 -0.702728 0.288982
O 3.21808 5.93696 11.3818 -1.297899 -0.362197 1.100998
O 12.0059 8.88514 4.2738 0.604522 0.262786 -2.036687
O 0.16179 10.623 8.36184 -3.916422 2.944648 -3.192364
O 5.8026 4.98977 9.70946 -1.663991 0.164222 -1.63846
O 6.89951 2.91842 8.04205 1.162103 -0.205772 0.434659
O 2.27506 5.35393 5.18245 1.025843 -0.626387 0.004657
O 11.6204 1.5497 10.7405 -0.689207 0.768365 -0.25612
O 1.67801 4.95744 8.68156 -1.074279 1.963523 0.245732
O 6.19965 9.04142 9.97948 -0.832385 -0.283625 1.234505
O 10.5688 2.36942 7.12059 -2.008134 0.148822 -0.891905
O 2.14225 9.35837 9.30464 -0.105367 -0.285276 -0.985946
O 11.736 0.93869 2.0005 0.353223 -1.455017 0.160104
O 7.58285 8.15394 4.23204 0.015451 -0.102095 -0.042462
O 5.06413 11.5726 7.85205 0.013788 0.892828 -0.227996
O 2.09446 10.0369 4.35324 0.702335 0.409337 0.492061
O 2.62978 2.45506 3.58433 0.374114 -1.706066 -0.228756
O 1.23285 0.21282 3.97881 0.219095 1.15487 0.6217
O 10.2844 5.77261 9.32356 1.16999 0.913851 0.548177
O 3.88788 7.3753 9.21353 -0.839609 -0.94782 -2.450721
O 5.39762 10.2192 1.8386 0.409091 2.99998 -2.138834
O 0.51755 0.40675 6.72871 0.225118 0.827418 -1.751362
O 5.90849 1.49136 5.39967 0.843379 1.192751 0.563124
O 10.504 10.7511 9.93959 -3.189414 0.171314 1.165841
O 8.30824 8.63382 7.38232 1.524424 -1.270874 -1.405589
O 7.36973 10.7904 8.56035 1.090704 1.595054 1.735342
O 1.34464 4.65525 2.91884 -0.972635 -0.388937 1.190079
O 5.81993 5.43406 1.85489 0.293786 0.604511 -0.518274
O 3.52739 1.90811 1.12199 -0.426784 0.685078 1.859907
O 9.09873 10.5408 4.64207 -1.307719 0.609024 -0.808162
O 3.43839 11.8077 0.59793 -0.513849 -1.232448 0.256527
O 8.77506 0.92114 5.44476 -0.158861 1.61575 0.376322
O 9.88029 6.10826 5.77716 -1.890132 -0.150797 1.708185
Na 11.4338 6.45899 7.32351 0.33437 0.193287 -0.218723
Na 4.83957 1.70937 7.69532 0.12151 -0.014672 -0.014244
186
energy=-1002.08694932 config_type=nep2xyz pbc="T T T" virial="-4.635096520535234 5.236628390921951 2.1943037240711303 5.236628390921951 -10.480051802378657 3.8887628815549915 2.1943037240711303 3.8887628815549915 -27.708130205901934" Lattice="12.4 0.0 0.0 0.0 12.4 0.0 0.0 0.0 12.4" volume=1906.6240000000003 Properties=species:S:1:pos:R:3:force:R:3
H 11.1453 12.2573 10.2644 0.129837 -0.691129 -0.375929
H 10.9058 11.5935 3.16481 -0.603275 0.423066 -1.254319
H 4.25386 5.77334 5.73227 -2.368877 0.068136 1.302725
H 7.38547 12.2229 4.87339 0.112086 0.128724 -0.064552
H 12.366 1.38282 3.32486 0.487491 0.497735 -0.063275
H 0.82107 7.49316 3.39573 0.226339 -0.787994 1.068783
H 2.64553 2.52955 11.7387 0.664837 0.262513 0.630194
H 11.5045 7.59207 10.5829 -0.902527 1.636904 0.871036
H 9.99377 9.39839 5.217 0.019857 -0.966124 -0.914461
H 11.2965 10.0298 10.602 -0.23923 2.060443 -1.24809
H 3.44241 7.19885 9.66736 -0.276624 0.688915 -0.105894
H 2.50338 3.4312 6.70092 -0.844895 -0.519838 -0.776753
H 0.18884 9.49587 7.34103 -0.733548 -1.493655 0.279884
H 1.49067 6.65465 4.63626 0.189147 0.490313 0.347962
H 0.01594 9.25412 2.02934 -0.550527 0.476964 0.389746
H 5.81739 8.64898 3.95567 -0.104795 0.2748 0.485283
H 4.81767 7.42068 4.98228 -0.289973 1.314613 0.474211
H 3.02735 5.00745 0.89291 -0.16051 0.178429 -0.04867
H 7.60857 0.87758 2.80144 0.12499 -0.619084 0.56851
H 6.55787 9.90657 10.6515 -0.152 -1.353296 -0.63713
H 1.15547 1.03225 7.24242 -0.353769 -1.990938 1.09693
H 1.8704 4.07661 2.49971 -0.446238 0.812859 -0.611434
H 6.97766 11.8751 2.57473 0.102819 -0.443496 0.043261
H 2.38995 10.2273 11.9128 -0.947409 -0.704051 -1.044404
H 5.7704 5.78434 6.42471 -1.300839 0.171071 -0.883226
H 10.5207 7.28636 1.54166 -0.264165 -1.130678 0.244034
H 8.00287 10.883 9.86891 -0.562073 0.084615 1.05274
H 11.1737 3.53977 1.66051 0.309585 -0.492483 0.08286
H 2.21609 1.23608 0.88476 0.426956 1.014579 -0.334329
H 11.7685 5.60572 4.58661 -0.914371 0.675434 1.225164
H 0.31474 9.41737 11.1278 0.370369 1.024527 -0.553102
H 7.83728 2.76022 11.9688 -0.268164 0.130486 0.312503
H 12.2007 0.76043 0.00692 0.782255 -0.062868 0.145041
H 5.40328 2.71199 9.29227 0.024583 0.367676 -0.91539
H 7.95032 1.86007 8.05478 -0.333156 0.406711 -0.516769
H 4.68906 3.7302 3.12256 -0.117107 -0.230915 -0.49434
H 11.9625 7.52871 8.49255 0.511166 -0.318918 -0.642606
H 6.65304 4.35447 10.3515 -0.374368 -0.454544 0.086995
H 3.74592 2.44388 2.2043 -0.149055 -0.574639 -0.526948
H 4.65767 0.21084 10.3035 -0.328282 -0.063892 -0.063978
H 2.53801 1.03275 10.4684 0.741562 -1.243615 -1.069971
H 7.41225 5.55776 11.0026 0.03373 0.627758 0.353267
H 11.3428 9.31831 0.33739 -0.991127 -0.131599 0.618856
H 8.25886 4.10294 0.25632 0.106912 -1.098033 0.287011
H 4.09992 11.3076 6.59618 -0.601117 -1.01683 0.436858
H 5.11563 12.3295 6.28267 0.960594 0.392048 -0.221852
H 7.11855 6.0786 0.74725 0.639387 -0.029931 0.342977
H 5.90262 5.59899 2.45699 -0.378638 -0.502896 -0.349646
H 3.47971 2.15263 3.83956 -0.064838 1.038829 -1.268819
H 10.1742 1.86595 9.09836 -1.544872 -0.306642 -0.474127
H 6.76185 3.15373 6.62668 -0.711484 0.627959 0.266093
H 12.2895 4.70468 8.51752 1.029132 -0.313461 -0.19959
H 8.89596 4.99896 9.62696 0.224213 -0.199335 -0.040891
H 8.15521 2.7252 5.96946 -0.984325 0.052155 0.436543
H 1.93786 10.854 10.5399 0.0176 -0.375677 0.077795
H 10.2009 7.50254 6.7876 -1.470566 -0.76667 -0.231081
H 11.982 4.11251 7.00085 -0.409525 0.913954 1.473359
H 2.4099 7.10603 7.1459 0.184301 0.985034 0.668577
H 5.86863 3.10103 11.5512 -0.071958 -0.000839 -0.425373
H 10.9479 5.7674 1.72414 -0.063758 -0.277975 -0.366516
H 7.25691 0.92285 6.0021 -0.173716 -0.707632 -0.024786
H 10.6024 5.95331 5.84356 0.570866 -0.007222 -0.947258
H 10.6505 1.41421 2.6236 -0.512975 -0.055672 -0.066462
H 1.10058 5.59655 9.90555 0.412417 -0.445531 -0.379472
H 5.66622 9.14437 6.89559 1.497621 -0.59015 1.809073
H 7.77191 2.84708 1.73741 -0.799266 -1.431294 1.41643
H 11.3896 2.74629 8.6042 -0.575665 -1.079562 1.587819
H 10.2941 10.7833 5.63075 1.596419 1.775512 -0.111976
H 0.34474 11.7945 4.12361 0.358981 0.851612 -0.10738
H 6.33812 11.2053 11.2052 0.646203 0.564766 0.313186
H 10.7749 10.1843 1.52133 -0.424249 -0.032193 0.102333
H 10.137 4.42185 8.79775 -0.103456 0.176111 0.127937
H 2.3528 0.30012 9.15554 -0.588593 -0.195676 -1.292292
H 9.40574 7.39777 5.44179 -0.725234 -0.161427 0.341927
H 2.59009 8.56655 9.97193 0.198046 -0.221941 -0.324387
H 5.40316 4.57607 4.09035 0.773954 0.180535 -0.051942
H 0.19132 7.394 6.9599 0.356609 -0.584172 0.316965
H 8.08897 12.2463 9.03128 -0.121754 0.381778 0.514015
H 6.46486 7.92031 7.55817 -0.137882 1.671992 0.213216
H 2.22678 12.1888 0.91316 -0.16222 -1.188972 0.023128
H 10.0279 11.4905 9.58496 -0.659211 -0.179184 -0.547828
H 9.68508 7.71067 3.20487 -0.010171 -0.282106 0.03853
H 9.97737 4.14537 4.99469 0.408035 1.122495 -0.057871
H 0.15642 10.8175 5.3721 -0.254093 -0.066368 -1.700697
H 6.94724 5.94685 8.66444 0.217134 0.091864 -0.859622
H 10.4606 2.72431 3.57091 0.615103 -1.09717 -0.922378
H 3.6217 3.82028 7.52622 0.904618 0.203354 0.723186
H 2.10006 4.8657 8.88788 0.414683 0.128356 -0.325333
H 4.579 1.67295 0.25107 -0.652337 0.409083 0.49735
H 2.44678 9.85897 1.59876 -0.084718 0.561793 -0.635385
H 4.80423 1.75274 8.22734 -0.2187 -0.596287 -0.219912
H 8.70708 3.74181 4.09514 -1.374903 0.846177 -1.469986
H 5.79022 9.44863 1.77275 0.005413 0.941609 -0.470764
H 7.88537 2.1915 9.58812 0.233937 -0.600411 -0.786535
H 4.04339 3.83245 0.66769 -0.228536 1.05961 -0.941551
H 5.27168 5.96972 10.0094 -0.841569 -0.310748 0.849269
H 9.4454 11.8141 2.66088 -0.842559 0.24014 -0.118861
H 0.14412 0.64014 8.29003 -2.86062 1.042185 1.94978
H 2.48111 5.65644 6.73261 0.040285 -0.611405 -0.030154
H 10.9415 0.27217 0.77824 0.486146 1.039177 -1.773732
H 4.13081 8.63653 5.82819 -0.006211 -0.226959 -0.912829
H 8.44934 8.60463 3.65941 0.797344 -0.94815 0.579556
H 4.15172 5.6102 11.1115 0.208296 -0.162108 -0.009336
H 0.69043 10.9129 7.47261 0.426611 0.005613 -0.564298
H 0.15528 4.13182 1.17322 -1.199922 0.17809 0.0432
H 8.72847 6.17711 0.8386 0.219036 -0.008798 0.207088
H 5.78227 10.2664 0.34545 0.282168 -0.410306 1.244396
H 7.83126 6.52513 7.40901 -0.113726 -0.322514 -0.028646
H 6.55924 2.83752 2.88847 1.245825 -0.259925 -0.317128
H 1.34135 0.84924 2.69378 -0.537192 -0.023622 -0.23769
H 6.33504 7.6675 2.90323 -0.01004 -0.481278 -0.50065
H 5.88308 1.135 10.6006 0.231084 0.495822 0.079043
H 11.0714 6.14212 9.95003 -1.114048 -0.125247 0.431779
H 0.93783 9.89919 3.24817 -1.102626 0.13477 0.018061
H 1.9874 3.53519 10.7 -0.004993 -0.761411 -0.086521
H 1.86441 1.48499 4.93083 -0.591927 0.035299 -0.340917
H 2.41122 9.65571 7.26155 0.28554 0.217709 -1.031988
H 3.94335 10.3308 1.17495 -0.881287 0.243224 -0.33916
H 2.85617 1.16243 6.05258 2.071135 -2.308684 1.139246
H 5.17867 6.20115 1.23625 -1.417926 -0.589948 -0.69182
H 1.38546 5.57159 2.73578 -0.486337 -1.09939 -1.017038
H 3.34172 8.8308 7.98515 0.838153 -0.978383 1.512447
O 6.91214 10.4011 11.3831 -0.824486 1.020423 -0.168589
O 6.37768 8.94097 7.61031 -1.336499 -1.076955 -1.973962
O 3.36151 9.37239 7.19501 -0.529654 1.024064 -1.155786
O 0.81194 6.63823 3.9452 -0.171166 0.783232 -1.414637
O 3.87984 4.85561 0.45177 0.33483 -1.091613 0.452119
O 2.92343 7.97278 9.25658 -0.114048 -0.64801 0.720063
O 11.6569 4.24263 7.93959 -0.505784 -0.877519 -1.911056
O 7.98526 5.85876 0.29872 -0.417808 -0.536854 -0.633983
O 0.84915 0.98707 3.53589 0.414398 -0.465687 0.571407
O 5.91441 6.34379 1.81212 1.346653 0.958862 0.614458
O 2.41908 6.55725 6.36939 -0.384199 0.003839 -0.914632
O 11.2423 0.78696 12.3417 -1.107474 -1.016962 1.497019
O 12.3026 10.9726 4.38415 0.024019 -0.550738 2.035975
O 11.0904 2.01626 9.28229 2.25711 1.291741 -0.84225
O 9.30926 8.16874 3.96951 -0.864556 0.706857 -0.442129
O 11.1927 5.31483 5.34837 0.307549 -1.016948 -0.28021
O 10.2043 6.38375 1.85001 0.341132 1.820772 -0.25902
O 5.46534 10.2659 1.29783 0.277827 -0.590369 -0.240007
O 12.0189 7.87769 7.55899 -1.207947 0.397976 0.488195
O 0.8659 0.26167 7.86884 3.068378 1.095195 -2.934036
O 2.78578 4.19152 7.21421 0.401758 -0.416828 0.241643
O 8.35036 3.08144 0.34909 0.267961 1.710289 -0.951309
O 3.88314 2.23165 0.6673 0.287679 -0.190316 -0.02771
O 9.35179 3.46412 4.7045 1.033751 -2.03588 1.430181
O 3.45305 2.82493 3.10072 -0.286266 -0.631731 1.231154
O 10.9033 9.25295 1.26545 1.09921 0.013556 -1.215437
O 9.39087 7.02631 6.37705 2.126416 1.082689 0.278538
O 11.0522 2.26626 2.86273 -0.861796 0.84808 1.317244
O 7.35431 2.42363 6.50469 2.088201 -0.183726 -0.86009
O 0.86214 9.27504 2.51441 1.788857 -1.329522 -0.170571
O 1.33635 4.74962 9.45469 -1.030282 0.935159 1.164511
O 10.3681 11.9193 2.36411 1.355744 -0.688096 1.529915
O 2.3098 1.8285 5.7298 -1.567249 2.022494 -0.60762
O 4.29433 5.96233 10.2099 0.171695 0.24647 -0.514935
O 8.3806 1.66294 8.89959 -0.310993 0.200631 1.511898
O 1.85287 10.0044 11.029 1.318337 0.802149 1.004562
O 7.28882 12.3398 5.84535 -0.294409 0.264507 -0.235192
O 5.16792 5.7562 5.60027 3.734429 -0.373727 -0.354703
O 2.02631 2.59641 10.9976 -0.498454 0.222922 -0.247418
O 7.41807 2.37709 2.62826 -0.093953 1.395044 -0.958107
O 11.7482 6.78252 10.1726 1.97429 -1.457537 -1.533018
O 11.7412 9.3521 11.0704 -0.041527 -3.179737 2.118215
O 6.85915 5.36098 10.2282 0.78204 0.469011 -0.763724
O 5.53046 0.24378 10.7382 0.041113 -0.4856 0.174629
O 4.60635 8.40514 4.96859 -0.290219 -0.860029 0.829137
O 2.93154 10.4567 0.96983 0.683394 -0.564585 0.827048
O 0.81494 10.0882 6.93551 0.148663 2.111237 0.090371
O 6.94615 6.19363 7.67729 0.040633 0.105925 0.558246
O 4.37009 12.1831 6.86355 -0.383481 0.775482 -0.145745
O 5.5736 4.19633 3.19409 -0.429445 0.351899 1.383547
O 9.82061 4.69042 9.68304 -0.314392 0.229897 0.326681
O 8.258 11.2901 9.04894 0.822822 -0.122247 -1.389599
O 2.89547 0.2179 9.92921 -0.258209 1.450623 2.212736
O 9.63254 10.1385 5.68473 -1.571282 -0.471396 0.954196
O 10.9871 11.4741 9.68145 0.442192 0.838935 0.78085
O 7.69919 12.2748 3.085 -0.201577 0.8326 -0.531143
O 6.57864 8.47575 3.37009 0.60517 0.676254 -0.530243
O 6.33667 3.02482 10.7 0.19113 -0.927407 0.22293
O 1.58123 0.51024 0.94942 0.040684 0.175593 0.31405
O 11.5845 4.02858 0.92798 0.536837 0.510751 -0.411839
O 1.39622 4.82382 2.02646 1.484987 -0.058248 1.796452
O 5.17174 2.63366 8.30024 -0.006105 0.52044 0.982302
Na 10.7627 2.893 11.5255 0.025513 0.052915 -0.082958
Na 7.86673 10.5435 6.94521 -0.026905 -0.212278 0.261276
186
energy=-1001.19001295 config_type=nep2xyz pbc="T T T" virial="-11.271820447316337 -4.718969208326752 -2.773701201822742 -4.718969208326752 -17.931595082986796 -2.586344278356562 -2.773701201822742 -2.586344278356562 -7.702709135961109" Lattice="12.4 0.0 0.0 0.0 12.4 0.0 0.0 0.0 12.4" volume=1906.6240000000003 Properties=species:S:1:pos:R:3:force:R:3
H 10.2317 11.3337 10.6451 -0.49442 -0.718994 0.13997
H 8.61417 7.91255 1.40065 -0.272253 0.751742 1.517784
H 5.84177 5.81201 7.04749 0.065414 -0.446629 -0.706782
H 6.4691 11.5014 4.49007 -1.060319 0.210961 0.180777
H 12.207 1.81883 3.96014 0.710809 -0.219222 1.619398
H 0.87734 7.97147 2.97632 -0.01494 0.175732 0.247706
H 2.60278 4.95603 5.06509 -0.257806 -0.394265 -0.248942
H 10.9555 7.67189 4.72762 -0.025768 -0.116661 -0.492445
H 8.56711 4.56431 4.41265 0.352829 -0.053753 -0.361644
H 9.30834 1.07432 12.2599 0.015243 -1.000241 0.453272
H 4.65758 6.27857 10.6839 0.112513 -0.449808 0.677964
H 3.98578 2.23337 7.86063 -0.3773 -0.167314 0.861897
H 0.94062 9.31979 6.34058 -0.396487 -1.405377 -0.073762
H 10.0899 8.62864 3.06319 -1.149343 0.525276 -0.154779
H 9.37872 11.9009 0.29819 -0.668579 -0.132851 0.420653
H 2.38066 1.74404 0.03266 0.478916 -0.174481 0.197198
H 4.66054 9.47437 2.44353 0.32078 -0.434994 -0.142849
H 2.38473 8.15965 0.2275 -0.110678 -0.646065 -0.282439
H 4.90532 2.52963 3.48882 -0.028607 0.950539 -0.327722
H 4.56108 8.43736 10.17 0.379334 0.625377 0.278926
H 11.907 8.37578 10.3514 0.537012 0.9196 -1.524997
H 2.21468 7.86069 3.82698 0.123226 0.088618 -0.316787
H 5.55635 7.08977 2.22667 0.014691 -0.343863 -0.177314
H 0.55111 10.7233 1.96122 -1.004003 0.507692 -0.38006
H 7.16757 5.55117 6.14358 0.865389 -1.206093 -0.587765
H 10.7851 7.32524 2.65972 0.654008 0.093042 0.183269
H 6.92393 11.4625 9.299 -0.189311 -0.696061 0.191209
H 0.46837 3.55999 1.51375 -0.179103 -0.190418 0.551109
H 4.52224 2.21 0.08244 -1.212028 1.227781 0.633488
H 0.67447 3.01879 4.0466 0.698756 1.249799 -0.029918
H 11.7012 9.78431 2.13441 -0.176825 1.198662 0.486501
H 8.32041 2.81146 1.56131 0.640056 0.711164 0.570692
H 2.3074 3.04244 11.3113 -0.249183 0.614754 -0.551496
H 7.04318 1.36394 8.77466 -0.267478 -0.111813 0.424983
H 8.16744 1.8187 7.10344 0.132525 0.558617 -0.213487
H 6.19916 7.32542 5.60932 -0.240221 0.751364 0.222268
H 9.98003 8.68916 6.32035 -0.070538 -1.56543 -0.478971
H 11.2446 4.49672 11.6722 -1.787369 -0.377211 -0.216938
H 5.68985 4.76624 2.23122 -0.149258 0.033856 -0.026951
H 3.46577 11.9395 8.45779 -1.748505 1.62469 0.678139
H 5.74489 0.27769 12.2091 -0.251575 -0.078773 0.601094
H 9.80116 3.99309 12.1342 -1.352612 -0.598634 2.418921
H 4.91098 10.9943 2.89119 -0.114147 -0.64452 -0.074157
H 9.31679 5.0592 2.35048 0.669138 -0.500115 -0.21221
H 3.755 11.1168 6.60296 -0.486681 -0.215769 0.194982
H 4.12058 11.522 5.14119 -1.466289 -0.44856 0.954777
H 8.42284 12.3676 3.4666 1.033029 0.212746 1.069465
H 5.79885 5.54551 0.87091 0.500181 -0.184609 1.016287
H 3.82919 4.05085 3.12936 0.737756 -0.003768 -0.276776
H 11.9027 2.22268 11.9338 -0.408754 -0.835359 -0.224483
H 9.81939 4.59743 9.71262 0.253326 -0.19761 0.703222
H 0.13824 2.94644 6.37788 0.36 0.178974 0.334306
H 8.62448 6.29724 0.11737 -0.264118 0.613834 -0.017335
H 9.73812 4.98824 8.12187 -0.50173 -0.422388 1.291321
H 2.10645 0.84125 10.1395 -0.205904 -0.558616 0.000915
H 10.8203 6.10269 6.52019 0.42579 -0.187898 -0.298442
H 1.29437 3.54903 7.26668 -0.650576 -0.114338 -0.202128
H 4.01728 8.42585 5.34838 -1.048759 -0.719665 0.398238
H 7.37295 2.1628 0.56957 0.387516 -0.427418 -0.016945
H 11.3848 5.39166 1.59037 1.730355 -1.138729 -1.25664
H 5.4692 0.30736 3.9864 0.071811 0.030255 0.635344
H 12.1689 4.92625 3.29986 -1.286146 -0.298477 -0.00804
H 7.92592 3.2116 5.61436 -0.411967 -2.328091 -1.032327
H 3.67532 5.19885 7.275 0.416837 -0.253263 -0.890946
H 6.99092 10.5269 7.10416 -0.02121 0.153579 -1.611145
H 8.81912 0.60442 4.883 -0.829623 0.594114 -0.276264
H 11.2084 0.82878 11.5339 -0.719364 -0.235157 0.651221
H 9.42601 4.68613 5.81657 0.101718 0.122022 -0.27096
H 0.7501 10.5945 3.93849 -1.240363 -0.095484 -0.8952
H 4.00723 9.92364 9.98348 0.219577 -0.049775 -0.23276
H 7.50102 11.0323 0.46309 -0.699942 -0.341254 -0.12256
H 9.87525 6.50769 0.93196 0.468161 0.230383 0.70764
H 1.22932 12.2529 9.17578 1.014864 1.186114 0.463524
H 11.3575 4.67874 7.14041 1.445088 -0.455958 0.024678
H 5.82324 6.73412 9.70865 2.134356 -0.036917 -0.092635
H 6.38229 8.92197 5.40366 0.719417 0.908197 0.378806
H 10.4539 10.0255 6.60627 0.109376 1.004674 0.282623
H 6.25529 10.1029 9.80855 -0.254668 0.137043 -0.404551
H 8.15943 10.219 6.18213 -0.499399 0.251726 -0.348792
H 5.92348 1.28354 11.1625 0.238615 0.5658 -0.977256
H 10.5017 11.4418 9.20614 -0.238039 -0.797436 0.175992
H 11.6747 12.36665 2.55274 -0.502374 1.229346 0.790851
H 10.4507 1.09544 8.09178 0.548572 -0.721316 0.080845
H 12.231 11.0898 5.76676 0.177513 0.201682 -1.229476
H 8.08747 6.12123 9.27922 -0.10648 0.661579 0.156991
H 6.73805 2.30148 4.89591 1.100555 -0.595684 0.747247
H 4.22404 3.47699 8.65546 0.62929 -0.628514 0.181007
H 4.42804 5.7733 8.50988 0.584025 -1.279499 -0.806597
H 4.08402 3.21315 1.32309 0.104054 -0.283958 0.098883
H 1.20383 4.96285 11.2937 0.116572 -0.072744 -0.167398
H 5.47624 1.49632 9.04094 0.257959 0.230921 0.106944
H 11.3049 12.3467 7.41175 0.211409 -0.201218 -0.748095
H 5.45412 10.5352 11.6686 -0.44226 -0.681474 -0.359651
H 8.74288 2.8739 8.1713 -0.040638 0.653311 0.111422
H 2.03213 7.22552 1.30627 -0.169482 -0.081754 2.90917
H 4.10127 4.65295 0.04673 0.150224 0.015237 -0.458493
H 7.55138 8.55585 2.52762 -0.893487 -0.196547 0.25389
H 11.7783 9.72094 9.47524 0.015233 -1.275507 0.70547
H 2.47199 8.36976 6.03168 0.259675 0.238093 0.403419
H 2.80774 3.0269 9.91586 -0.036569 0.100375 -0.411434
H 5.3612 7.70993 3.62064 0.015763 0.394482 -0.028709
H 10.6486 0.45309 3.6125 -0.213846 0.508025 -0.567372
H 3.51016 6.10678 0.16053 0.774751 -0.089671 -0.349885
H 0.60257 8.67684 7.65915 -0.32138 -0.507621 1.411278
H 11.9524 2.17138 1.81033 0.896896 1.622275 -0.95023
H 8.44774 10.0544 1.34482 -0.33143 0.643225 -0.354581
H 5.20608 10.9162 0.77627 0.175534 -0.65113 0.134037
H 7.33354 6.65927 8.14192 -0.393874 0.465778 -0.666951
H 10.6714 11.6577 5.56246 1.28615 -0.428013 0.194481
H 1.89865 1.89002 5.71731 0.66309 -0.365462 0.183977
H 1.01299 1.2702 11.7651 0.574087 -0.669542 0.15916
H 4.91849 11.7217 8.13559 -0.765049 -0.783973 0.543737
H 11.8267 7.95755 5.98477 0.465141 -0.314723 0.314608
H 0.95429 6.21658 12.2299 -0.619633 -1.270131 -1.041997
H 2.83869 6.41621 5.58415 0.695934 -1.185679 0.389409
H 2.67716 0.69631 6.36949 0.108894 0.103137 -0.425489
H 1.82253 10.6978 4.95603 0.152138 0.178001 0.903864
H 2.21134 11.7689 0.65836 0.568188 2.027104 -1.221411
H 4.5439 2.01856 4.96565 0.127838 -0.321198 -0.529129
H 7.7988 4.82012 2.11281 -0.473008 -0.004883 -0.035558
H 0.94063 5.74241 3.21653 1.08186 1.122024 -0.159293
H 2.86551 10.7361 1.73258 -0.102316 0.690703 -0.857661
O 4.68331 9.39963 10.4369 -0.238072 -0.493406 -0.089962
O 7.21997 10.5548 6.11711 0.542456 -0.619002 2.027173
O 0.86109 10.4845 4.88306 1.781056 -0.22809 0.0619
O 10.9538 8.22295 3.13611 0.844007 -1.130463 -0.22966
O 2.17107 7.21403 0.38555 0.554165 1.034471 -2.365715
O 4.89968 6.76936 9.87835 -2.31556 0.482942 -0.500779
O 0.34017 3.32969 7.27253 0.122563 0.046798 -0.146439
O 8.37487 10.923 0.84622 0.945898 -0.96733 1.183998
O 0.37765 2.35476 4.66239 -1.164957 -1.167523 -1.078821
O 6.30296 5.41157 1.72882 -0.677619 0.433047 -0.966178
O 3.08398 8.02664 5.37161 0.891805 0.133279 -0.900329
O 2.06586 3.40383 10.4237 0.123968 -0.274885 0.600721
O 11.4079 11.4159 6.18607 -2.165349 0.37796 0.392391
O 11.9204 1.44848 11.3005 0.697834 1.29449 -0.203003
O 11.3685 0.81836 3.03744 0.522512 -1.337081 -0.53772
O 0.71576 4.81956 3.22955 0.296092 -0.703924 0.06532
O 10.6963 5.84847 2.00289 -1.622493 1.632761 1.296084
O 5.84357 10.9799 0.02098 0.130465 1.101758 0.224105
O 9.66434 9.48131 6.75407 -0.51627 0.406429 0.723579
O 12.2129 8.81986 9.50522 -0.500669 0.224887 0.718348
O 4.17761 2.48071 8.80561 -0.434867 1.119788 -1.574404
O 8.60834 4.36579 2.4269 -0.114528 0.215005 0.657256
O 3.79547 2.90903 0.39549 0.834323 -0.723811 -0.465399
O 11.26 0.51464 8.19941 -1.170488 1.217146 1.210973
O 4.66594 3.72216 2.74059 -1.027826 0.237206 -0.295112
O 4.50001 10.4059 2.19202 -0.378223 0.852391 0.248318
O 10.6136 5.18281 6.83614 -1.340965 0.466035 -0.104494
O 7.61979 2.19164 5.39703 -0.534096 2.145056 0.33681
O 9.22779 4.65722 8.95401 -0.34304 0.542738 -1.678688
O 0.5002 5.43388 11.7611 0.189954 0.953637 0.848781
O 4.52449 5.07013 7.75373 -0.588675 1.436233 2.42759
O 8.46187 8.58913 2.26186 0.904542 -0.361021 -1.505182
O 2.72161 1.65976 6.22436 -0.433239 0.383944 -0.114589
O 4.30809 5.60225 12.2328 -0.851793 -0.056759 0.28091
O 8.65995 1.93972 7.94587 -0.046047 -1.095676 0.108552
O 11.9724 10.7421 2.24843 1.702551 -1.569234 -0.336367
O 5.54465 11.7254 4.21355 0.592557 0.028167 -0.362412
O 6.60967 6.20472 6.54566 -0.656853 0.983203 1.229765
O 2.97872 5.4271 5.80666 -0.733817 1.435208 -0.375291
O 9.06741 12.3394 4.22683 -0.094917 -0.564545 -0.723234
O 11.0613 7.43474 5.68008 -0.560074 0.256303 0.027222
O 9.72765 0.1905 12.0976 1.256756 1.35019 -1.575461
O 10.3232 4.14846 11.3939 3.410982 1.21493 -2.155777
O 4.05801 11.2373 8.28143 2.527887 -0.538852 -0.612307
O 5.09193 7.81192 2.68312 0.026328 0.066236 0.095257
O 2.07467 11.02 1.18981 -0.549616 -2.786702 2.119714
O 0.80343 8.41345 6.76137 0.678115 2.202434 -0.969276
O 7.54401 6.93939 9.05349 0.824133 -1.043824 0.311386
O 3.29955 11.3161 5.75765 1.771766 0.400135 -1.477028
O 5.82551 8.17754 5.20628 -0.998074 -1.011806 -0.408535
O 9.14866 7.04733 0.45126 -0.245624 -0.819214 -1.023341
O 6.94705 10.4767 9.21868 0.218912 0.621011 -0.138941
O 1.85806 0.6287 9.19641 -0.319573 -1.358186 -0.302849
O 8.54271 4.5925 5.38928 -0.678579 0.154073 0.297277
O 10.2695 10.7164 9.86496 0.487073 1.9574 -0.399349
O 5.13905 1.84466 4.20603 0.124537 -0.747729 1.115643
O 1.99721 1.05635 11.854 -0.467367 -0.233805 0.135719
O 8.29441 2.11407 0.89777 -0.997625 -0.183855 -0.684191
O 5.65372 1.25644 12.083 0.379327 -0.504368 0.107573
O 12.3654 2.82549 1.13989 -0.907667 -1.408047 0.468984
O 1.81266 7.71923 2.93289 -0.548151 -0.240162 0.341501
O 6.27504 0.95393 9.2467 0.454564 -0.272675 -0.297085
Na 0.20533 2.04614 9.26876 -0.213773 0.510127 -0.202629
Na 8.69136 9.08277 9.09649 0.213617 0.060899 -0.075538
186
energy=-1002.05523424 config_type=nep2xyz pbc="T T T" virial="-15.276848391261103 -1.6507496821350758 11.875994164565954 -1.6507496821350758 -1.9689851272146355 -5.385535732342957 11.875994164565954 -5.385535732342957 -21.256252258046146" Lattice="12.4 0.0 0.0 0.0 12.4 0.0 0.0 0.0 12.4" volume=1906.6240000000003 Properties=species:S:1:pos:R:3:force:R:3
H 10.9319 0.49243 9.01279 -0.969242 -0.713506 1.474396
H 10.4817 11.3909 3.55155 1.810077 0.082768 1.380875
H 4.52365 5.09296 6.52486 0.004291 0.322983 -0.707086
H 7.36293 12.1124 4.84085 0.257606 0.452566 0.611711
H 0.99987 1.5054 2.80871 1.405958 -0.551805 1.068968
H 0.71937 8.16483 3.77946 0.327304 0.569609 -0.233151
H 2.4845 2.76385 11.7766 0.178472 -0.013044 0.452223
H 0.034 8.12047 10.6823 0.119732 0.093717 -0.27971
H 9.53362 8.82673 5.21753 0.045226 -0.296881 0.01778
H 11.4601 11.088 10.6159 0.034304 0.357622 -0.499346
H 3.40541 7.66869 9.48492 -0.459136 0.885489 0.047544
H 2.86898 3.49914 6.17078 -0.08828 -1.165692 -1.161033
H 0.44163 10.0274 7.24722 -1.166056 -1.76793 1.032169
H 1.09208 7.36103 5.11592 0.75989 0.22986 1.062932
H 0.32129 9.12926 1.92228 0.153939 0.307856 0.34014
H 5.90154 8.22495 4.34726 0.978534 0.064034 -1.157863
H 5.11813 7.31335 5.88829 0.472154 0.815992 0.069442
H 2.6517 5.95036 0.98361 0.688116 -1.195656 -0.761813
H 7.33798 0.66806 2.8706 -0.042456 2.174576 -0.194086
H 6.04798 9.79022 10.3536 0.102836 -0.099255 0.608714
H 1.77815 1.04936 6.98167 -0.277551 0.749144 -0.742229
H 1.8883 4.88762 2.99276 0.20327 0.05013 -0.559071
H 6.8341 11.6863 2.32461 0.442933 0.152901 1.019461
H 2.50982 9.92897 11.8053 0.134955 -0.357672 0.881082
H 6.04202 5.17473 6.59487 0.521606 0.349673 0.109383
H 10.6301 7.75662 0.52649 -0.164583 -1.284993 -0.160049
H 7.74933 10.7524 9.72733 -0.194417 -0.065634 0.292091
H 11.7088 4.09947 1.66353 0.138153 1.428653 -0.521203
H 3.99872 0.22263 0.94951 -0.2948 -0.717891 0.649063
H 11.4969 5.71029 4.6559 -1.493851 -0.68352 1.432608
H 0.52069 10.4814 10.9834 0.584153 0.230815 -0.389756
H 7.11899 2.73608 12.0107 -0.113405 0.559485 0.420222
H 12.3329 2.29524 11.5482 -0.876452 -1.402396 1.02365
H 4.87863 2.76423 9.61087 -0.520233 -0.233188 -0.710519
H 7.74111 1.64491 8.5583 -0.009481 0.313604 1.414646
H 4.69069 3.81989 3.50894 -0.334224 -0.526945 -0.176181
H 11.7491 7.59152 8.82984 0.149594 -0.309583 -0.828074
H 5.86965 4.12888 10.5186 0.639885 -0.116897 -0.20398
H 3.27233 3.33501 2.12474 -0.648712 1.06727 0.538705
H 4.35791 0.18581 10.8786 -2.492012 0.167096 -1.255286
H 2.12424 1.22674 10.207 0.298168 -0.263973 -0.171812
H 6.56897 5.49948 10.942 -0.239327 -0.39729 -0.899935
H 11.6228 9.77582 12.2384 -0.357315 -0.152092 0.149049
H 7.56302 4.00087 0.48719 0.501807 -0.689735 -0.78032
H 4.17865 11.1239 5.81908 -0.105361 0.193406 -0.13617
H 5.43331 11.9325 5.77804 1.064865 0.457065 0.049278
H 7.08879 6.25564 0.56886 1.606415 -0.45714 -1.297796
H 5.84226 5.43481 2.14964 0.403451 -0.211838 0.568432
H 2.4298 2.77584 3.22183 -0.056506 -0.249704 0.69394
H 9.76642 1.61881 7.42008 0.936273 0.13252 -0.011078
H 7.732 3.05571 6.99521 0.14549 -0.412261 -0.134502
H 12.3723 4.20325 8.5503 0.619659 0.452669 0.125558
H 9.70284 4.98327 10.4972 0.233542 -0.365529 -0.348806
H 8.78337 2.42443 5.92658 -0.495435 -0.066942 0.225829
H 2.62487 11.0773 10.756 -0.927465 -0.573326 -0.11793
H 10.3908 6.72997 7.56926 -0.7121 -0.762068 0.707652
H 11.6563 4.53324 7.17774 -0.057578 -0.103456 0.20004
H 2.5031 7.0375 7.71555 0.829093 0.52236 0.887505
H 5.21748 2.76545 11.5149 0.115815 -0.093308 -0.409307
H 10.7454 6.03725 0.54589 0.269968 0.710734 0.215859
H 7.77269 0.52458 6.22202 -0.067587 0.96496 -0.440135
H 10.2519 5.66766 5.76882 0.624643 0.049238 -0.452384
H 11.6321 2.3649 1.49255 -0.608207 -0.873259 -2.110322
H 0.55897 5.85184 10.175 0.160057 -0.184112 -0.240837
H 6.26863 8.39866 7.28574 0.748932 0.420892 0.271691
H 7.86767 2.65913 1.94764 -0.537945 -0.927045 1.280057
H 11.2219 2.34639 7.42665 -1.250777 -0.949276 0.641339
H 10.5266 8.43893 6.51309 0.339303 0.165091 -0.331274
H 0.80612 12.0732 3.76553 -0.134143 0.653045 -0.498189
H 5.84481 10.9332 11.3586 -0.235243 1.028611 -0.090527
H 10.7818 10.0301 1.21582 1.197351 -1.442714 -0.890516
H 10.5029 4.13822 9.36192 -0.873504 0.336384 0.925976
H 2.02379 0.29568 8.93235 0.113541 0.201701 0.74758
H 9.12164 7.17932 6.95308 -0.138176 -1.08308 0.78346
H 2.83052 9.1838 9.72684 -0.153035 -0.578056 -0.127973
H 5.51274 4.63172 4.44664 0.563872 -0.255073 0.034398
H 0.21859 6.89253 7.66485 -0.551867 1.237685 0.17434
H 7.48249 12.1231 9.09359 0.100833 0.522632 0.35893
H 7.17383 7.68834 8.25506 0.59211 -1.337198 0.7673
H 3.46246 11.2314 1.56735 0.344209 0.676316 -0.30994
H 9.69958 11.9863 9.48409 1.133172 0.574641 0.593123
H 9.31379 9.67651 3.27248 -0.317808 0.162552 -0.109768
H 10.058 3.62789 4.68232 0.507763 0.402229 0.154431
H 0.8442 10.9624 4.73113 -1.115605 -0.242569 -0.114701
H 6.94748 4.7041 8.60614 -0.268527 -0.151298 -0.020067
H 10.9603 2.44285 2.94308 0.860968 -0.061934 -0.312625
H 3.50607 3.62252 7.51409 0.892068 -1.031694 1.973459
H 1.97278 5.46537 9.61228 -0.007117 0.093605 -0.046297
H 4.3653 2.57739 0.99884 -0.03303 0.075051 -0.493651
H 2.3412 9.36605 1.7423 0.794949 0.221365 -1.168249
H 3.93996 1.84352 8.64047 0.480786 1.405006 0.647641
H 9.12417 2.69138 3.85067 -0.255035 -0.244162 0.421652
H 6.07687 9.68243 2.37442 0.704789 -1.395888 0.906723
H 6.94026 1.95198 9.95917 0.228304 0.127742 -0.384309
H 3.45843 4.64505 0.22423 -0.150553 0.599289 1.217482
H 4.4713 5.66807 10.0874 0.520043 0.465772 -0.369456
H 9.23114 11.6417 2.93492 -3.844365 1.710176 -0.118913
H 0.17591 1.00441 7.4217 -1.318009 0.989231 -0.492654
H 2.12579 5.73632 6.86111 0.357903 0.598714 0.752926
H 11.5486 0.85566 11.9224 0.646699 0.485254 -0.353056
H 4.68124 8.91916 5.77204 0.526006 -1.02629 0.447484
H 7.90098 8.82925 3.63954 1.835009 -0.007992 -0.029494
H 3.38676 5.99005 11.1284 0.466537 1.191779 -1.280198
H 0.94815 11.3893 7.04839 0.169133 2.080672 0.398768
H 0.154 5.38965 1.41882 0.713873 -0.060602 0.483019
H 8.67402 6.52099 12.3568 -1.541405 -1.26952 0.284791
H 6.37428 9.95485 0.76419 -0.815615 0.00622 1.869047
H 8.22045 4.87555 7.7578 -0.249735 0.409843 -0.261049
H 6.95558 2.89959 3.19351 -0.479712 0.300475 0.522347
H 2.44143 0.64478 2.86449 0.002541 0.21231 -0.540044
H 5.99892 7.67192 2.79601 0.122762 -0.603854 -0.203106
H 5.59535 1.04789 10.9938 0.237212 0.906815 -0.197008
H 11.3069 7.23848 11.2269 -0.191416 -0.583986 -0.188666
H 0.77249 10.1679 3.07125 -0.183373 -0.31304 -0.303205
H 1.69611 3.56388 10.6666 -0.174471 0.595585 -0.313777
H 2.41321 1.48633 4.94528 -0.913266 0.448977 -0.607315
H 2.50543 10.0277 6.64328 1.002137 -0.396978 -0.018336
H 3.88199 9.28892 1.05358 -0.191873 0.040665 0.2837
H 3.59756 0.99029 5.5479 1.576279 -0.918374 0.453924
H 4.77149 6.12971 1.42808 -1.354473 0.051676 -1.221967
H 1.05836 6.24238 3.13762 0.314703 0.152618 0.228954
H 3.57489 9.2708 7.4518 0.089567 -1.149698 2.223213
O 6.39071 10.1581 11.1923 0.334635 -0.931733 -0.698032
O 7.01616 8.55873 7.94231 -1.537484 0.584555 -0.753792
O 3.49189 9.76503 6.66112 -1.2342 1.451855 -2.069517
O 0.59291 7.36112 4.31466 -1.297991 -1.167311 -0.34348
O 3.37506 5.66146 0.3448 -0.621239 0.17521 0.150484
O 2.9878 8.48534 9.04786 0.694918 -0.414141 -0.142919
O 11.6349 3.95631 7.96655 -0.266035 -0.116031 -0.501773
O 7.82576 5.91418 12.3247 -0.346044 1.470405 1.149106
O 1.79549 1.18764 3.3878 -1.791189 -0.056306 -1.278782
O 5.69231 6.24867 1.64789 1.055138 0.075527 0.672402
O 1.85914 6.64386 7.15111 -1.278014 -1.262101 -1.814884
O 11.5403 1.82237 12.0154 0.727227 0.970373 -0.301782
O 0.33163 11.2398 3.92546 0.941524 0.382797 1.501903
O 10.7395 1.45531 7.5619 0.424291 0.969451 -0.299871
O 8.92054 8.96129 3.79841 -1.386786 -0.525512 0.147489
O 10.9022 5.13254 5.24986 0.836748 0.811248 -0.627292
O 10.3719 6.86705 0.10724 -0.278153 0.97214 -0.069101
O 5.89025 10.2178 1.61687 0.199178 1.210657 -3.055787
O 11.835 7.51639 7.82803 0.311932 -0.617655 0.337521
O 1.03449 0.63215 7.45291 1.741057 -1.743762 0.885954
O 3.10508 4.12845 6.82918 -0.69515 2.539235 -0.60943
O 7.72472 3.02527 0.35577 0.018635 0.571489 -0.146256
O 3.70339 3.04724 0.4634 0.306596 -0.127665 0.335698
O 9.82951 2.6917 4.55319 -0.440963 -0.133908 -0.607919
O 2.93887 3.58882 3.07662 0.945514 -0.562002 -1.505327
O 11.353 9.34076 0.71789 -1.119683 1.352062 1.35331
O 9.42523 6.38918 7.52086 0.766616 1.452013 -1.420409
O 11.7935 2.51079 2.40387 0.053726 0.257283 2.362036
O 8.13938 2.20254 6.66594 0.596931 0.371059 0.007009
O 0.99185 9.27693 2.64332 0.112505 -0.493358 -0.992495
O 1.05985 5.13172 9.71884 -0.08812 -0.13563 0.205862
O 10.0099 11.1914 2.77091 2.154026 -1.666238 -1.652659
O 2.94641 1.67148 5.72433 -0.699004 0.147216 0.569923
O 3.68968 6.26558 10.1625 -0.970635 -1.40274 1.678808
O 7.74874 1.53167 9.5514 0.114456 -0.296455 -1.259684
O 2.16414 10.2127 10.9416 0.767987 1.347119 -0.737337
O 7.41799 12.1226 5.83453 -0.407281 -1.849989 -0.341564
O 5.2924 5.59104 6.12398 -0.657117 -0.494804 0.220293
O 1.70345 2.74499 11.1703 -0.476314 -0.918111 -0.113614
O 7.70057 2.3426 2.91965 0.88198 0.763147 -1.755251
O 11.9489 7.31233 10.461 0.159762 0.355148 0.453998
O 11.972 10.2968 10.8594 -0.415899 -0.47226 0.363898
O 6.07 5.05857 10.1935 0.429816 1.306548 0.408869
O 5.20774 0.20053 11.2363 1.713963 -1.351269 1.491801
O 5.4582 8.26607 5.78662 -1.389896 -0.229104 -0.05197
O 2.96906 9.60347 0.93973 -0.468939 -0.261288 1.171123
O 0.97095 10.5232 6.66405 0.962071 -0.490978 -1.651488
O 7.29494 4.55533 7.68919 0.458358 -0.02384 0.465397
O 4.58933 11.8737 5.33363 -0.911721 -0.330361 0.149631
O 5.63019 3.98173 3.71236 -0.260267 0.883117 0.172499
O 9.91552 4.08994 10.1777 0.566205 0.194322 -0.781272
O 7.99182 11.3094 8.97387 0.434356 -0.423865 -0.171751
O 2.50324 0.4037 9.79224 -0.226858 0.162273 -0.12528
O 9.6499 8.71586 6.21652 -0.260659 0.323504 0.274567
O 10.5603 12.3931 9.84296 -0.645451 0.253758 -1.794538
O 7.41866 12.1413 3.00537 -0.340371 -2.615272 -0.471489
O 6.41057 8.26834 3.4363 -0.74238 0.629054 1.173008
O 5.88605 2.70694 10.7793 -0.828365 -0.521468 1.514072
O 3.67731 12.1776 1.76809 -0.44733 0.483818 -0.177979
O 11.7397 4.95731 1.13777 -0.9842 -1.350262 0.067872
O 1.49449 5.64336 2.49472 -0.098375 0.347648 -0.122761
O 4.22411 2.78434 8.82383 -0.175177 -1.334597 -0.259838
Na 9.50262 2.14113 11.0866 -0.210803 0.075899 -0.225093
Na 8.13732 10.1464 7.09435 0.194195 0.359521 -0.48272
186
energy=-1000.74865419 config_type=nep2xyz pbc="T T T" virial="-6.5513042115473485 -2.8969278877025877 -1.7597437155463274 -2.8969278877025877 -1.017991657837329 -4.68589852169613 -1.7597437155463274 -4.68589852169613 -5.512725188517153" Lattice="12.4 0.0 0.0 0.0 12.4 0.0 0.0 0.0 12.4" volume=1906.6240000000003 Properties=species:S:1:pos:R:3:force:R:3
H 10.0113 11.023 10.9609 0.731379 0.242831 -0.253837
H 8.46944 7.96251 1.35005 -1.032789 0.881934 1.686251
H 5.80109 5.28286 6.90703 0.438877 0.035008 0.152567
H 6.04848 10.9867 4.49412 1.020261 0.361925 0.667481
H 0.27954 2.26068 3.78611 1.354513 0.393826 1.757938
H 0.59612 8.1919 3.13397 0.600848 -0.098981 -0.173072
H 2.52797 3.87201 4.78096 -0.448276 -0.252983 -0.072416
H 11.0365 7.65666 4.74421 0.07132 0.691374 0.183606
H 8.37376 4.68224 4.27932 0.47035 0.409716 -2.600461
H 9.57634 0.6382 0.18368 0.196809 0.730607 -0.146204
H 4.68159 6.50564 10.2676 0.009592 -0.370515 0.481142
H 3.66977 2.13045 7.07991 0.515074 -0.43797 0.027792
H 0.76287 9.34377 6.55946 0.352384 0.570104 0.076748
H 9.71333 8.87198 3.25822 0.804028 -0.317689 0.165887
H 9.10998 11.7254 0.6678 1.178607 0.235045 0.033939
H 3.19621 1.31277 0.25592 0.673186 0.474537 -0.076336
H 4.86951 9.27138 2.46782 0.156324 -0.530489 0.103714
H 2.8686 8.71787 0.27374 -0.302799 -0.969195 0.116321
H 5.44829 2.33769 3.66152 -0.021735 0.757401 -0.169029
H 4.58111 8.69928 9.86793 -0.388753 0.412097 -0.482592
H 0.26022 8.52416 10.253 0.030326 -1.802663 0.994691
H 1.65172 7.44496 3.96616 0.50018 0.1808 -0.002351
H 6.01807 6.95022 2.31338 -0.515412 0.136438 0.64407
H 0.73444 10.7273 1.8833 0.107346 -0.583986 -0.500094
H 7.27907 5.32458 6.27733 -0.463142 0.488457 -0.044624
H 10.7782 7.8876 2.84324 0.089614 -0.461855 -0.066747
H 7.11759 11.3115 8.63223 -1.087036 -1.271854 0.063971
H 11.7139 4.48454 1.58397 -0.193772 0.031179 -0.757971
H 5.15884 2.36391 0.1131 1.263367 -0.40067 -0.579172
H 0.46532 3.72568 4.32142 0.236466 0.163613 0.517859
H 11.801 10.0716 2.65213 0.070095 -0.080663 -0.323331
H 8.68941 3.43166 1.29422 -0.728495 0.097667 0.537361
H 2.15097 4.09739 9.57989 -1.087716 0.156101 0.394593
H 7.34876 1.14067 8.34641 -0.826431 0.27463 0.259964
H 8.48042 2.074 7.15579 -0.342844 -0.693669 -0.113717
H 5.56179 7.05439 6.00798 0.961446 0.470691 -0.017855
H 10.0752 8.53283 6.43779 -1.222601 0.74501 1.145976
H 11.0079 4.72875 11.7341 0.293711 0.526828 -0.00649
H 5.78675 4.60174 2.15614 0.451929 0.221493 0.056051
H 2.72958 11.6579 9.00111 1.171561 0.075521 -0.232907
H 6.16912 0.58472 12.0766 -1.290351 -3.290656 1.312685
H 9.79958 3.84298 12.0985 0.621129 -0.220281 -0.996887
H 4.31382 10.6207 3.0872 0.62776 0.422247 0.451365
H 9.49503 5.10637 2.46015 -0.461954 -0.273852 0.427261
H 3.73493 11.5542 6.80822 -0.31559 -0.24807 -0.432241
H 4.18321 11.5071 5.25046 1.333616 -0.116736 -0.760173
H 8.24618 0.20134 3.16406 1.171118 -0.539729 0.219115
H 5.7196 5.72104 0.66205 1.021866 -0.007013 0.66568
H 4.82548 4.41131 3.36263 -1.075468 0.828131 1.254318
H 11.871 2.44441 12.1001 -0.130522 0.835118 0.267389
H 9.45625 4.43046 9.70098 1.822237 -0.554589 2.548943
H 0.58212 2.42738 6.52618 0.674481 -0.513324 -2.325185
H 7.70462 6.25127 0.80127 0.312071 0.270384 -0.262125
H 9.68787 4.93041 8.18368 -1.160836 -0.737799 1.624888
H 2.10107 11.9492 10.8515 0.485764 0.865225 0.748239
H 10.9156 5.83914 6.33969 0.902628 3.187807 -1.211867
H 0.87563 3.41862 7.63262 1.322338 1.567713 0.763708
H 3.30927 7.41652 5.37354 1.182314 0.857335 0.434493
H 8.31447 2.55251 12.36203 -0.699829 0.205669 0.478229
H 11.3763 6.58355 1.28834 -0.520764 -1.62529 1.230353
H 5.58662 0.19173 4.16045 0.763441 -0.357877 0.219857
H 11.9865 5.5515 3.37406 -0.436496 0.168764 -0.630848
H 8.22821 2.97767 5.43876 -0.320598 -0.173771 0.080497
H 3.68749 4.9139 6.91082 -2.849225 0.30613 -3.1665
H 6.61702 10.2943 6.7443 0.38344 0.040485 -0.175126
H 8.53822 1.13418 4.29898 0.61204 -0.13133 0.367443
H 11.6894 0.93959 12.2619 0.361592 0.317416 -0.568435
H 9.27893 4.95386 5.60644 0.054737 -0.35411 -0.439037
H 0.5624 10.8198 4.43003 -0.529651 -0.373045 -1.865655
H 4.17866 10.3422 9.73445 -0.300629 -0.178847 -1.044793
H 6.99269 11.313 0.9136 0.459482 0.114867 0.508882
H 9.26732 6.14247 1.10537 0.278069 0.523039 -0.481579
H 1.72008 10.5675 10.3591 -0.472917 0.076152 -0.441318
H 11.3179 4.45161 6.59421 1.730939 -2.151918 -0.218441
H 5.91053 6.99059 9.39825 0.121575 -0.309735 0.16676
H 5.63499 8.67862 5.60361 0.061523 -1.082048 0.424552
H 9.96413 10.0309 6.68219 -0.325669 0.611543 -0.160625
H 6.13395 10.2431 9.24146 -0.497634 -0.002263 0.34987
H 7.74515 9.86752 5.76915 1.06903 -0.466681 0.237395
H 6.48782 1.20587 10.7245 -0.033272 0.206752 1.274514
H 10.5162 11.4509 9.50599 -0.066284 -0.092254 0.231074
H 12.1355 0.07671 2.79063 -0.52944 1.459503 0.045571
H 9.9149 0.85677 8.44764 -1.202877 1.254989 0.117957
H 11.2121 11.4591 5.48479 -0.284185 0.348103 -0.080198
H 8.29041 6.18248 9.11968 -0.730512 0.45364 -0.510706
H 6.9156 2.05144 5.38026 1.430463 -0.094362 0.299928
H 4.44449 3.17831 7.79924 0.383422 0.813952 0.287948
H 4.34383 5.48921 8.15322 0.343907 -0.539738 -0.119807
H 4.47219 3.29062 1.1562 0.212181 -0.461751 -0.299168
H 0.40435 5.12319 0.14479 0.353811 -0.661794 0.828779
H 5.72107 1.31471 8.28907 0.89467 -0.598267 -0.116129
H 10.5325 12.3581 7.38678 0.189557 -0.033014 -0.143483
H 5.00469 10.3852 11.8193 0.710586 1.085651 0.031129
H 8.56157 2.86054 8.41415 0.09336 1.808161 1.152621
H 2.28736 8.06364 1.52391 -0.689644 0.110067 2.079473
H 3.83311 4.74307 12.0379 0.761901 1.854388 -0.603402
H 7.27094 8.45997 2.4909 0.546513 -0.29778 -0.331808
H 12.1854 9.78566 9.80892 -2.724188 2.387191 -0.056352
H 1.92464 7.52125 6.26436 0.778949 0.229816 -0.633116
H 0.81652 4.66688 10.1548 -0.469365 1.721628 1.5362
H 5.42416 7.81042 3.76734 0.855276 -1.057548 -1.056931
H 11.0219 1.20938 2.62757 -0.065057 -0.204291 0.153287
H 3.63843 6.30469 0.03174 0.227107 -0.251235 -0.609107
H 0.97283 8.78503 8.09894 -0.615441 -0.11651 -1.826781
H 0.17333 3.24082 1.85587 -0.061465 -0.120707 -0.822624
H 7.91622 10.3771 1.69248 0.223141 -0.519156 0.428799
H 5.02134 10.7496 0.87189 -0.316435 0.058842 1.25681
H 7.25762 6.8407 8.06502 1.003012 -0.424409 0.772572
H 9.7381 12.0898 5.16566 0.369415 -0.337454 -0.349964
H 2.51574 1.85622 4.66444 -0.638106 0.903649 -0.164505
H 1.72384 1.32618 12.3013 -1.452151 0.666784 -0.12021
H 4.03923 0.15998 8.68495 -0.133572 -0.30162 -0.044224
H 11.956 7.93642 6.07581 0.291749 -0.010153 0.115882
H 1.54158 6.21621 0.29262 0.24726 0.336857 0.424815
H 2.6051 5.37513 5.08044 -1.011282 1.764702 -0.171753
H 2.97847 0.67516 5.4538 0.44003 -0.379009 0.664576
H 1.53752 11.182 5.47201 0.307668 -0.147433 0.591055
H 2.21137 11.6671 0.56609 -0.260986 -1.075553 0.207449
H 4.71688 1.71489 4.97639 0.75413 0.573433 -0.945857
H 7.90248 5.18142 2.26199 0.678633 -0.926793 0.596855
H 12.2195 5.96795 4.83598 0.025603 0.320921 0.321956
H 2.79072 10.3605 1.28975 -1.07112 0.612257 -0.37741
O 4.48507 9.59309 10.261 0.677286 -0.243456 1.278387
O 6.87372 10.2391 5.79742 -1.287875 -0.059495 0.287275
O 0.64022 10.8121 5.37292 0.331269 0.20368 1.235904
O 10.6714 8.61041 3.49376 -1.234462 0.277888 -0.991017
O 2.63853 7.85147 0.68 1.224593 0.255522 -2.369525
O 4.93986 6.87543 9.40883 -0.177218 0.484358 -0.48264
O 0.29167 2.75623 7.34624 -2.058285 -1.043256 1.478216
O 7.75861 11.3382 1.5485 -0.639977 0.05927 -1.001928
O 0.85657 2.82607 4.47918 -1.504322 -1.102635 -2.139024
O 6.40631 5.68781 1.38736 -0.991609 0.418679 -0.680622
O 2.40986 7.13153 5.48415 -1.783841 -0.892702 0.285188
O 1.17168 3.9979 9.61793 1.790598 -1.961476 -1.756464
O 10.3069 11.613 5.82244 0.174394 -0.109569 0.495057
O 12.1531 1.61321 11.7079 -0.024852 -1.466428 0.020698
O 11.9462 1.08498 2.8874 0.43351 -1.205434 -0.283789
O 12.2502 5.20538 4.25204 0.349294 -0.498008 -0.134889
O 11.046 5.9158 1.977 0.312471 1.334294 -0.908128
O 5.33953 11.1077 0.0368 -0.195961 -0.850055 -1.269894
O 9.52343 9.20942 6.96534 1.324347 -1.303298 -1.130464
O 0.56235 9.29344 9.8147 2.577655 -1.025019 -0.813746
O 4.40385 2.21816 7.72667 -0.88319 -1.034801 -0.096011
O 8.63432 4.64136 2.70674 -0.22313 1.053875 -1.483599
O 4.35771 2.84868 0.27743 -1.525161 0.928228 1.039094
O 10.6771 0.31295 8.29578 1.335011 -1.200061 0.138
O 5.35622 3.90998 2.77715 0.315135 -1.348189 -1.094613
O 4.28901 10.0401 2.32376 -0.844225 -0.148274 -1.209458
O 10.6357 5.05857 6.73542 -2.757575 -1.128624 1.875883
O 7.90859 2.05812 5.66934 -0.953892 0.591724 -0.760131
O 9.0071 4.68947 8.93454 -0.286858 1.124367 -4.015932
O 0.83118 5.88319 12.1508 -0.613545 0.357771 -1.574456
O 4.35394 4.73425 7.50154 2.377858 0.965874 3.595786
O 8.17485 8.68721 2.1186 0.950031 -0.251037 -0.995753
O 3.07983 1.65368 5.41724 0.174613 -0.80664 -0.136443
O 4.09917 5.70073 11.7917 -0.778082 -1.385812 1.178579
O 8.58129 1.95692 8.14567 0.739458 -0.856472 -0.966063
O 0.0006 10.8218 2.53007 -0.159048 0.768357 1.152168
O 5.42431 11.6145 4.13138 -1.828665 0.243926 -0.866061
O 6.59719 5.85713 6.78122 0.017031 -0.358352 -0.401209
O 3.06885 4.5645 5.16622 1.341873 -1.427681 0.219025
O 8.99881 0.42952 3.77385 -1.606426 0.518991 -0.476425
O 11.3609 7.32035 5.61633 -0.421148 -0.312427 0.256438
O 9.95786 12.1604 0.26711 -1.432617 -0.771404 0.12948
O 10.3838 4.14144 11.3168 -0.658719 -0.167173 0.126529
O 3.64438 11.684 8.51856 0.078568 0.29436 -0.114665
O 5.82372 7.81939 2.83871 -0.469117 0.55745 0.358477
O 1.97497 10.7018 0.7893 1.573322 0.543768 0.541589
O 0.84568 8.54401 7.10737 0.203972 -0.009864 1.66371
O 7.78945 7.03325 8.89993 -0.421914 0.026285 -0.31028
O 3.45077 11.4216 5.86064 -1.597818 0.199231 1.185591
O 5.19038 7.8004 5.49267 -0.906748 0.875066 -0.60501
O 8.62569 6.66408 0.5797 -0.205389 -0.129062 0.06943
O 6.89818 10.3195 8.66252 1.118346 1.530149 -0.454678
O 1.78821 11.5011 10.0667 -0.898343 -0.281544 0.304098
O 8.44316 4.63308 5.212 -0.407204 -0.307222 3.624182
O 10.4716 10.6985 10.1515 -0.598426 -0.231309 -0.171358
O 5.58412 1.77726 4.442 -0.788521 -0.770953 1.183726
O 2.48967 0.76971 12.2861 0.507493 -0.993618 -0.083583
O 8.99156 2.86223 0.57572 0.721712 -0.666493 -0.43487
O 6.50358 1.35477 11.7218 1.368622 2.849362 -2.829141
O 12.1443 3.6896 1.09564 0.10657 0.334969 1.584285
O 1.51584 7.86622 3.08833 -1.148155 0.193463 0.094248
O 6.46881 0.7043 8.56372 -0.504023 0.007116 0.430371
Na 0.19243 1.38216 9.31299 -0.334111 0.224706 0.125831
Na 8.70845 9.10293 9.06506 0.185618 -0.176059 -0.000899
186
energy=-1001.58003601 config_type=nep2xyz pbc="T T T" virial="-13.087233350361064 -0.08311107428149146 3.60275320811837 -0.08311107428149146 -19.54772705104901 0.5353904971254726 3.60275320811837 0.5353904971254726 -18.298895098407506" Lattice="12.4 0.0 0.0 0.0 12.4 0.0 0.0 0.0 12.4" volume=1906.6240000000003 Properties=species:S:1:pos:R:3:force:R:3
H 10.6932 11.7718 11.7039 0.186797 0.30314 -0.491611
H 5.75371 7.71626 1.55382 -0.941337 -1.602623 -0.883019
H 5.43327 6.06458 6.67742 0.388463 -1.794742 -1.888013
H 4.8619 9.39728 3.2737 1.067503 -1.00012 -0.779647
H 11.1376 2.18204 5.66884 -0.2884 -0.221622 -0.257094
H 0.40708 4.72384 3.41527 -0.54863 -0.688566 -0.356943
H 1.80618 6.96851 8.49528 1.264343 0.178406 -0.592341
H 10.4413 6.24678 8.01484 0.644299 0.227266 0.044996
H 8.19332 5.2119 5.89327 -0.358748 -0.187695 -0.277093
H 9.36934 11.5859 1.07838 -0.175349 0.022756 0.172814
H 6.09378 7.79047 9.9512 -0.358854 0.066848 -0.792679
H 3.47912 4.52891 7.26779 -0.205639 -0.041285 -0.190321
H 11.7379 8.09934 7.04386 0.338253 0.475472 0.19097
H 1.21145 6.02914 3.35067 0.06508 -0.693467 0.829269
H 10.933 11.2059 1.05864 -1.318308 1.354767 0.499578
H 3.58155 12.1568 0.06859 0.315368 0.40592 0.120385
H 8.79857 6.61242 4.38928 -0.62037 -0.224621 -0.660165
H 2.26206 9.04305 1.07599 -0.030401 0.314022 0.654913
H 5.0311 12.374 2.02461 0.062541 -0.582786 0.748299
H 5.42591 9.97127 9.47506 -0.337214 0.260799 0.181202
H 9.79567 8.85647 10.0629 -0.103239 -0.356963 0.486867
H 2.54138 7.37984 3.73114 0.802883 -0.162013 -0.012786
H 7.69949 2.89603 3.3708 0.989404 -0.156083 0.299006
H 0.44642 10.0505 2.12662 0.373635 0.215905 0.233307
H 5.84705 4.58878 6.66642 -0.256442 0.351942 -0.318028
H 11.288 6.71072 1.19905 -0.735211 0.234562 0.305584
H 6.97742 0.0021 7.6054 -0.303754 2.032646 -0.939665
H 2.23923 1.64941 2.99209 -0.33169 0.136439 -0.097478
H 5.48186 3.83596 11.9055 -0.481622 0.121652 0.461678
H 2.26104 3.32309 5.43953 -0.478717 -0.36355 0.082043
H 11.6131 9.12912 2.31518 0.324389 1.404529 0.038725
H 8.12448 3.90922 11.6281 -1.043494 0.138205 -0.177073
H 1.60341 4.83315 11.6978 -0.173145 -0.337146 0.445579
H 5.51345 1.71462 7.73599 -2.120155 0.672654 1.292475
H 6.86453 1.67351 5.73863 0.842993 0.770815 1.793237
H 5.01114 3.95863 3.10916 0.631962 1.546706 0.28139
H 12.2332 6.33467 5.8506 0.662714 -0.067703 -0.041235
H 7.23168 5.86083 10.9789 -0.386399 0.649653 -0.251255
H 5.75047 1.77353 2.4738 -0.870037 0.216046 0.211081
H 2.2681 0.24969 9.08635 0.21251 -0.650598 -0.022828
H 6.01271 0.87841 11.2979 0.835752 0.426409 -0.302378
H 6.482 6.86453 11.8436 -0.302017 0.266753 -0.179534
H 6.93556 11.5752 2.5497 0.469822 -0.427358 -1.804194
H 9.80761 5.03388 0.75099 -0.147336 -0.709977 0.200276
H 3.0079 11.2217 6.5395 -0.394722 0.635011 -0.760566
H 3.43555 11.0126 5.0097 -1.057033 1.000961 1.001336
H 10.4291 7.34463 3.2774 0.51382 -0.282079 -0.792528
H 6.99619 4.25463 3.28026 0.514962 0.461236 -0.261613
H 4.19233 2.18006 2.68289 0.01138 -0.50235 -0.27916
H 10.1411 2.89354 0.57467 0.471723 0.465259 0.079207
H 7.25776 3.728 8.87435 0.385926 0.287556 0.019541
H 11.7781 3.53038 8.49274 0.715206 0.220089 0.639197
H 8.46107 7.25233 10.8887 -0.467735 0.219657 0.655901
H 8.55622 4.43894 8.37025 -0.186909 0.008178 -0.006347
H 1.58451 0.44869 11.4535 0.154685 -0.565444 -0.389081
H 9.83643 2.38798 7.44652 0.051299 0.181686 0.111785
H 0.32348 4.67826 9.07417 -0.386245 -1.336357 0.146889
H 3.43092 9.01662 4.70976 -1.0573 -0.76367 0.813342
H 6.93296 3.06892 11.0284 -0.055006 -1.209127 -0.311536
H 11.9328 6.216 12.3187 0.513427 -0.070676 -0.696286
H 4.8673 11.3112 3.28383 0.411214 0.324913 -0.13638
H 1.69014 4.79652 5.2521 1.273664 -1.188066 0.837252
H 7.23125 0.81797 3.48358 -0.059032 -0.481259 0.130242
H 3.44332 7.75441 6.76873 -1.251546 1.416384 -2.464985
H 7.24675 10.3436 5.07961 -0.475049 0.54357 0.059782
H 9.98087 11.7235 3.49865 0.34072 -0.001871 -0.604719
H 10.4796 1.40435 0.77783 0.054679 -1.100492 0.11632
H 8.61521 4.54532 4.4751 -0.240003 0.320073 0.414514
H 0.41819 10.1565 4.3076 -0.450661 0.16694 -0.117886
H 4.42894 11.2445 9.34507 0.601657 -0.302019 0.327869
H 7.54929 10.2673 2.08852 -0.098499 0.527748 -0.745558
H 10.0149 7.145 11.4454 -1.177298 0.519956 -1.098731
H 0.40188 12.1863 10.6653 -0.073451 0.424418 0.080889
H 10.013 3.80941 6.72594 -0.335046 -0.095072 -0.218409
H 6.52651 8.17264 8.51186 -0.06569 0.063287 0.192627
H 5.17125 4.85959 4.3963 0.25198 0.346777 0.036356
H 10.7611 6.06375 5.77332 0.451497 0.682231 0.910347
H 6.67335 11.2487 8.45925 -0.574606 -0.408711 0.767218
H 8.76447 10.7685 4.56436 -1.318298 -0.255561 0.291314
H 5.9292 1.47428 9.88319 -0.357567 0.337108 -0.395392
H 10.7166 12.3609 10.2289 -0.003788 -0.07576 0.136447
H 12.0044 2.80294 1.7475 -0.603229 0.080988 -0.129094
H 8.82473 0.35094 8.36676 -0.631087 0.059081 0.470952
H 11.4244 10.7216 6.12277 0.588233 -0.114831 0.178177
H 8.54486 7.19847 7.68472 -0.676964 1.279437 -0.20586
H 8.66914 0.75213 4.14181 0.552942 -0.92669 -0.078261
H 4.03823 5.73518 8.07208 -0.008906 -2.601868 -0.248852
H 4.48477 7.88353 7.98159 -1.499211 -1.162551 -0.512932
H 4.67188 3.48328 0.82085 0.433671 -0.240571 0.118918
H 1.02279 6.84766 10.6209 0.360302 0.143471 -0.365995
H 4.45444 2.84076 8.16987 -0.050912 -0.228746 0.46968
H 10.1566 0.22314 7.79043 0.605956 0.012138 -0.029776
H 5.69142 11.3046 11.4886 -0.301883 0.322191 0.149263
H 7.3466 2.63901 7.15139 -0.257712 -1.073403 -1.359385
H 2.50304 7.51167 1.53733 -0.114741 1.388912 -0.700266
H 4.71964 5.62528 0.11476 0.234194 1.024857 0.186053
H 6.94728 8.0823 2.38673 0.671854 -0.538303 0.625513
H 10.3774 10.3178 9.70861 0.38088 0.334707 0.805301
H 1.90489 9.10515 5.17738 0.00837 -0.280704 0.618591
H 2.71333 3.93048 12.2247 0.293367 -0.279628 -0.108285
H 8.50625 8.10607 4.26062 -0.301085 0.106262 -0.619906
H 11.8431 2.72031 3.33129 0.45838 0.510251 -0.69036
H 4.25035 7.22544 0.0557 0.720643 -0.987832 0.083005
H 11.2899 9.10896 8.1023 0.260098 0.024555 0.327654
H 1.72983 2.86625 2.1931 -0.156525 -0.374287 0.023941
H 11.9105 6.7341 3.12497 0.178413 -0.665022 0.871291
H 6.33626 11.6083 0.5134 -0.520503 -0.007291 -0.419458
H 7.44249 7.68866 6.62103 -0.772678 -0.613756 -1.464679
H 10.2996 11.5161 5.45413 -0.226266 0.38205 -0.179038
H 10.7592 1.01971 4.50343 0.934624 1.391988 1.157212
H 2.73125 0.92464 0.78787 0.32238 0.625551 0.575089
H 3.60136 0.54851 8.4244 0.533733 0.883119 -0.333123
H 9.61313 6.66556 9.35413 0.536387 0.863992 1.550904
H 1.59744 7.18448 12.1271 -0.212739 0.26177 -0.48414
H 0.37895 7.49182 8.5717 -0.915708 1.548311 -0.777517
H 0.68785 1.49964 4.79433 -1.352002 -0.368793 0.115768
H 1.23702 11.0543 5.28165 -1.078096 -1.605876 0.32466
H 2.40493 10.9961 1.82209 -0.802787 -0.663695 1.319698
H 1.98063 0.81364 5.48139 -0.404924 0.324769 -0.32029
H 8.92039 4.07276 1.76682 0.055239 0.535117 -0.956946
H 3.70957 6.40861 3.24927 -0.216501 -0.14465 -0.083223
H 3.02548 10.1685 2.94515 1.209567 -0.5987 1.105823
O 5.31309 10.931 9.7016 -0.401699 -0.158161 -0.530422
O 8.05635 10.01 4.70578 1.533941 -0.229664 -0.275513
O 0.51521 10.3059 5.26226 1.443599 1.182298 -0.617836
O 0.53172 5.55248 3.90601 0.744665 1.063799 -0.436648
O 2.30282 8.14105 0.7533 0.677709 -1.798069 0.51491
O 5.74833 8.23527 9.12045 0.745594 0.038946 0.325173
O 0.0076 3.73972 9.23391 -0.340444 1.117259 -0.678791
O 11.2447 7.28215 2.70339 -1.070046 1.307093 0.199967
O 11.39 1.79697 4.79832 -0.976204 -1.34 -1.430535
O 7.91211 3.84963 3.21473 -1.084297 0.042582 0.045549
O 2.67006 8.48655 5.26885 1.177102 0.822379 -1.582928
O 1.7591 3.9189 12.0771 -0.040555 0.788984 -0.260716
O 10.5855 11.156 6.33777 -0.097389 -0.37539 1.519705
O 10.8873 2.23613 0.54604 0.295767 0.434174 -0.67483
O 12.2689 3.24253 2.577 0.133497 -0.237366 1.409654
O 2.35101 4.22859 5.77319 -0.730413 1.517481 -0.762658
O 11.0593 6.32895 0.3262 -0.393293 -0.184838 -0.362191
O 5.6055 11.8875 12.2817 0.515205 -0.386228 0.154078
O 11.437 6.52674 6.35382 -1.415026 -1.089237 -1.196274
O 9.85919 9.57266 9.4087 -0.276695 0.679388 -1.948228
O 4.09888 4.68612 8.00625 -0.250992 2.046014 0.430241
O 9.2536 4.20667 0.82726 -0.197733 0.401812 0.437319
O 4.65085 4.00998 0.00527 0.053979 0.154816 -0.4747
O 9.70161 0.73066 8.49487 0.305331 -0.326151 -0.597769
O 5.03755 2.40181 2.25755 0.565958 0.547727 -0.169336
O 7.47712 11.1936 1.75297 -0.185039 -0.269078 1.940427
O 10.4599 3.00583 7.01424 0.45265 -0.082697 0.317643
O 7.87342 1.33178 3.98044 -1.554728 1.337382 -0.017375
O 7.81124 3.87416 8.08447 -0.289926 0.053299 0.261383
O 1.15805 6.5268 11.5335 -0.337763 -0.869737 0.625454
O 3.77944 7.30432 7.50594 2.612042 -0.207177 3.222841
O 6.2153 8.45134 1.90338 0.386771 1.924673 0.586177
O 1.54594 1.64197 5.18159 2.329066 0.040248 0.116342
O 5.01871 6.60158 0.17214 -1.18159 0.194333 0.117991
O 6.9295 1.79343 6.74705 -0.332367 0.041795 -0.336118
O 11.8915 10.1055 2.28779 -0.972085 -1.689458 -0.287649
O 4.32519 9.94845 3.81725 -0.864414 1.257947 0.87808
O 5.77247 5.3289 6.02891 0.075825 1.633823 1.964361
O 0.99069 6.8806 8.96113 -0.094485 -1.883582 1.434182
O 9.64511 12.0587 4.32877 -0.102838 0.277733 -0.58098
O 9.59932 6.28789 8.47234 -1.2338 -1.387151 -2.110537
O 10.2457 11.9581 0.87633 1.259926 -1.717079 0.111511
O 7.09696 6.84722 11.0617 -0.568505 -1.55483 0.266217
O 2.98111 12.226 8.55404 -0.514184 -0.551953 0.429337
O 8.52496 7.28963 3.70876 0.846752 0.692132 1.099348
O 2.14661 10.3438 2.56767 -0.550808 1.697446 -2.869415
O 12.1023 8.73129 7.70873 -0.957455 -0.278515 -0.333718
O 7.92659 7.9898 7.36276 1.445131 -0.633685 1.697513
O 2.80936 11.5469 5.62269 1.643672 -1.17725 -0.173227
O 5.33246 4.8698 3.42893 -0.725477 -1.610874 -0.351267
O 9.39477 7.49109 10.6938 2.841194 -0.796931 1.402656
O 7.23312 11.5088 7.71928 0.559412 -1.158979 0.175495
O 1.09188 0.49198 10.6052 0.393861 0.09388 0.372229
O 8.8911 5.17528 5.22444 0.80277 -0.242312 0.311178
O 11.1857 11.7551 10.8352 -0.617742 -0.202429 -0.328157
O 5.36116 12.1732 2.93099 -0.45172 -0.065431 -0.174148
O 2.75918 0.0033 0.51944 -0.477369 -1.166011 -0.440674
O 7.27848 3.97257 11.0982 1.169915 1.033576 0.505907
O 6.4956 1.49545 10.6657 -0.583373 -0.537485 0.712505
O 2.36068 2.11614 2.14155 0.292024 0.099377 0.444145
O 2.83253 6.7606 3.00368 -0.434431 0.430051 0.291833
O 4.68565 1.90818 8.39132 2.575798 -0.250623 -1.817063
Na 0.34855 2.49721 11.2115 -0.462058 0.316159 -0.267146
Na 8.80714 10.1347 7.25508 0.458452 -0.476468 0.007903
186
energy=-1002.23235718 config_type=nep2xyz pbc="T T T" virial="-20.602490361167238 0.8597188502852332 -4.264642949174577 0.8597188502852332 -7.864385403886129 -0.7869966602889282 -4.264642949174577 -0.7869966602889282 -13.884844998945967" Lattice="12.4 0.0 0.0 0.0 12.4 0.0 0.0 0.0 12.4" volume=1906.6240000000003 Properties=species:S:1:pos:R:3:force:R:3
H 8.75353 8.99266 6.9933 -0.619647 -0.447929 -0.663113
H 12.3678 9.39858 4.86081 -0.918678 -0.852798 1.945614
H 7.29962 4.16002 6.34167 -1.16368 -0.980322 -0.369679
H 6.69809 9.9253 6.48547 0.917056 -1.124115 0.102035
H 1.2114 5.24743 3.47711 -0.012073 -0.233796 0.421457
H 0.94157 7.42772 6.49184 -0.360298 -0.124927 -0.047018
H 9.47767 10.1641 4.76338 0.164484 -0.531583 -1.191058
H 10.656 8.93309 6.06285 0.634354 -0.379161 0.356322
H 5.99138 4.18364 3.08236 0.1676 0.019309 0.312442
H 11.9865 9.30855 11.2182 -0.531072 0.259015 0.271222
H 5.42007 5.74935 9.07684 -0.53654 -0.694673 -0.607051
H 7.75238 12.1839 10.6742 -0.127821 0.209497 0.222854
H 1.52246 8.28323 8.31088 -0.14621 -0.298528 -0.02107
H 0.25426 0.71365 4.56071 0.151594 0.122206 -0.441901
H 0.42106 8.62415 10.1897 1.19139 -0.166322 -1.181173
H 0.99227 3.98067 6.56758 -1.221109 -0.926562 -0.806215
H 10.5715 9.77343 2.44857 -0.741663 0.189682 -0.074386
H 3.26305 7.1142 12.1536 0.868499 0.604059 -0.376013
H 4.4004 9.38093 2.95487 0.10179 0.775348 -0.812926
H 7.42651 8.31671 11.509 0.883681 0.24167 -1.061063
H 1.45823 6.11305 11.4803 -1.240521 -0.008138 -0.438051
H 2.40973 7.97942 6.74693 -0.273868 -1.067863 -0.210174
H 10.4599 8.17691 1.07392 -1.132582 -1.116422 0.018195
H 0.39886 1.1749 2.37432 0.469186 -0.462743 -1.153526
H 8.18294 5.43306 5.94235 -0.853965 -0.787457 0.6963
H 9.31201 6.8776 4.65216 -0.532227 -0.221951 0.139858
H 6.18591 10.8524 9.55464 -1.441608 -0.196986 -0.168772
H 0.55842 11.1376 11.9805 0.170744 0.348108 0.354021
H 1.44293 1.90058 11.9093 0.130147 0.158149 -0.149574
H 12.1979 5.85349 4.01384 0.168466 -1.470515 -0.423844
H 0.39225 2.4971 3.05199 0.351102 1.347916 0.127733
H 8.25185 4.48998 2.30672 0.60816 0.67638 0.131848
H 10.5993 7.82291 9.26408 1.256983 1.871029 2.098574
H 3.13424 4.38038 7.82166 -2.007878 0.089175 -0.509478
H 4.81242 7.94075 9.89089 -0.421471 -0.356575 0.266004
H 6.69675 8.7408 2.69588 0.796243 -0.497239 0.024679
H 2.9494 10.7677 6.34431 0.344394 -1.826061 0.146475
H 6.89193 1.04431 1.14403 -1.286312 -0.987135 -0.273993
H 0.27401 5.00652 10.0057 0.090259 -0.514534 -0.859102
H 4.95651 1.55336 11.0474 0.284196 0.153918 -0.562202
H 5.86825 4.68593 0.47661 -0.736064 -0.339116 -1.84822
H 8.27597 1.05468 1.88843 -0.879233 0.119107 -0.394618
H 8.61501 9.65175 3.02085 -0.507839 -0.82391 -0.21537
H 10.1984 6.11325 2.94225 -0.341736 -0.593878 0.10021
H 3.04219 8.89663 5.11215 1.741429 0.315585 1.659396
H 4.42622 9.16268 6.10874 -1.199229 -0.048103 -0.273359
H 5.22511 11.415 1.18589 0.130481 -1.691896 1.504015
H 9.59465 6.72755 1.30149 0.672766 0.715824 -0.520801
H 0.99761 4.53809 8.66542 0.050063 0.131819 -0.445718
H 8.81054 1.81756 10.5294 0.117638 0.211282 0.304933
H 9.80152 2.91675 6.96485 -0.234684 0.694123 0.525071
H 5.5328 0.42169 4.90816 1.155686 -0.499608 0.503413
H 0.0148 4.61117 1.77714 -0.207867 -0.203321 -0.994051
H 11.3452 2.83809 6.61534 -0.730863 -0.219496 -0.368445
H 1.25028 11.7526 9.42532 -0.002285 0.128382 -0.073888
H 0.3503 11.4793 4.41917 0.037947 1.879824 1.877054
H 7.06849 0.36695 5.85184 -1.013369 0.199316 -1.129618
H 5.39204 3.61351 5.46786 -0.260776 0.32242 -0.609271
H 7.65185 3.04873 2.11363 -0.642307 1.271659 -0.531819
H 8.02144 7.33439 4.04179 -0.870008 0.253973 -0.806329
H 5.70841 11.0248 6.35183 -0.395158 1.323335 -0.555706
H 3.9835 5.19427 3.13941 -1.36059 1.060614 -0.156622
H 9.03333 1.12404 6.36545 -0.082445 -1.519083 -1.460667
H 4.96677 3.81532 9.38068 -0.328565 -0.408079 -0.36177
H 4.34388 1.18769 1.5209 0.479818 -0.344889 -0.184366
H 4.72132 12.0523 12.3333 1.44477 1.026699 0.848135
H 8.18759 1.75107 12.0265 -0.512566 -0.463544 -1.219852
H 4.71839 3.32278 3.07889 0.047187 0.379032 0.454484
H 2.04377 0.26032 7.47086 -1.198517 -0.277239 0.805296
H 8.8278 7.90497 11.7951 0.760822 -0.353594 0.048256
H 9.87438 9.73384 11.3466 -0.673941 -1.074292 0.029794
H 12.2634 4.96784 0.22007 0.27475 0.558345 -0.405698
H 1.80148 10.4277 9.96356 -0.013695 -0.724014 -0.411268
H 11.3399 7.67168 3.52419 -0.237054 -0.423019 0.228139
H 5.69522 6.02632 10.5355 -0.003301 -0.668812 1.38725
H 7.87887 8.02575 1.9031 0.392473 -0.198818 -1.052331
H 1.82497 11.7434 5.74597 0.881241 0.169196 0.487573
H 5.42255 10.4736 8.21408 -0.047563 -0.10734 -0.646422
H 2.9715 1.79525 1.38331 -1.455026 0.333348 -0.695688
H 5.36239 3.79168 11.6295 0.148478 -1.032844 -0.189673
H 8.08053 7.9116 6.03591 0.257795 -0.091492 -0.054738
H 9.82054 0.48887 2.84688 0.580661 -0.122355 0.107828
H 10.7819 0.70065 9.32561 -0.083693 -0.590032 -0.066841
H 2.87513 2.50691 9.73223 -0.466684 -0.000533 0.416571
H 10.1064 4.91115 8.8225 1.176381 1.276724 0.275176
H 8.86972 0.44973 4.86306 0.011399 0.32154 -0.136282
H 8.05269 10.7539 11.1413 0.757147 -0.845844 0.531484
H 4.96262 3.82091 7.78146 0.282342 0.196955 0.28539
H 0.76589 2.77778 0.63148 0.285803 -0.703282 -0.394306
H 11.5868 2.73255 10.0363 -1.131465 -0.692842 0.248301
H 2.34734 5.62752 7.38264 -0.860937 -0.119828 -0.539391
H 10.4601 11.5523 9.55335 0.558611 0.837241 -0.545096
H 2.97805 12.0455 10.928 -0.135715 -0.192349 -0.599894
H 4.54047 9.42974 9.74368 -0.30333 -0.145662 0.497962
H 3.93544 5.63366 12.1863 1.786382 -0.562669 -0.622091
H 4.99399 8.94778 12.0395 1.158752 -0.237547 0.334985
H 12.171 9.52637 3.34371 0.54219 0.18602 -0.148589
H 0.14983 7.03267 11.2325 -0.044953 0.066467 -0.147169
H 5.77554 2.33476 6.23608 -0.020118 0.219549 0.106347
H 10.623 7.46389 7.76643 -0.201174 -0.248751 0.953873
H 11.7187 9.9478 1.29021 0.290165 -0.034088 0.504362
H 8.88072 11.4563 3.14526 1.402114 0.59631 -0.178741
H 5.74057 9.19089 1.00353 -0.236937 0.30042 0.001771
H 2.60108 8.58345 9.3945 -0.037098 -0.144837 0.27781
H 0.82704 11.6271 1.08619 -0.799544 -0.713384 -1.118174
H 10.7044 10.7971 12.1102 -0.187888 0.203018 -0.145975
H 4.36756 11.7958 10.2029 -0.12476 -0.174635 -0.268301
H 8.90808 4.66824 7.77761 0.610653 -1.016537 1.077606
H 1.42032 3.13608 9.8673 -0.086074 0.0424 -0.160745
H 4.0152 0.59414 3.49923 -0.300555 -0.482202 0.264256
H 0.14011 3.73521 5.16767 0.375402 0.094017 1.770044
H 6.37652 2.13729 10.5202 -0.723647 -0.284432 0.512469
H 11.0397 7.54467 5.45019 0.369206 -0.356933 -0.601341
H 10.337 3.00525 9.29098 -0.501147 -0.685056 0.504148
H 9.33482 11.1193 5.90893 0.625277 -1.114133 0.381301
H 3.66579 12.2384 4.94135 0.677386 -0.308992 -1.440129
H 1.51764 1.09414 8.71757 -0.19866 0.196135 0.009648
H 3.10102 7.60198 3.54221 -0.257829 -0.053151 -0.566574
H 4.89286 10.7927 3.13825 -0.166205 1.692003 1.165861
H 10.4993 5.0274 1.87911 -0.716562 -0.009672 -0.148812
H 3.20567 5.84918 1.91463 -0.135657 0.226531 0.04826
H 2.00046 8.74613 3.49482 -0.599559 0.252513 -0.08826
O 8.30673 8.21724 11.0209 -1.670874 0.209637 0.796374
O 3.73727 1.81903 1.94298 1.168564 -0.005941 1.059964
O 1.23753 0.40863 8.07569 1.437114 0.364051 -0.43099
O 0.43164 12.3102 5.0848 -0.380268 -2.548129 -1.308693
O 3.18709 6.18955 12.3422 -2.786548 0.006657 0.958767
O 5.87516 6.35186 9.6666 0.843502 1.635444 -0.747456
O 6.05618 0.4499 5.76378 0.018799 0.286379 1.022265
O 10.3124 10.5709 11.253 0.533733 0.940359 0.136001
O 0.34228 4.9415 3.81478 -0.231777 1.50131 -0.546943
O 9.71608 7.57147 0.73684 0.200168 0.549504 0.381052
O 5.67838 3.31919 6.34273 0.204692 -1.090028 0.17129
O 10.275 7.19382 8.67973 -0.737459 -1.641506 -3.139476
O 1.97862 2.3462 10.09 0.439129 -0.221872 -0.295035
O 8.01435 1.57801 11.0311 0.270808 0.168378 0.545109
O 8.93555 0.25959 3.13325 -0.855193 -0.615781 0.183571
O 3.19087 5.82553 2.89136 1.260383 -0.999393 0.2731
O 8.31943 6.83319 4.80867 1.815216 -0.355347 0.661294
O 3.9259 12.2806 10.9245 0.442679 0.41557 0.865707
O 2.71223 11.6767 6.23919 -0.934718 2.052311 -0.959553
O 0.50797 6.11592 11.1421 1.484201 -0.814449 1.150883
O 7.43699 11.2598 10.6416 -0.998542 0.77093 -1.061063
O 9.72105 5.51291 2.24426 1.207881 0.160638 0.483003
O 1.25792 1.92112 0.46283 -0.268018 0.522967 0.555724
O 10.8432 12.1955 8.90162 -0.895024 -0.24821 1.45836
O 0.28826 4.28391 9.28464 -0.15223 0.303872 1.387332
O 9.34423 10.2292 3.22444 0.03113 1.367951 -0.010992
O 11.0505 6.9105 4.06339 -0.103975 -0.160786 -0.850798
O 8.67597 0.33008 5.83231 0.343354 1.054793 1.184094
O 10.4474 2.31126 6.61516 0.901158 -0.504851 -0.029257
O 10.6562 2.35846 9.99081 1.452206 1.092993 -0.935079
O 4.59734 4.27179 8.59636 0.217218 -0.301346 -0.244424
O 0.40839 9.71199 4.09829 0.779849 0.758929 -1.768284
O 4.24091 12.2224 4.07239 -0.817609 0.860193 0.828786
O 5.8443 8.78346 0.13451 -0.873483 -0.135259 -0.691964
O 4.13852 8.60002 10.176 0.711617 0.294215 -0.492362
O 12.3958 1.6425 3.08805 -0.930364 -0.558934 0.957017
O 5.75811 10.0874 6.55561 -0.376384 -0.020612 0.229946
O 7.86667 4.83191 6.6878 1.773228 2.425796 -0.52001
O 9.67968 10.1808 5.72653 -0.454768 1.896202 1.227746
O 5.37003 12.2278 0.74837 -1.556542 1.143825 -2.31835
O 11.2662 8.14413 6.20635 -0.374053 1.036702 0.94318
O 12.1081 8.4519 10.8079 -1.003546 0.099682 0.687998
O 7.68551 1.55215 1.20453 2.080757 0.449814 1.026108
O 5.38971 2.30374 10.5845 0.510529 0.353893 0.113084
O 11.3599 9.34091 1.97676 0.107318 -0.307801 -0.198153
O 2.94924 8.57365 3.45306 0.518003 -0.623105 0.615616
O 1.65602 8.74771 9.15771 0.467191 0.353027 0.069502
O 9.45907 4.27999 8.57056 -1.637834 -0.2898 -1.164452
O 3.42393 9.01768 6.08214 -0.389812 0.069491 -1.352632
O 7.54764 8.23462 2.77031 -1.506934 0.883245 0.632381
O 12.1175 4.27799 0.87956 0.170445 -0.245663 1.709952
O 5.24437 10.7089 9.13728 1.776413 0.378066 1.215431
O 1.55185 11.3073 10.2502 -0.430245 0.369765 0.957988
O 5.13705 4.06173 3.58943 -0.20134 -0.662924 -0.845494
O 7.97165 8.40544 6.88088 0.021354 0.447369 1.122064
O 4.99443 10.073 2.53836 0.140794 -2.57786 -0.415217
O 0.21161 3.45857 6.14476 1.092902 0.838838 -0.981607
O 7.41936 4.03493 2.14959 -0.594751 -1.517301 0.158026
O 5.35014 4.67943 12.0014 0.810024 1.278187 2.072532
O 0.22109 11.0904 0.50848 0.861149 0.708574 0.072123
O 1.76864 7.20425 6.94023 0.619513 1.375889 0.040342
O 2.21228 4.65124 7.41752 2.55599 0.024559 1.184816
Na 11.6584 0.33557 7.10087 0.094111 0.231054 -0.827924
Na 8.0427 7.00565 8.82635 -0.210275 0.119124 0.247978
186
energy=-1002.1383299 config_type=nep2xyz pbc="T T T" virial="-24.328589257276395 1.6076471175520917 2.7644666380136877 1.6076471175520917 -14.699152643695953 -0.8447007838844254 2.7644666380136877 -0.8447007838844254 -5.04872405774544" Lattice="12.4 0.0 0.0 0.0 12.4 0.0 0.0 0.0 12.4" volume=1906.6240000000003 Properties=species:S:1:pos:R:3:force:R:3
H 10.7791 12.0638 11.2077 -0.547749 0.024005 -0.059815
H 10.7237 11.5852 3.09785 0.711219 -0.488249 0.176294
H 4.9897 5.24689 6.10235 -0.144932 0.324294 -0.367415
H 7.37939 12.2293 4.69507 0.110647 0.100737 -0.350214
H 12.3661 1.64638 3.60011 -0.594334 0.997595 -0.3565
H 1.08639 7.23775 3.5853 -0.457896 -0.119463 0.418696
H 2.1933 2.75349 11.843 -0.092779 -0.01642 -0.360484
H 12.3997 7.57587 10.469 -0.814306 -0.969023 -0.070969
H 9.51013 7.81371 4.57029 -0.548771 -0.068703 -0.370069
H 11.6278 10.1844 10.6888 1.306037 -0.875515 0.271649
H 3.91714 7.58429 9.62679 0.251223 0.679159 0.025546
H 3.61864 3.44781 6.10687 -0.178291 1.150156 0.603267
H 12.249 9.356 7.1857 -0.443886 -0.976566 0.018822
H 1.53883 6.58993 4.90474 0.533785 0.364798 1.628541
H 0.4716 8.57514 2.01392 0.031212 0.704926 -0.146425
H 5.52135 8.94355 3.37816 0.034884 0.210024 0.35069
H 5.31837 7.83861 5.29314 -0.38106 -1.084866 0.34437
H 3.24828 5.22616 0.84453 -1.003319 0.258754 0.847207
H 7.49135 0.86989 2.81504 0.820633 1.570534 -0.054633
H 5.1338 9.6522 8.95562 -0.122421 0.246078 -0.022888
H 11.9186 0.9427 8.30308 0.234449 0.456508 -0.229873
H 2.77683 4.53801 2.94322 0.474712 -0.977635 -0.354568
H 6.57047 12.1707 2.63757 0.704404 -0.877105 -0.026409
H 2.83459 10.3909 0.0367 0.397087 -0.089864 0.532898
H 6.25647 6.17856 6.22699 -0.492472 0.071741 -0.203497
H 10.6787 7.76305 1.5736 1.719762 2.902843 -0.987781
H 7.23424 10.7846 9.73649 0.384988 -0.044343 1.544358
H 11.3851 3.97122 2.60117 0.678248 -0.112845 -0.418358
H 2.41603 1.33249 0.97766 -0.587456 -1.217198 0.13743
H 11.9753 5.30587 4.84048 -1.361643 -1.473575 1.382473
H 0.79425 9.788 11.1558 -0.141986 0.122902 -0.167939
H 7.26765 3.21341 11.9752 0.721374 -0.260633 0.583318
H 12.1863 0.72195 0.38823 -0.491651 -0.032854 0.166571
H 4.98921 2.80955 9.62934 0.46133 0.30592 0.400114
H 7.72038 2.18014 9.16592 -0.225588 -0.574462 -0.076219
H 5.24499 4.02442 3.15054 0.121653 -0.159504 0.161022
H 11.879 7.44033 8.39323 0.103988 -0.450604 0.320625
H 6.69493 4.41589 10.1921 -0.440668 0.286157 0.437712
H 3.76352 2.68429 1.85368 -0.149893 -0.480298 0.256543
H 3.34971 0.15086 8.83669 -0.566533 -0.025837 0.594825
H 1.56048 1.04499 10.364 0.488369 -0.233545 0.470912
H 7.65596 5.62376 10.5729 -0.963298 -0.189358 -1.116718
H 11.5058 9.49538 0.1445 -0.335635 0.129475 0.469254
H 8.15682 4.29668 0.13435 0.53102 0.524722 0.304686
H 4.03772 11.1396 6.07821 -0.297131 0.045615 -0.263979
H 5.23123 11.7306 5.3331 0.609595 0.241174 -0.026749
H 7.47372 6.40309 0.23667 0.671841 0.323874 0.55224
H 5.81203 5.78561 2.00014 0.645911 -0.375846 0.728982
H 3.74025 2.47083 3.55945 -0.560282 -1.302151 0.41923
H 9.57844 2.2358 9.96666 -1.01195 -0.422377 -0.365206
H 7.59509 4.11288 8.18248 0.305833 0.991061 -0.117416
H 0.35611 3.44723 8.52783 0.349476 0.583187 -0.920129
H 9.71613 5.51502 11.578 0.450731 -1.200081 -0.616325
H 7.46124 3.08998 6.82536 0.439867 0.435729 0.638523
H 2.56683 11.0413 11.0664 0.02392 -0.855092 0.305373
H 8.27272 5.78683 6.30589 0.314735 0.01327 -0.360279
H 11.706 3.21353 7.25879 0.277325 0.916313 -1.844637
H 2.56316 7.77786 6.41673 1.023152 1.31607 0.148962
H 5.17712 3.35501 11.6671 1.552394 -0.049186 -1.348859
H 10.9176 6.15498 1.56884 0.276368 0.068665 0.228302
H 7.23956 0.51841 6.1082 0.185811 0.519137 0.117529
H 10.4957 5.28543 5.457 0.942606 -1.129707 0.016719
H 10.0623 2.66197 3.38603 -2.274927 -0.427305 -0.661299
H 0.98882 5.55212 9.57037 -0.061693 0.628813 0.419813
H 9.55519 9.28533 8.36379 0.630492 0.068552 0.355824
H 8.15763 2.86723 1.64628 0.153575 -0.741627 -0.090762
H 11.0387 2.88097 9.35335 -1.76962 -1.087714 0.873289
H 10.8552 7.87075 5.36146 -0.450686 0.20313 0.240905
H 0.19699 12.3064 4.02736 -0.022873 -1.869112 -0.22986
H 5.29753 11.2445 8.58471 -0.644011 -0.161779 0.193129
H 10.6656 9.95045 1.52605 -0.395799 1.469841 0.056411
H 10.2257 4.17907 10.7122 -0.509944 0.072375 0.200184
H 1.22031 12.3299 9.41835 -0.213262 -0.099472 0.033561
H 8.26122 5.99663 4.78996 -0.512425 0.795547 -1.489716
H 3.66292 9.02662 10.2407 -0.203779 -0.191253 -0.068903
H 6.03382 5.00639 4.13728 -0.364697 0.655703 1.268068
H 0.64145 7.50032 7.33074 -2.127292 -0.386922 0.112337
H 7.61255 11.8984 10.7203 -0.070364 1.014282 -0.00709
H 9.40978 8.82148 6.80546 -0.001213 0.030679 1.1397
H 2.22958 12.1537 1.491 -0.078693 1.193173 -0.325978
H 9.57588 11.2688 10.3661 1.258075 0.409654 0.700612
H 8.83918 7.02602 2.64818 -1.082828 0.157291 0.851354
H 8.38432 3.74113 5.43831 -0.289469 -0.865119 -0.634267
H 12.1844 10.9138 4.86824 0.063864 0.690692 -0.827748
H 7.16295 6.36348 8.29635 0.100748 0.071225 -0.068878
H 10.9186 3.39947 4.42729 0.218783 0.389693 0.430459
H 3.62705 4.13312 7.49004 0.147745 -0.520329 1.253577
H 2.50352 4.99946 9.6521 -0.119395 0.377853 -0.076823
H 4.19412 1.88743 12.2165 0.395045 -0.615509 -0.380496
H 2.94508 10.0116 2.00892 -0.027189 0.452537 -0.387957
H 5.58125 3.01528 8.20411 -0.05224 -0.116465 0.421841
H 7.79883 2.4582 4.64652 -0.021019 0.363225 -0.659024
H 6.11179 9.91386 1.3225 -0.216773 0.150421 0.08903
H 6.91415 1.91378 10.4006 -0.598162 0.457078 0.659459
H 3.93572 3.96202 0.15129 -0.629625 0.35901 0.448994
H 5.17849 5.51404 9.89823 -0.97227 0.477531 0.477998
H 9.3571 11.8737 2.38178 0.958812 -1.010572 -0.273402
H 11.4668 12.1162 9.10913 0.606888 0.081599 -0.233082
H 2.79553 6.21914 6.59307 -0.005825 0.092781 0.069363
H 10.9849 0.0967 1.10312 -0.403124 -0.095207 0.350698
H 4.67988 9.27506 5.59715 0.596743 -0.607661 -0.285144
H 7.34523 7.58786 2.99283 -0.132496 0.351227 -0.448419
H 4.17125 5.51772 11.1103 -0.110865 0.100284 0.091064
H 0.14603 10.8434 7.46214 -0.395627 0.527576 -0.206113
H 0.36651 4.5236 2.02815 0.464401 -0.051172 0.303545
H 9.12312 6.71931 0.54521 -1.393782 -0.445851 -0.353026
H 6.67876 10.6045 0.08004 -0.669396 0.505425 0.208597
H 7.85871 7.59027 7.55897 -0.025232 -0.432246 0.22274
H 7.45386 3.46454 2.74965 -0.512246 -0.10266 1.001014
H 1.24213 1.18278 2.65069 -0.532562 -0.252356 0.22361
H 5.4398 7.78875 2.31578 0.108241 0.802839 -0.767642
H 4.38335 1.14477 8.28045 0.073156 0.090772 0.286026
H 11.4818 6.19569 10.3562 -1.870698 -1.00723 1.506382
H 0.99948 9.62684 3.03072 -0.372556 -0.039529 -0.168149
H 1.44678 3.57255 10.6751 -0.018824 0.072404 0.187083
H 2.29368 1.47196 4.73595 0.390554 0.764255 0.307508
H 1.79674 9.97081 6.65684 0.311118 0.192889 -0.291323
H 4.30684 10.7617 1.5654 -2.895803 0.236882 -0.766471
H 3.41576 0.70623 5.40109 0.32662 1.220217 -0.125187
H 5.25459 5.82163 0.64354 -0.285149 0.728787 0.310108
H 1.74346 5.59681 3.32873 -0.275905 -0.744334 -1.301716
H 2.79071 9.64318 7.72667 0.621717 -0.57776 2.254213
O 5.74801 10.3771 8.685 1.118821 0.070627 -0.560036
O 8.93675 9.03254 7.69071 -0.504811 -0.394528 -1.990242
O 2.76771 9.83613 6.81502 -0.770926 0.023857 -1.91644
O 0.88577 6.49428 4.21582 -0.725392 0.701581 -1.597424
O 3.97043 4.98805 0.27852 0.811465 -0.79153 -1.182896
O 3.90628 8.55839 9.41122 -0.215448 -0.363763 0.293641
O 11.9175 3.12696 8.16163 -0.008668 -1.052192 2.553313
O 8.40737 6.35069 12.3096 0.364798 0.159288 0.178527
O 0.86023 1.30089 3.58392 0.860704 -0.487338 0.714052
O 5.7913 6.41035 1.25837 0.288921 -0.340496 -0.645923
O 2.15056 6.92876 6.41998 -0.466291 -1.254888 0.069875
O 11.1997 0.78297 0.44002 1.320272 -0.132395 -0.638305
O 12.2308 11.3232 3.96155 0.31607 0.753273 1.171024
O 10.454 2.54351 10.1651 2.346234 1.271077 -0.342005
O 8.11561 7.14261 3.35267 1.576681 -0.472777 -0.255633
O 11.3184 4.69669 5.3791 0.397993 2.565352 -1.172428
O 10.3276 6.92246 1.72306 -2.098185 -3.345414 0.599904
O 6.03649 10.7523 0.81346 0.796378 -0.424055 -0.272996
O 12.0257 7.61246 7.44877 2.102763 0.55198 -0.520596
O 12.1867 0.0358 8.48794 -0.945116 -0.631226 0.451274
O 3.66795 4.34625 6.56583 -0.143728 -0.9721 -1.71215
O 8.14237 3.33363 0.14861 -1.359022 -0.078203 -1.03387
O 3.54755 2.50764 0.13248 -0.361906 0.300818 1.138304
O 8.13585 2.76015 5.49059 0.412674 0.776751 0.699037
O 3.9588 2.97231 2.78299 0.841869 1.75364 -0.584617
O 11.18 9.30278 1.05606 1.06405 -1.978469 -0.515595
O 8.65626 5.44886 5.45412 0.428225 -0.997408 1.743731
O 10.9394 2.76439 3.68205 1.57754 -0.210629 0.326413
O 7.33991 3.27904 7.80955 -0.814042 -1.303546 -0.062605
O 1.26898 8.85349 2.50074 0.174157 -0.357141 0.524356
O 1.56882 4.77992 9.46941 0.483192 -1.104049 -0.498395
O 10.2426 11.4098 2.26402 -1.961201 1.407351 0.132901
O 3.15374 1.65845 5.21571 -0.711788 -1.537246 -0.451484
O 4.26605 5.80613 10.174 0.473536 -0.102419 -0.844554
O 7.66218 1.5437 9.91749 0.859069 -0.145647 -0.735972
O 2.68398 10.1515 11.5068 -0.743158 0.811631 -1.878344
O 7.23128 12.079 5.65341 -0.370225 -0.803617 0.330284
O 5.52295 5.93043 5.61285 0.455866 -0.007052 0.362293
O 1.31187 2.89517 11.3732 -0.442448 -0.421751 -0.039151
O 8.00124 2.66082 2.62899 0.231594 0.434966 -0.619334
O 12.223 6.68077 10.0623 2.495675 2.349802 -1.329022
O 12.3071 9.43793 10.91 -0.877202 0.636999 -0.024555
O 7.03032 5.31696 9.84705 1.3065 0.089214 0.615125
O 4.14624 0.18874 8.30633 0.664439 -0.28034 -0.723385
O 5.50611 8.76744 5.40886 -0.04988 1.647015 0.018945
O 3.24601 10.7923 1.48809 2.88151 -0.771864 1.489424
O 0.0045 10.203 6.74413 0.665754 0.575823 -0.059496
O 7.34904 6.75836 7.41267 0.223191 0.073556 0.465383
O 4.34949 11.38 5.18044 -0.426963 -0.048293 0.532695
O 6.08166 4.52626 3.3193 0.166659 -0.57 -1.636374
O 10.4805 4.96272 11.2497 0.032996 0.990101 0.182583
O 7.77237 10.9662 10.5881 -0.264123 -0.793814 -1.566891
O 1.84904 0.12921 10.142 -0.005144 0.506828 -0.199881
O 9.95052 8.23505 5.3147 0.810439 0.183979 0.436968
O 10.5826 11.4379 10.4735 -1.029077 -0.283803 -0.43393
O 7.4698 12.3292 3.00566 -1.203438 -0.338631 -0.105466
O 5.65246 8.75539 2.43754 -0.126906 -1.019155 0.629028
O 5.93097 3.30347 11.0049 -0.610345 -0.43966 1.158994
O 1.75861 0.63186 1.33053 0.93111 0.422332 -0.453119
O 11.8251 4.40988 1.82723 -0.916852 0.295322 -0.450635
O 2.03442 5.00388 2.55 -0.064214 0.94018 0.681285
O 4.75518 2.76883 8.67836 -0.382443 0.025719 -1.016561
Na 11.5387 2.98389 12.2262 -0.079983 0.292188 0.099555
Na 7.18949 10.056 6.73183 -0.553119 0.084619 0.052042
186
energy=-1001.57673688 config_type=nep2xyz pbc="T T T" virial="-15.180849388364654 -5.0519847155852355 0.419292037691018 -5.0519847155852355 -21.681339698540015 -2.6368249738179146 0.419292037691018 -2.6368249738179146 -16.462871029747724" Lattice="12.4 0.0 0.0 0.0 12.4 0.0 0.0 0.0 12.4" volume=1906.6240000000003 Properties=species:S:1:pos:R:3:force:R:3
H 7.71017 10.5691 11.0701 -1.416536 0.776575 -0.704474
H 9.57612 7.39021 6.61641 -0.156611 -0.076315 -0.409295
H 2.31509 5.62962 7.05668 -0.40709 -0.401359 0.182775
H 9.00636 0.88589 8.22973 0.971374 -0.823788 0.236403
H 1.17508 2.01842 11.1559 -0.919196 0.095595 0.117231
H 12.1502 9.72088 8.88636 0.43198 -0.380405 -0.453891
H 3.54963 7.15289 8.57112 -0.246645 -0.201338 0.504871
H 12.0991 8.3528 0.32936 -0.180869 1.512091 -0.58156
H 8.22312 8.46248 11.2951 0.049445 0.367231 -0.072448
H 0.21029 0.0151 11.1047 -0.773304 -0.060227 -1.240316
H 4.43259 9.77484 11.9407 -0.49242 0.10475 0.114952
H 11.1527 1.94053 5.92233 0.064314 -0.495041 0.771034
H 11.6594 0.21409 8.32439 -0.259502 0.434725 -0.546598
H 1.08778 10.36 8.69719 0.52128 0.537271 -0.091534
H 0.49654 7.07456 1.3308 0.808315 0.014272 -0.676362
H 7.57114 4.23474 2.77898 -0.379025 1.802827 0.032895
H 1.234 11.0139 1.89682 0.267338 -0.353647 -0.037408
H 2.41793 7.17049 12.0797 1.321568 -0.912469 -0.294549
H 4.74502 5.40663 2.56101 -0.950105 0.03125 -0.067834
H 5.12514 1.64124 0.14181 1.045503 1.489753 0.029572
H 10.8052 12.0977 7.14661 -0.368275 -0.912869 -0.303806
H 10.0749 1.14489 2.77178 0.447238 -0.806621 -0.565267
H 3.56376 6.34805 2.82107 -0.649108 1.725145 0.701833
H 0.36151 6.15984 3.80326 -0.312751 -0.220813 0.261914
H 1.98234 4.19837 7.64688 -0.189476 -0.28397 -0.321092
H 3.05431 3.56991 11.0284 0.880821 0.155526 0.202909
H 5.45367 1.02659 9.49988 -0.480009 0.317197 0.036908
H 4.18361 0.039 11.0933 0.100231 0.054066 -0.526252
H 8.60857 11.7946 5.75185 -0.539203 -0.051458 0.609677
H 4.83792 2.86693 6.25391 0.217352 0.411444 0.464171
H 0.98454 12.3717 2.58605 -0.76255 -0.329459 -0.26949
H 10.7065 5.62879 5.68257 -1.255333 0.409332 -0.430489
H 10.952 1.0184 10.6152 -0.028045 1.096268 -0.1155
H 2.91038 0.9297 0.12054 -1.856175 0.806944 -0.468321
H 5.79486 4.15754 7.9204 -0.249963 0.350098 0.39085
H 6.35995 9.08345 2.10813 -0.355469 0.65737 0.118942
H 11.1273 5.0652 12.1973 -0.036329 -0.247375 0.437087
H 8.54694 8.29832 0.90472 0.951946 -0.460302 0.772131
H 1.83512 9.58772 0.33451 1.29603 0.409467 0.726452
H 6.43728 9.77935 9.0671 0.329152 0.335575 -0.340979
H 9.70696 9.65571 6.75282 -0.002259 0.909432 -0.346997
H 10.1718 8.33723 0.94395 -1.068955 -0.225131 0.104911
H 0.52946 1.88651 4.00209 -0.560636 -0.132844 0.736333
H 9.58885 6.5258 4.88407 0.483321 -0.511139 0.866178
H 4.01044 7.94638 6.94577 1.247939 -0.001599 -0.636309
H 4.16855 9.34265 5.35282 -0.133927 0.828441 -0.835345
H 9.506 5.45007 9.35268 0.285744 1.748903 1.233478
H 8.53549 4.50316 11.6869 -2.162156 1.44156 0.224381
H 2.75415 8.91536 1.36962 0.125546 0.591393 0.135161
H 5.64536 10.5174 4.01262 -1.075777 -0.122469 0.675783
H 11.9281 4.08323 5.18157 -0.044632 1.038246 0.095228
H 4.61879 0.88676 5.70771 1.416795 -0.100257 -0.004042
H 10.7931 2.2719 4.404 0.823944 0.125323 1.472825
H 0.39555 5.14605 5.9098 0.252521 -0.131188 0.082364
H 11.7074 7.26786 3.60116 0.069679 0.122736 -0.03534
H 7.86241 11.119 2.08874 1.241134 0.011348 -0.64884
H 6.3106 1.24918 5.89398 0.176682 -0.823887 -0.922053
H 6.69962 6.79844 2.61688 -0.043563 -1.510285 -0.428489
H 3.48468 12.0086 0.83356 -0.187373 0.643782 -0.306363
H 3.38468 5.08064 11.1261 0.627445 -0.512719 -0.362693
H 7.65041 1.63873 8.39056 -0.61502 -0.292237 0.343167
H 3.84849 4.11657 6.47757 -0.613124 -0.149451 0.178483
H 10.6448 2.96734 12.3484 -0.467166 0.511417 0.236446
H 10.9211 5.9102 10.9382 0.495793 0.060146 0.19319
H 11.2207 11.1688 10.1025 -0.175169 -0.576578 0.1315
H 11.9196 4.08876 10.3185 0.000762 0.544793 0.105723
H 6.92271 11.4165 4.2773 -0.097732 0.018839 0.295278
H 7.12478 8.24366 10.3097 -0.304576 -0.094053 -0.372575
H 11.3586 11.2236 3.11538 -0.069343 -0.397745 0.625377
H 6.60094 1.99133 0.17066 2.463696 -1.140596 0.149004
H 1.64872 2.1828 2.98194 0.266697 -0.835228 0.381457
H 2.45214 3.42576 9.41985 0.09967 -0.890353 -0.628764
H 1.37221 0.31172 9.27543 -0.158911 -0.232865 -0.380698
H 8.93688 10.6847 0.9489 -0.83924 0.002419 -0.427726
H 5.61756 10.1012 10.9036 -0.633583 -0.991619 1.502764
H 6.14109 8.5839 0.59509 -0.352559 0.668063 -0.110053
H 10.2661 10.5327 5.53885 -0.554669 0.066832 0.88921
H 5.5485 1.50925 8.01646 0.117218 -0.00905 0.188744
H 10.9857 9.87191 10.9729 0.200072 0.024049 -0.626227
H 8.68807 0.63625 4.90138 -1.489999 -0.574242 0.692346
H 9.23191 10.4099 10.9615 1.470589 0.367133 -1.322105
H 9.38534 8.03162 3.14412 0.054666 -0.309527 -0.341851
H 8.07664 2.51983 6.26841 0.103929 -0.30385 0.464569
H 9.962 11.0396 2.64924 -1.568991 0.162434 -0.624904
H 10.4583 4.04748 8.33833 -0.554809 -0.046105 -0.008278
H 9.54117 3.36828 0.90748 -1.332822 -0.567975 0.779634
H 5.5714 5.12562 6.00283 -0.317821 -1.002478 0.032135
H 4.7536 6.91792 10.4183 -0.567386 0.155307 1.422879
H 9.18843 1.37134 12.0759 0.230692 0.069017 -0.592336
H 2.83987 4.12821 2.16927 0.047428 -1.271299 -0.919769
H 5.47829 6.67511 5.89557 0.728869 -0.124102 0.158198
H 7.78199 3.05669 4.87132 -0.333172 0.560306 0.880552
H 1.95918 7.83277 3.26494 -0.126183 -0.28598 0.073121
H 5.92792 5.51231 8.72489 -0.511351 0.2861 0.076843
H 2.18253 7.93533 8.19096 0.200681 -0.446701 -0.031648
H 5.41887 7.73274 9.25256 -0.789762 -1.72473 0.294005
H 9.87612 7.77035 8.04956 -0.700393 0.667454 -0.489457
H 2.16018 1.94805 8.65759 -0.001435 0.458679 0.180723
H 6.53103 5.97659 3.89857 -0.154275 -0.804587 -1.062363
H 10.2338 2.47359 10.2414 0.372636 0.027747 -0.606992
H 3.35689 10.6778 4.82586 0.325896 -0.000234 0.181002
H 10.0311 9.22155 3.84262 -0.283685 -2.09803 0.691396
H 3.58008 6.42717 0.36111 0.249325 -0.278343 0.680285
H 2.95589 0.1727 9.23032 -0.599286 -0.045834 -0.721012
H 5.22019 11.8769 9.98659 -0.511208 -0.870599 0.523264
H 8.84931 6.67499 10.2533 0.318567 0.041094 -0.101464
H 3.20467 8.74358 3.41262 0.422768 0.14053 0.617487
H 9.0003 3.46316 7.96733 1.098153 0.421145 0.557695
H 0.34162 3.41851 9.18182 0.532036 -0.407575 -0.339417
H 1.82199 2.75523 0.1338 -0.462529 -0.266906 -0.464213
H 7.51135 3.06636 1.79889 -0.324048 -0.02757 0.250119
H 6.85841 11.7186 9.51613 0.193667 -0.260332 0.088002
H 11.9071 9.94662 0.80186 -0.874645 -1.722355 -1.360529
H 0.252 6.57875 12.3099 -1.220789 -1.647983 -1.534633
H 8.71719 0.53944 0.94075 -0.235246 -0.324911 -0.195612
H 2.18729 0.77253 4.6855 0.147851 -0.239019 0.272045
H 5.46748 8.5895 7.11757 0.173825 0.016086 0.188274
H 3.62745 3.01753 1.46684 0.643417 -0.374257 -0.189761
H 2.34342 0.08809 6.10668 -0.627745 0.060948 1.091894
H 7.66749 5.85819 11.9878 0.242331 -0.879445 -0.42932
H 9.01997 2.27134 2.86371 -0.129137 0.173561 0.522979
H 7.37147 8.81488 8.10723 0.218943 0.086861 0.104908
O 5.77964 2.42288 0.11127 -3.26422 -0.572533 -0.257413
O 10.7312 10.2638 10.0994 0.633571 0.626062 0.462918
O 6.48012 8.95869 8.45957 -0.414326 -0.161761 0.350972
O 0.59118 9.61336 8.3642 -0.812679 -0.238267 0.579674
O 3.32784 6.75477 11.896 -1.422622 0.69731 -0.139371
O 5.23746 9.40991 11.5761 0.793207 0.48396 -1.151638
O 5.39927 1.28701 6.1852 -2.08585 0.425964 0.740841
O 9.70996 6.27367 9.96581 -0.395473 -1.689009 -1.44561
O 1.93108 2.35034 11.6368 1.297266 0.155431 0.651943
O 7.59165 4.91526 11.7021 2.098768 -0.515217 0.367013
O 6.57997 5.83202 2.88907 0.02734 2.192261 1.619363
O 10.2817 1.79076 10.9089 0.353119 -1.247758 0.693871
O 10.4688 10.9614 3.45769 2.065465 -0.032583 0.813193
O 6.45216 10.8551 3.63984 1.358525 0.246348 -1.163735
O 9.79268 8.21493 4.01378 0.63199 2.312135 -0.748474
O 4.7235 3.762 6.68467 0.114391 -0.207273 -0.564623
O 3.77554 4.21815 10.7988 -1.631791 0.425688 0.365913
O 2.91594 7.87367 3.08187 -0.518501 0.418424 -0.510543
O 9.78731 10.6094 6.40515 0.624604 -0.723183 -0.795824
O 11.1924 0.49692 7.50205 0.483322 0.451923 0.851684
O 11.4918 2.41002 5.15903 -0.769721 0.358522 -2.365157
O 9.722 5.95559 5.68851 0.404179 0.524421 -0.579254
O 8.5431 1.33234 0.40325 -0.627234 0.588287 0.792695
O 7.64594 3.26984 5.83067 0.294487 -0.51972 -1.322016
O 2.60556 9.79761 0.94463 -1.480489 -0.840872 -0.893828
O 1.29428 1.4669 3.58303 0.256488 1.138527 -1.370502
O 8.74855 11.3278 1.65465 -1.091755 -0.101736 0.569299
O 10.3299 3.71264 0.53384 1.615009 -0.165677 -1.138221
O 12.087 5.0896 5.23325 0.24301 -1.420604 0.113905
O 0.76872 7.23333 0.37214 0.378767 1.346646 2.812988
O 11.6576 5.56235 11.5535 -0.502044 0.159577 -0.581417
O 9.36546 8.10683 7.26344 0.639996 -0.577091 1.321144
O 2.75085 0.19108 5.26036 1.082643 -0.134315 -0.839051
O 4.88556 6.87174 9.48266 1.582456 1.955929 -1.861195
O 6.29757 4.62507 8.63523 0.828343 -0.2521 -0.895135
O 0.19217 6.97499 3.30628 0.116797 0.46286 -0.581493
O 8.49214 1.60802 7.91146 -0.422146 1.731079 -0.435081
O 1.94583 4.74314 6.82723 0.545815 0.930985 -0.23904
O 2.80032 7.21676 7.92947 -0.303266 0.730567 -0.437786
O 11.8463 3.66606 9.4518 -0.79204 0.102743 -0.13403
O 11.5454 9.22408 0.17016 1.122086 0.825357 1.829933
O 0.52275 11.6378 2.08873 0.447988 0.640079 0.37764
O 9.36242 7.86601 1.28901 -0.138109 0.709312 -0.617577
O 6.40848 11.0421 10.0459 0.564954 0.202196 -0.949471
O 3.96925 9.9591 4.5715 -0.004095 -0.767867 0.52505
O 2.72217 3.20455 1.70975 -0.819515 1.503166 1.019446
O 2.13688 0.32719 8.64263 0.595321 0.103704 1.08468
O 9.52459 4.3073 8.10844 0.125165 -1.068863 0.221664
O 4.90017 8.13243 6.46294 -2.029056 0.181885 0.197333
O 6.70322 8.56203 1.38683 0.743923 -1.116628 0.089048
O 1.93325 2.93498 8.74219 0.121066 0.567405 0.39053
O 5.95088 1.62069 8.90588 0.524788 0.44518 -0.404213
O 12.1392 0.12332 10.2316 0.68222 0.00775 1.237727
O 7.71416 7.73862 10.8748 0.093838 -0.616711 0.450378
O 8.47216 10.1547 11.459 0.156475 -1.090256 2.397312
O 3.74766 5.48967 2.47823 1.745374 -1.825152 -0.788347
O 7.72635 3.30559 2.71635 0.366086 -1.547933 -0.621441
O 3.67438 0.44731 0.36692 2.010703 -1.474202 0.660323
O 8.02417 0.15568 5.50547 1.789951 0.431492 -1.802517
O 4.34188 12.39425 10.1193 -0.443761 0.252127 0.562948
O 9.5794 1.65751 3.39406 -0.019141 0.469755 0.540361
O 6.09373 5.89943 5.76888 0.167436 1.144295 -0.53688
Na 7.96638 5.23385 6.97297 -0.197389 0.292719 -0.520589
Na 5.98223 3.90625 10.5887 -0.27545 -0.67794 0.541378
186
energy=-1003.33065454 config_type=nep2xyz pbc="T T T" virial="-21.076213964402864 -0.8600520561958692 2.827918563567655 -0.8600520561958692 -14.411274637117549 0.9779831481388217 2.827918563567655 0.9779831481388217 -14.85496210755156" Lattice="12.4 0.0 0.0 0.0 12.4 0.0 0.0 0.0 12.4" volume=1906.6240000000003 Properties=species:S:1:pos:R:3:force:R:3
H 0.66187 0.3153 8.42174 0.264085 -1.233656 0.431221
H 9.19472 11.1223 2.22969 -1.904944 -0.154813 0.195484
H 5.29129 6.38996 4.51509 -0.165669 -0.502194 1.528626
H 8.48133 11.0566 5.85787 0.667745 0.537772 -0.286879
H 10.7966 2.29543 3.93628 -0.387549 0.21524 0.575247
H 0.20844 6.27556 10.5277 1.092312 -0.655789 0.325979
H 7.89381 7.30713 8.58375 0.066998 0.634684 0.965446
H 0.12001 8.24132 9.32418 -0.291567 -0.011041 0.362974
H 8.78884 11.5051 9.66699 -0.340145 1.081306 -0.716847
H 2.10302 9.18759 7.09308 -0.691128 -0.064372 1.116374
H 4.06629 9.35658 12.1645 1.352637 0.410924 1.455011
H 3.30236 1.27426 7.13903 -0.219175 -0.440359 -0.995781
H 10.5424 8.15692 5.3364 -0.212348 -0.315956 1.348675
H 3.5072 3.45356 8.24813 -0.738155 -1.455703 0.24609
H 0.3865 10.4509 0.21442 0.510385 -0.550474 -0.082586
H 5.54774 7.02161 3.25554 -1.392569 -0.828093 -0.214373
H 2.95154 5.06755 6.76224 1.715025 -0.078503 1.35671
H 5.65228 6.31675 11.4016 -0.420594 1.629947 -0.649012
H 5.68891 10.4972 1.20807 0.57764 0.857831 -0.822689
H 5.53254 11.5199 10.3601 -0.224731 -0.692234 -1.165589
H 10.8344 3.57961 0.53597 0.133135 -0.275307 -0.225272
H 11.1238 11.1597 3.12301 -0.072894 -0.7909 -1.1737
H 7.61729 0.33107 3.29413 -0.166342 -0.145259 -0.63394
H 2.10873 10.6477 5.31042 -0.128874 -0.404609 -0.434964
H 3.35907 6.85604 4.26218 -0.681233 0.371248 0.308989
H 1.29357 5.52844 1.42715 -0.148344 0.346505 0.135385
H 6.50898 7.17623 10.389 -1.07235 0.586542 0.281327
H 2.11248 4.19437 0.99068 -1.52775 0.889865 -0.14129
H 9.75556 9.37307 10.938 -0.235007 -1.291127 0.21962
H 1.48721 4.26293 5.76365 -0.70029 0.29702 -0.059114
H 2.67627 8.46243 5.8279 -0.106299 0.072881 -0.099619
H 4.69987 4.51888 0.36164 -1.114205 -0.362555 0.703902
H 9.39008 0.88745 11.7747 -1.173721 0.131344 0.595924
H 4.81021 2.89157 9.38468 -0.963514 -0.142904 0.355686
H 5.98419 2.15342 6.40946 0.290249 -0.429151 0.477678
H 3.37831 2.44451 0.84184 -0.040695 -1.014675 -0.35878
H 10.1998 2.73441 6.14851 -0.623847 1.575447 0.410424
H 9.53443 6.1609 2.24444 0.081526 -1.027489 0.293409
H 3.84036 0.61691 11.9723 0.169126 -0.33321 -0.477495
H 1.16635 10.3287 8.84708 -0.085306 0.788919 0.386147
H 11.9703 6.2336 8.2342 -0.183631 -0.228542 -0.238761
H 10.2225 7.54413 2.62624 -0.167672 -0.193777 -0.091808
H 7.70356 9.36459 2.83386 0.095087 0.983893 0.077796
H 2.54137 6.18912 9.92856 1.007652 -0.397447 -0.234317
H 5.70462 7.36457 6.55825 -0.42062 0.402946 0.062217
H 4.92564 5.92712 6.61803 1.471784 0.487389 -0.51705
H 11.268 9.14251 3.15049 -0.374713 -0.315598 -0.094742
H 6.00706 9.23472 1.95413 -1.014967 0.249843 0.123535
H 3.38858 0.26074 1.03697 -0.467626 0.114185 -0.31364
H 9.13125 3.3108 8.55622 -0.112994 -1.036015 0.843411
H 5.24405 4.63746 3.21909 -0.721111 -0.039493 0.709732
H 0.45663 2.54046 4.62409 -0.055176 0.292211 -0.195127
H 3.90634 0.8771 5.69038 -0.193486 0.295347 0.547573
H 6.13355 3.49869 2.96311 0.296763 -0.532688 0.32114
H 1.8653 12.0703 5.51825 0.46267 0.708472 -0.053356
H 8.92966 7.28483 11.0364 1.185139 0.669506 -0.048274
H 1.70239 1.93368 5.36018 0.747109 -0.045167 0.123612
H 2.33305 2.9521 9.14229 -0.592604 -0.386145 0.493218
H 5.24159 3.72805 10.6801 -0.305903 0.195431 -0.051027
H 2.20824 9.27465 0.08673 0.927438 -0.436759 -1.543266
H 9.82826 11.9392 5.53289 -0.426031 -0.251592 0.014557
H 0.51863 5.51607 6.40477 1.889001 -0.944969 -0.203294
H 8.0055 3.84664 1.66081 -0.66831 -0.675616 -1.38935
H 0.69363 2.44073 10.5911 0.077108 0.040767 0.194617
H 8.85089 6.48585 5.57515 -1.74864 -1.020728 -0.156828
H 8.97959 4.92938 6.87095 0.16291 -0.667691 0.236295
H 9.37644 2.84655 9.99941 0.216145 0.336843 0.931976
H 7.56696 11.1546 8.97959 -1.044041 -0.015512 -0.322115
H 12.3816 11.7783 4.54815 1.088212 -0.195011 0.205898
H 5.85482 12.0608 11.6767 0.302946 0.113336 -0.278096
H 7.97514 7.89033 2.80511 0.27087 -0.394625 -0.103551
H 0.90853 3.95666 10.1396 -0.439424 1.559552 0.72016
H 11.2395 6.71665 6.99023 -0.314251 0.033357 -0.251571
H 9.63688 7.53343 0.0057 0.213173 -0.086229 0.851962
H 3.83772 8.32474 11.0843 -0.251844 1.819364 0.420629
H 3.95788 3.35809 1.99395 0.082811 -0.092482 0.45985
H 11.1888 1.69462 6.43615 0.196603 -0.417076 0.321767
H 6.0256 9.67273 9.87175 0.846746 0.531441 -1.96009
H 7.27087 5.86777 5.76572 -0.567035 1.134132 0.528424
H 10.5538 10.6083 11.4028 -0.210502 -0.498277 -0.517715
H 0.00058 12.1223 9.64832 0.086807 -0.452852 0.226968
H 1.17195 8.05033 1.77321 0.72527 1.34954 -0.987852
H 0.5729 2.07265 6.90736 0.542569 0.686349 -0.134239
H 11.5152 0.63222 4.1327 0.361683 0.453243 -0.351304
H 8.97348 4.61787 12.1946 0.043431 -0.83275 -0.955853
H 7.89983 2.80755 0.34566 0.310447 0.874603 0.656342
H 6.09398 1.39182 4.41242 -0.00317 -0.36278 0.826709
H 7.73034 11.2953 1.48883 -0.068973 0.033811 -0.601588
H 0.0719 1.61627 0.17533 -1.288254 1.500297 1.412944
H 2.58245 11.5061 3.39486 0.433027 -0.581817 -0.126798
H 5.10885 2.54608 4.49424 -0.234665 -0.035852 0.357096
H 0.11414 2.20509 8.45636 0.305001 0.267024 -0.70538
H 7.66053 8.97145 5.06295 -0.141798 -0.042506 -0.489214
H 6.11939 3.13167 7.59292 0.334335 -0.265772 0.258157
H 7.43351 8.74056 9.28521 0.371955 -0.692882 -0.408256
H 7.49428 10.8532 11.9194 -0.626022 0.793874 0.514585
H 8.12987 0.55071 4.62456 -0.10022 -0.018343 0.883805
H 12.2765 3.73752 1.16569 -0.30688 -0.239768 -0.53541
H 1.97523 6.32406 5.01023 1.227034 1.727076 -0.370447
H 7.97147 0.37845 0.10711 0.636982 0.206206 -0.971257
H 3.79675 5.23464 8.18482 -0.438866 0.462041 -0.911524
H 1.73238 7.39172 3.18831 -0.854554 0.203064 -0.79221
H 4.16009 6.39909 9.9005 1.096655 0.613018 1.099741
H 9.44829 8.36142 6.54031 1.076847 -0.21875 -0.487852
H 0.96395 5.32239 11.7141 -0.11264 0.311593 -0.371425
H 12.1198 7.80433 3.03848 -0.883778 0.316262 0.961417
H 6.9457 9.45771 6.33407 -0.264289 -0.220202 0.070531
H 9.9655 5.20569 11.1863 0.339923 0.326658 -0.349766
H 10.4123 4.93453 7.46172 0.155057 -0.160805 0.253771
H 11.398 2.5242 2.48196 0.395458 -0.052283 0.603827
H 2.09159 10.0357 1.38634 -0.112179 0.38958 0.511217
H 1.99 9.12941 9.42567 2.298342 -0.386105 2.245351
H 11.1546 7.81321 10.1974 1.728828 -0.526241 -0.938738
H 12.2454 11.8641 12.1792 0.184571 -0.037277 0.017786
H 1.42932 1.02183 12.199 -0.873357 -0.299997 -0.492419
H 5.6356 9.30151 7.78814 -0.01473 -0.392525 -0.174307
H 8.16287 2.89615 3.7683 -0.122247 -0.421393 0.622011
H 3.72202 10.7708 2.42935 0.918392 -0.484394 0.686114
H 4.30038 9.09453 6.95775 -0.677401 0.102283 -0.471902
H 6.21449 4.46392 0.06342 -0.550036 0.124671 -0.202066
H 11.3536 10.7235 1.52715 -0.084917 -0.011263 0.196649
H 8.01917 4.49495 4.15044 0.355532 -0.040479 0.677493
O 5.3112 12.3071 10.8442 -0.268244 0.998383 1.03287
O 8.1764 5.74145 5.42571 2.225741 0.162495 -0.298566
O 8.00052 3.79675 3.47599 -0.031754 0.384788 -1.548994
O 0.88613 5.54246 10.7443 -0.256661 0.399148 -0.173336
O 5.63036 7.20997 10.8907 1.165555 -2.115713 0.271919
O 3.54267 9.24959 11.3917 -0.46439 -2.340157 -1.87292
O 1.12552 2.7114 5.32617 -0.214313 -0.374279 -0.022943
O 11.2539 8.19991 3.49386 1.119264 -0.42383 -0.327067
O 11.6181 2.29233 3.44324 -0.003919 -0.09135 -0.800917
O 5.33174 4.78777 12.11 1.843623 -0.011082 -0.300247
O 2.48492 7.19237 4.6199 -0.428478 -2.057674 0.076257
O 8.54904 1.18801 12.1944 -0.058301 -0.247431 0.040437
O 11.4948 12.101 4.38089 -1.2815 -0.711178 0.096561
O 9.01037 2.50566 9.19084 -0.292774 0.76772 -1.693366
O 1.05256 7.36046 2.41012 0.18291 -1.81207 1.732275
O 1.47135 5.21771 6.03867 -1.224112 0.602158 0.181721
O 1.58978 9.45563 0.78334 -0.972444 0.313836 1.227049
O 7.82968 9.34173 5.94157 0.371671 0.244596 0.274166
O 10.435 1.87145 5.84351 -0.218052 -0.641461 -0.243937
O 11.5355 3.07785 0.99633 0.265127 0.576967 0.200137
O 3.10846 0.81209 6.27345 0.007018 0.5527 0.576673
O 3.391 6.17474 9.39938 -2.111004 -0.245802 -0.373999
O 0.45747 1.0674 11.9251 2.263646 -1.017455 -1.013046
O 0.06217 1.67343 7.62081 -0.608824 -0.508369 0.855808
O 3.20213 0.85155 0.26769 0.100955 -0.092604 0.580594
O 7.32238 8.52857 3.14898 -0.04028 -0.394026 0.037112
O 9.81274 7.51413 11.4601 -1.34496 -0.564272 -0.865394
O 7.71337 3.74074 0.68655 0.16453 -0.339725 1.295753
O 5.23969 3.6494 3.31838 0.064912 1.153337 -1.420537
O 11.9835 10.93 12.3381 -0.671228 0.721616 0.104624
O 3.15302 2.63152 8.73583 1.719008 1.272382 -1.648564
O 8.17773 11.1888 2.36963 1.863849 -0.216618 0.596989
O 5.23537 8.84933 6.95719 1.50953 0.570342 0.992428
O 6.98131 11.4875 0.08381 0.874984 -0.619688 0.377899
O 6.42496 2.24911 7.31991 -0.390187 0.514144 -0.617244
O 1.74816 11.4223 4.80285 -0.188838 -0.455622 0.846701
O 8.8736 11.9728 5.75704 -0.151217 -0.492891 0.193562
O 4.89 6.34661 3.62445 1.875027 1.43597 -1.085072
O 7.99727 7.81567 9.4248 -0.76648 0.027639 -0.661521
O 9.58355 4.39607 7.45096 -0.680966 0.235325 -0.755511
O 12.0041 7.49065 9.72282 -1.681419 0.652829 0.392407
O 2.73553 9.27403 6.38568 0.300142 0.177895 -1.232713
O 9.51296 7.08194 2.03669 -0.306297 1.176109 -0.360776
O 1.38132 9.38125 8.79414 -2.316182 -0.457283 -2.530823
O 3.8845 4.90836 7.22878 -1.436525 0.065605 -0.481483
O 2.92134 11.2872 2.48764 -0.905031 0.79393 -1.073917
O 10.3089 7.90758 6.29546 -0.889338 0.50084 -1.378458
O 9.53026 4.37692 11.4029 0.071061 0.437418 1.041425
O 5.75068 6.44378 6.20337 -1.053759 -1.411132 0.109353
O 3.29683 3.29899 1.28276 0.14244 1.156141 0.079026
O 0.88071 3.04604 9.85186 -0.385724 -1.567822 -0.684058
O 6.51976 9.89297 9.0052 -0.775263 -0.952778 2.161147
O 11.6616 5.8964 7.35481 0.720973 0.780574 0.414001
O 8.12681 11.973 9.06276 1.160031 -1.005535 1.205066
O 0.73258 11.9172 9.05152 -0.323585 1.379575 -0.677167
O 7.50967 0.99843 4.00259 0.937565 -0.119048 -0.8449
O 5.23557 9.79751 1.67961 0.148378 -0.945092 0.350445
O 5.54475 3.23038 9.90538 1.065376 0.117347 -0.06755
O 9.88364 10.2901 10.7451 0.251148 1.874816 0.114564
O 1.22283 4.76648 0.82855 1.452787 -1.059504 0.59236
O 10.9277 10.4563 2.38237 -0.037589 1.533626 0.911934
O 5.34182 1.72682 4.98649 -0.330209 0.102785 -0.330681
Na 6.8532 1.52247 10.0069 0.47942 -0.534247 -0.079582
Na 8.4139 1.1104 7.43286 0.242803 -0.145131 0.086528
186
energy=-1002.6493678 config_type=nep2xyz pbc="T T T" virial="-15.315714480694572 3.153936746702784 -4.462781463892051 3.153936746702784 -20.571109504511984 6.059539888293002 -4.462781463892051 6.059539888293002 -13.235700383971587" Lattice="12.4 0.0 0.0 0.0 12.4 0.0 0.0 0.0 12.4" volume=1906.6240000000003 Properties=species:S:1:pos:R:3:force:R:3
H 10.3965 1.12454 8.05155 -1.174817 -1.57477 1.103349
H 8.95846 8.70967 3.34447 0.452709 -0.561955 0.000532
H 5.83425 6.20297 4.89069 1.158287 0.87411 0.529711
H 9.01625 10.1492 5.18809 0.437299 0.612051 0.411248
H 10.3079 2.60602 3.07517 -0.455263 -0.115708 0.114879
H 0.88447 5.64769 10.2021 0.183622 0.076834 -0.02271
H 8.13697 7.59305 12.0134 0.307684 -1.243285 1.657038
H 0.75965 8.02208 9.27449 -0.831011 -0.248309 0.969577
H 11.2153 10.9558 10.6226 0.10762 -0.411748 0.300047
H 0.52226 9.40302 6.29463 1.035449 -0.077288 -0.732363
H 4.35856 11.5022 10.1104 -0.15488 1.313095 1.446091
H 3.24736 0.48717 6.02777 -0.374845 0.693296 -1.136942
H 10.6311 9.9303 6.48407 0.181792 -0.051942 0.56522
H 3.03268 2.38893 8.24857 -0.58564 0.35878 0.363439
H 0.1554 10.3075 12.255 0.158074 -0.250797 0.17861
H 5.29778 6.08493 3.3756 0.341745 -0.09041 0.973409
H 3.55572 6.5303 7.39384 -0.114221 -1.567975 -1.777139
H 5.26009 8.91349 11.6542 0.181793 -0.07858 0.354161
H 5.95403 9.57649 2.28691 -0.752079 -0.945077 -0.784411
H 6.0983 0.9357 11.6364 0.281954 0.634023 -0.098512
H 11.4278 3.41913 0.46039 1.130429 -0.51777 0.905425
H 0.76121 9.25678 1.59799 -0.08808 -0.90244 -1.644081
H 6.52145 10.9045 2.17329 0.270619 0.01474 0.395076
H 0.82381 9.94614 4.02539 0.640162 -0.226355 -0.886445
H 3.80187 5.06733 5.46556 0.531218 0.299695 -0.536588
H 1.97146 6.14646 0.69396 0.427625 0.06865 0.148955
H 7.01804 10.6909 9.65618 0.933387 -0.073879 -0.019917
H 2.5006 4.74893 1.1423 -0.436062 -0.148913 0.021653
H 9.89832 11.4578 2.06049 -0.231923 -0.106363 0.491516
H 0.16473 4.47894 5.05822 0.868489 0.822174 0.181664
H 1.68595 8.45712 5.90207 0.392708 -1.398872 0.195439
H 4.86964 5.33678 11.308 -0.305003 0.271358 -0.394788
H 6.29259 3.26025 11.5803 -0.816867 1.291232 0.015074
H 5.78746 0.04266 8.77909 -0.139123 -1.203485 0.62509
H 7.10634 2.1511 6.38722 -0.888111 -0.0298 -0.488242
H 3.90086 2.6028 1.02338 -0.146316 -2.241936 -0.449261
H 8.44149 5.50118 5.35874 0.053205 -0.464587 0.579341
H 7.60211 6.0537 1.67981 -0.172941 0.398087 -0.417424
H 4.25966 0.42834 0.39982 0.248162 0.125107 -0.499802
H 2.12762 9.88685 9.42538 0.87614 1.517696 1.140797
H 0.09612 6.8176 8.01423 -0.518955 0.211106 -1.019826
H 8.94678 6.76051 1.586 1.638932 2.336799 0.895871
H 5.60001 7.5329 1.52135 0.157651 -0.864074 -0.667212
H 3.27225 5.91334 10.0442 0.311276 0.324239 0.787984
H 5.58615 7.84413 7.8431 0.405372 0.394935 0.220678
H 6.73417 8.49564 8.75716 -0.422054 -0.423675 -1.081456
H 10.2061 9.20122 1.83093 0.533955 0.48232 -0.21069
H 4.31192 9.62132 1.05258 -0.310117 0.336357 0.037783
H 3.59772 0.12881 1.75181 -0.549261 0.844295 -0.814122
H 11.0505 3.55816 7.70262 -0.128783 0.475386 -0.351081
H 6.02727 4.17896 3.78221 0.205273 -0.381469 -0.483678
H 12.2764 2.12043 4.40304 0.860928 0.645594 0.842756
H 4.0327 1.5812 5.24989 -0.875707 -0.325748 0.284091
H 7.14247 3.23074 3.09519 -0.452283 0.429607 0.037998
H 1.89368 10.6473 3.10322 -0.51998 -0.359894 0.084108
H 9.6457 7.8252 11.0348 0.977949 0.609481 0.610978
H 1.33413 2.07166 5.23251 -1.309271 0.641886 -0.560774
H 3.60605 3.50086 7.27731 -0.196432 -0.244835 -0.084859
H 5.16598 1.34355 8.37802 1.321731 -0.198686 -0.77716
H 3.21368 7.2973 11.5454 0.387223 -0.391555 -0.460437
H 9.99069 11.3873 5.18339 -0.085268 -0.18702 -0.337871
H 0.19773 5.89664 5.82794 0.070094 -0.125786 0.168097
H 9.06102 4.09453 3.73819 -0.008323 -0.374714 0.510652
H 1.53014 1.71231 9.96093 -0.181883 0.733212 -0.019679
H 7.80938 7.39127 4.9433 -0.920572 -0.156379 1.127936
H 7.58761 4.41282 8.85082 -0.820864 -0.067683 0.487265
H 11.1627 5.19585 7.93439 -1.311292 -1.762899 -1.281028
H 10.6449 9.58353 9.98698 0.158498 2.784936 0.217921
H 11.5084 11.4714 3.11815 1.617748 -1.031586 -0.419472
H 6.20907 11.7907 11.9822 -0.621301 0.953792 -0.358415
H 5.66097 5.97425 0.95938 -0.462774 0.041651 -0.48753
H 1.49949 3.37905 9.76746 -0.020344 -2.439613 -0.817831
H 11.7232 7.62716 6.88197 0.622725 -0.829178 0.214962
H 10.9485 8.20508 11.9508 0.532232 0.648159 2.61716
H 4.91898 10.1289 9.80237 -0.725377 0.534513 -0.660073
H 4.22571 3.58989 2.08239 0.177946 0.171118 -0.022917
H 9.53225 4.77144 6.28796 -0.249195 -0.251065 -1.275362
H 8.62367 10.6099 9.40738 -0.315908 0.034144 0.4388
H 7.20534 7.35388 6.47768 0.252837 -0.563597 -1.024499
H 10.5975 11.1858 0.76307 0.727213 -0.192134 -0.87827
H 9.8838 12.34994 9.15803 0.612834 0.153409 -0.522482
H 0.3802 6.40514 2.26867 0.422922 -0.079789 -0.930339
H 12.1489 2.10174 6.6843 0.257517 0.353001 0.171528
H 10.8708 0.362 3.52418 -0.228017 0.703368 -0.28628
H 9.01359 4.6316 12.1687 0.260427 -0.857962 0.212216
H 8.97357 4.49947 2.28102 -0.12926 -1.308238 0.291704
H 5.80788 0.82058 5.32011 0.123829 1.180557 0.350217
H 7.44355 9.91207 12.10151 0.082767 -0.130983 0.106112
H 0.72624 1.69194 0.15339 0.148713 0.657536 0.564385
H 3.32553 12.2466 3.96294 0.281475 0.155687 0.769936
H 5.81513 2.29106 4.69633 0.325679 0.17401 -0.332752
H 0.10957 2.20384 8.25801 1.339054 -0.019877 0.658704
H 6.20753 10.8667 4.90707 -0.392177 0.570322 0.509161
H 8.16997 3.24853 6.26419 0.341021 0.523222 -0.49565
H 7.07745 8.09458 11.0976 -0.685718 0.494905 -0.517189
H 8.30596 11.1343 0.18041 -1.184051 -0.561289 0.065777
H 7.60136 9.30403 3.65729 -0.894146 0.470031 -0.32044
H 0.16211 4.04425 1.36896 0.025637 -1.151765 -0.649624
H 2.41416 5.38864 6.13698 2.075518 -0.863297 0.120264
H 7.77865 2.86944 11.7321 -0.279912 0.017492 -0.137739
H 3.79262 6.88457 8.88372 0.119316 1.131385 -0.488468
H 12.3878 6.38082 3.74197 -0.918034 1.030693 -2.134916
H 5.01075 7.84319 10.4904 0.323321 0.791742 0.051992
H 11.3787 9.85473 7.87824 -0.114605 0.434789 0.595131
H 1.55645 5.07657 11.4956 -0.099538 -0.243872 0.474579
H 10.9481 7.80715 2.48139 -0.13923 0.683085 -0.615196
H 5.24891 11.4188 6.0374 -2.532519 -0.995489 1.078909
H 9.1624 4.01369 10.8088 -0.196648 -0.354989 -0.132768
H 9.08169 4.41321 8.66186 1.681787 0.265732 -1.162636
H 11.5759 2.35275 2.27111 -0.437208 -0.656129 0.82677
H 3.7388 7.88492 0.54891 -0.814754 -0.144277 -0.850819
H 2.5601 8.56768 8.69694 0.908059 -0.445132 -0.42979
H 11.7316 7.38904 10.0304 0.912851 0.547363 -0.314585
H 0.2221 11.9113 12.0616 0.057725 0.066329 0.121259
H 2.01771 0.72588 12.35235 -0.633421 0.573401 0.677477
H 3.67646 10.8091 7.71221 0.563629 0.514508 -0.175833
H 5.15784 3.59559 8.35232 -0.051831 1.107566 0.715645
H 4.20211 10.8856 3.66299 -0.863558 1.237347 -0.321409
H 2.99684 10.2652 6.51119 -0.560542 -0.094807 -0.827578
H 4.48114 4.12532 12.2192 -0.5417 0.037134 0.512794
H 1.34289 8.20826 0.51212 0.871609 -0.024122 -0.269943
H 5.36265 5.09882 8.95634 -1.08104 1.15076 -0.054371
O 5.55592 0.13454 11.6966 0.055077 -1.339301 0.265389
O 7.32932 6.81129 5.6294 0.51435 1.101546 -0.033961
O 5.71537 4.23326 8.87808 1.318561 -1.995104 -0.496575
O 1.42175 4.90364 10.5512 -0.078334 -0.120352 -0.768694
O 5.57279 8.6568 10.7116 -0.891941 -0.554345 -0.477191
O 4.4628 10.9331 9.37091 1.017105 -2.081586 -0.378094
O 0.4361 2.53526 5.14622 0.380435 -1.492223 -0.43172
O 10.1349 8.28474 2.12193 -0.79828 -0.997717 0.47416
O 11.0418 1.95494 3.05339 1.02378 0.621785 -0.580888
O 5.19703 4.71686 11.9875 1.039957 0.397131 -0.054465
O 3.41005 5.1624 6.33883 -2.9324 0.093124 0.152537
O 6.90459 2.56103 11.3918 1.067844 -1.583618 -0.177823
O 10.7298 11.7948 3.53372 -1.097942 0.452562 0.966376
O 10.5662 4.43859 7.57285 1.243388 1.5925 1.422473
O 12.0983 6.81524 2.79652 0.829459 -1.496486 3.508294
O 0.62957 5.35877 5.10956 -0.505355 -0.630232 -0.6276
O 2.92878 7.49967 0.06393 0.039252 0.267823 1.496967
O 6.07849 11.5226 5.63114 2.81245 0.176999 -1.697479
O 8.98202 4.67252 5.43813 0.209431 0.519026 0.726649
O 12.2033 3.15803 1.05635 -1.114776 1.675653 -0.786693
O 3.14419 1.09701 5.23352 0.589075 -0.620295 0.891596
O 3.95298 6.58246 10.2866 -0.169945 -1.107309 -0.441545
O 1.06847 0.90982 12.1211 0.657305 -0.953008 -1.139735
O 11.8073 2.16234 7.61243 -1.727898 -0.372394 -0.746213
O 3.48453 0.71706 0.93706 0.597704 -1.144983 0.978849
O 5.99544 6.60654 1.61675 -0.333046 0.687897 1.033463
O 10.6311 7.95576 11.1213 -1.289955 -1.068774 -3.42894
O 8.95022 3.66134 2.86202 0.118118 1.786198 -0.499253
O 6.17354 3.33293 3.27036 -0.024517 0.098152 0.547674
O 12.0431 11.1117 12.0188 -0.285557 0.280515 -0.06313
O 3.82502 2.68579 7.78202 0.598629 -0.014715 -0.379728
O 8.28731 8.76877 4.06594 0.811998 0.096937 0.305368
O 3.61841 10.9678 6.74438 -0.046258 -0.0601 0.827269
O 7.35901 10.8403 12.38462 1.367631 0.421538 0.254226
O 7.99747 2.38666 6.6584 0.651922 -0.52628 0.938722
O 1.03486 10.1493 3.07348 -0.084348 0.551273 0.584957
O 9.43205 10.8502 5.7786 -0.601741 -0.787458 -0.446128
O 5.26843 5.714 4.30102 -1.314586 -1.030847 -1.794759
O 7.99826 8.26931 11.3783 0.357 0.574399 -0.730828
O 8.42029 4.16677 9.28662 -0.747797 -0.239197 0.483502
O 0.1423 7.2308 9.4558 0.257559 -0.425545 0.235328
O 1.35763 9.31818 5.71441 -1.505287 1.587955 0.681209
O 8.50911 5.99477 1.30551 -0.897695 -2.551091 -0.714524
O 1.83438 9.13331 8.9746 -1.581562 -1.303596 -1.081354
O 3.625 7.29555 7.92501 0.557092 1.574654 1.992191
O 3.50077 11.5145 3.34075 0.521053 -1.130946 -0.594479
O 11.3221 9.43961 7.01791 0.034588 -0.290222 -0.883193
O 9.27507 3.76958 11.7528 0.125381 1.336388 0.517083
O 6.51403 8.19735 7.83998 -0.351358 -0.092885 0.640306
O 3.64669 3.45609 1.31597 -0.133333 1.64547 0.944428
O 1.51327 2.4127 9.27309 0.029075 1.90544 1.348203
O 7.7582 10.8772 9.04681 -0.487042 -0.080855 0.028745
O 12.2676 6.79632 7.00488 -0.579588 0.990629 0.842296
O 10.6715 10.6244 9.86285 -0.567143 -2.675058 -0.582327
O 9.63156 0.50772 8.40091 0.598329 1.526253 -0.6979
O 6.32316 10.2502 2.87228 0.311857 0.906585 0.286521
O 5.0186 9.03051 0.79139 0.389576 -0.672002 0.353907
O 6.02717 0.82774 8.30175 -1.446468 1.11717 -0.083422
O 9.81729 10.9095 1.25873 -0.524132 0.042807 -0.181549
O 1.6692 5.25482 0.99129 -0.003102 0.285195 -0.213806
O 0.65559 8.86881 0.64123 -0.899615 1.372176 1.861066
O 5.67579 1.8025 5.53858 -0.217129 -1.243288 -0.719757
Na 7.79298 1.95493 8.89271 0.295823 0.424161 0.400751
Na 7.78577 11.9163 7.12073 0.372916 0.17789 -0.230009
186
energy=-1003.07025458 config_type=nep2xyz pbc="T T T" virial="-13.473954510287413 1.8020132653527214 -4.787550124862295 1.8020132653527214 -15.487636830371649 1.2809744228067848 -4.787550124862295 1.2809744228067848 -20.715946973738795" Lattice="12.4 0.0 0.0 0.0 12.4 0.0 0.0 0.0 12.4" volume=1906.6240000000003 Properties=species:S:1:pos:R:3:force:R:3
H 10.6121 0.93097 10.8902 -0.233382 -0.365025 -0.537716
H 9.8912 8.74463 0.72876 0.411685 0.016653 1.42119
H 5.83462 4.99723 4.95578 -0.438571 -0.395674 -0.469527
H 5.37013 11.2133 4.25645 -1.179176 0.57166 0.171548
H 11.7108 2.45702 3.68186 -0.047555 0.076009 0.128835
H 1.50644 6.64385 3.49671 -0.563989 0.094705 0.195757
H 1.86496 6.28799 8.91465 -0.295239 -0.387424 0.967327
H 11.7764 6.68893 4.90332 2.069715 0.72681 -2.814129
H 9.04572 4.59432 3.92677 0.038849 0.108897 -0.276751
H 8.62112 1.97663 0.0954 0.301616 0.445832 -0.263728
H 5.87923 7.01513 10.1523 -0.277611 0.457729 -0.699799
H 2.88939 3.11455 7.5221 0.026451 -0.232023 -0.084195
H 12.3109 8.55846 7.34324 -0.265297 -0.445696 0.20131
H 0.50485 7.85649 3.11555 -0.07867 -0.021381 0.599054
H 9.18646 0.5247 0.76946 1.054138 -0.047495 -1.32634
H 3.64148 11.6572 12.3774 -0.315746 0.583452 0.541141
H 7.68123 8.93957 2.47657 -0.391942 -1.154066 -0.094779
H 2.95417 8.49949 1.81786 -0.471107 -0.552921 -0.930814
H 4.75229 2.4211 4.04203 0.254203 -0.07943 0.567727
H 4.65333 9.48163 9.50491 -0.18145 -0.080757 -0.109644
H 9.73541 8.40351 9.83393 0.342942 -0.941948 1.903214
H 3.3278 6.57532 4.05096 0.389326 0.320501 1.110673
H 7.24478 6.36727 1.95602 0.181227 -0.584451 0.240252
H 0.9584 9.78969 2.7465 0.970259 0.928536 -1.121005
H 7.29269 4.84597 5.41519 0.376719 0.040808 -0.255187
H 0.14879 6.04157 2.36799 -0.565916 -0.453703 -0.729731
H 7.87262 11.0921 8.19673 0.084273 0.179375 0.215848
H 2.19078 2.40859 2.06376 -0.36776 -1.031692 0.174251
H 4.90199 3.23018 0.0006 0.703388 -1.03702 -0.595047
H 0.71437 3.20346 3.76478 -0.684584 -0.517654 0.168383
H 11.7162 9.20421 2.40046 1.616816 0.866901 0.578356
H 7.23156 4.09831 0.15131 0.202589 0.346044 0.704924
H 3.14763 3.29382 11.2624 -1.007254 -0.626309 -0.326011
H 6.25482 1.55057 8.32718 0.426095 -0.021042 -0.16892
H 8.20469 1.28812 6.79317 -0.315992 -0.217001 -0.479756
H 5.57712 7.22647 5.46154 -0.359351 0.850675 -0.030617
H 9.40997 7.3955 5.54009 0.054645 -0.04839 -0.299075
H 10.5267 4.49602 11.4112 -1.495231 1.592354 0.024679
H 5.75408 4.47057 2.57673 -0.424393 0.580926 -0.282038
H 2.42888 12.3112 9.18303 -0.999908 -0.13921 0.940448
H 5.53891 1.03098 11.8353 0.078837 -0.665253 0.373525
H 9.00421 4.47725 11.524 -0.034171 0.582817 -0.041555
H 6.67663 10.8348 2.39258 0.153896 -0.543771 -0.459585
H 10.4878 5.20821 2.0934 -0.794531 0.10011 -0.243492
H 2.91484 11.5895 7.13579 0.016629 0.21572 0.083887
H 2.94274 11.7982 5.54177 0.450211 -0.559674 0.057688
H 9.02818 11.8644 2.85286 0.478214 0.098679 -0.127446
H 6.39105 5.95384 0.8103 -0.190185 -0.316039 0.413214
H 4.228 4.91532 2.98527 -0.124077 1.239963 0.22024
H 11.5602 3.54463 0.65284 0.368091 0.95005 1.488068
H 9.97307 3.43477 9.11744 1.244887 0.204081 1.828034
H 11.8181 3.86179 8.37872 0.428663 0.330965 -1.133088
H 10.0221 6.87088 11.4205 0.316704 1.283087 -0.030924
H 10.0874 3.632 7.56073 -1.334038 -0.419043 1.455338
H 1.6535 11.8762 11.245 -0.094233 0.985208 -1.856122
H 11.2859 4.98211 6.0413 -0.125764 -0.81486 0.279749
H 0.31459 4.54845 9.53035 -1.063784 -0.186758 -0.863046
H 3.48219 8.13424 5.64722 -0.138117 0.362232 0.118215
H 6.8846 2.79299 11.8382 0.399294 -0.245417 -0.292459
H 12.3664 5.98375 0.77097 0.033776 -0.02617 -0.023512
H 4.45921 0.10899 4.01504 0.169691 -0.816351 0.139313
H 1.16366 4.37404 2.12642 -0.328591 -0.244875 -0.155086
H 7.96578 2.43091 4.69565 0.847908 1.095125 -0.253655
H 3.08076 7.20395 7.39153 0.26118 -0.124898 -0.055464
H 6.99674 10.7266 5.73931 -0.501928 0.109915 -0.069426
H 8.78847 0.4851 4.12102 -0.284178 0.912677 0.070868
H 10.7679 2.37849 0.017 -0.755034 -0.094828 -0.027324
H 9.53301 4.18479 5.36017 0.621657 -0.177913 0.180633
H 0.26786 9.63938 4.879 -0.019696 -0.300993 -1.359899
H 4.26757 11.0281 9.20861 0.135417 -0.845031 0.604613
H 7.80672 10.8876 1.39774 1.914742 1.119388 -0.414099
H 11.1293 8.06322 11.5026 -0.639602 -0.783939 -0.045073
H 0.32957 12.1643 10.3597 -0.17255 0.002594 -0.374966
H 11.6967 3.51825 5.69298 1.176714 -1.593226 -1.530081
H 6.23374 5.93067 9.15598 -0.293697 1.356982 -1.082612
H 5.46324 8.55146 4.61842 -0.096631 -0.330231 0.736235
H 9.38982 8.9286 5.46451 0.541634 1.06731 0.032564
H 6.2681 10.9267 8.42593 1.439091 -0.686787 -0.693468
H 7.62665 11.3828 4.52203 2.000824 1.09269 -1.199085
H 5.50434 1.64842 10.3993 0.410599 0.802863 1.278112
H 10.5299 0.09581 9.55253 0.355181 0.105943 0.139111
H 10.147 1.95339 1.69504 -0.4587 0.374287 1.505094
H 9.20426 12.2545 8.07502 -0.750997 1.440276 -0.20538
H 11.1456 10.4628 5.64241 0.288063 -0.012014 -0.021473
H 7.65388 4.25533 8.42591 -0.290303 -0.044067 -0.08927
H 6.76883 1.61805 5.0802 0.040496 -0.469885 -0.176041
H 3.77189 4.36536 7.61319 -0.588165 -0.264662 0.969924
H 4.16978 6.6045 8.47652 -0.121557 0.387843 -0.103532
H 4.09048 3.81475 1.17435 0.558908 0.329606 -0.67951
H 0.8532 6.84259 11.1042 0.195585 -0.936833 -2.127574
H 5.02293 2.5399 8.45215 -0.095431 -0.023207 -0.014372
H 9.80075 11.0141 7.38136 0.089098 0.655634 1.2693
H 5.1621 11.0889 11.3777 0.135116 -0.440465 -1.097682
H 8.78558 1.99121 8.03814 -0.77186 -0.871893 -0.017732
H 3.09547 6.99316 2.15477 -0.708154 0.033612 -0.948458
H 4.6278 5.81043 0.0618 -0.121187 0.226074 -0.05958
H 9.39432 8.5532 2.25734 0.782832 0.318658 -0.955571
H 9.39555 9.59981 8.99239 -0.000434 0.400809 -0.23257
H 1.89137 8.48825 5.94101 0.259795 0.252275 -0.20639
H 2.88353 3.31858 9.77277 -0.370589 -0.196156 -0.156331
H 8.06728 8.13019 3.76785 0.086178 -0.535377 -0.649642
H 9.64827 3.30634 2.25553 0.53022 -0.847486 0.772492
H 4.53857 7.3453 0.4867 -0.083596 -0.908028 -0.393951
H 11.0199 8.20867 8.21679 1.063281 -0.733846 -0.627812
H 1.38966 1.13037 2.43378 -2.413058 -0.658739 1.662267
H 9.7511 11.0104 1.18394 0.134763 0.152885 0.119843
H 5.79472 11.0741 0.36121 0.804616 -0.572395 0.957
H 6.39516 4.45617 7.41055 1.001256 0.475426 2.180181
H 9.81372 11.1533 4.94129 0.31678 -0.301534 0.279559
H 1.77326 2.32543 5.36506 0.278523 -0.409722 0.47727
H 2.48762 0.14834 0.76781 0.537718 0.367015 -0.312639
H 3.82415 0.52075 8.71284 -0.50192 -0.925461 -0.136096
H 11.4592 6.97769 6.35537 0.072097 -0.089938 0.503456
H 1.26626 7.49863 12.359 -0.581154 0.249201 0.260328
H 0.39655 6.67756 8.78989 0.426437 -0.515381 1.330925
H 2.23059 1.12346 6.26784 -0.11944 0.008921 -0.092113
H 0.93144 10.5083 5.99274 0.515188 0.0752 0.042173
H 2.59838 10.9577 1.70668 0.101037 -1.242868 1.329704
H 4.11206 1.89397 5.39984 1.16062 0.044636 -1.067204
H 9.04906 5.41021 1.42846 0.035744 -0.132346 0.253532
H 2.31637 4.57942 3.08141 0.134265 0.032654 0.263851
H 3.21409 10.7983 3.23267 -0.606366 -0.487636 -1.228745
O 4.94898 10.388 9.62769 -0.185258 0.987672 -0.197782
O 6.83238 10.9535 4.80389 -1.979743 -1.631899 1.319472
O 0.38153 9.71859 5.82623 -0.001627 0.053579 1.044207
O 0.53674 6.9441 3.54794 0.880562 -0.822301 -0.414384
O 2.84166 7.62513 1.34161 0.912998 0.906629 1.452706
O 5.93234 6.92669 9.16557 0.640418 -1.65393 1.587488
O 11.9671 3.90216 9.31344 0.971553 -0.093053 1.784355
O 9.17265 11.738 1.44808 -0.572749 0.817467 -0.473615
O 0.06824 2.6208 4.28619 0.457284 0.426299 -0.192892
O 6.96218 5.52652 1.51364 -0.115807 1.297334 -0.444756
O 2.66687 7.94875 6.15648 -0.485161 -0.097651 -0.177958
O 2.51655 2.90598 10.5837 1.237407 0.931775 0.699216
O 10.1843 10.5409 5.67648 -1.085053 0.279435 0.06255
O 11.4583 3.06221 12.2566 0.432385 -0.671537 -1.658692
O 10.0513 2.4372 2.57923 0.051363 0.27087 -1.798979
O 1.74167 3.84339 2.72937 0.302539 0.919321 -0.259938
O 12.2667 5.41773 1.56652 0.215276 0.463972 0.761815
O 5.27052 11.6142 12.1736 -0.641935 0.729509 -0.162895
O 8.82466 8.1548 5.37573 -0.697273 -0.911033 0.472988
O 9.39506 8.62993 8.97169 -0.131319 0.680059 -1.633065
O 3.45066 3.59969 8.15544 0.622222 0.590225 -1.05565
O 9.50469 5.06771 2.21662 1.120912 0.004101 0.068326
O 4.34048 3.9625 0.22389 -1.336295 0.726051 0.834229
O 9.59766 11.4076 8.31863 0.979301 -1.971675 -1.37884
O 4.86968 4.19056 2.88065 0.664901 -1.79917 0.463001
O 7.05287 10.3376 1.63187 -2.321299 -0.545231 1.053535
O 11.1565 3.98455 6.30054 -1.347294 1.971959 1.619292
O 7.74353 1.54252 4.96358 -0.996129 0.033805 0.814305
O 9.42818 3.42964 8.36136 -0.041714 0.347785 -3.565268
O 0.45623 7.29544 11.8296 0.423808 0.798864 2.243916
O 3.31326 6.47596 8.02905 0.028318 -0.681646 0.554901
O 10.0938 9.01587 1.68099 -0.371161 -0.653441 -0.703377
O 2.46445 2.03927 6.00994 -0.434221 0.157714 -0.203076
O 5.07416 6.67891 12.3761 0.122851 0.362719 -0.038474
O 8.24386 1.1558 7.75763 0.720491 1.312161 0.38174
O 0.16513 9.31609 2.9896 -2.95328 -1.032235 0.24912
O 4.40707 11.5146 4.03081 0.918567 0.623987 0.225679
O 6.41678 5.19396 5.6903 -0.11588 0.323184 0.557444
O 1.00096 6.19723 9.45119 0.310242 0.686102 -2.127193
O 8.94949 11.9764 3.88247 0.617563 -1.332036 0.183026
O 11.2595 6.38169 5.60196 -2.145218 -0.321089 2.334136
O 9.41835 1.42231 0.01888 0.045976 -1.756881 1.42452
O 9.71695 5.14914 11.3899 1.477386 -2.119147 0.086084
O 3.23555 12.1048 8.69339 2.223666 1.155244 -0.775325
O 7.90088 7.99545 2.78823 -0.106025 1.599286 0.755118
O 2.57602 10.3673 2.54805 0.452871 1.233714 -0.408024
O 11.8567 7.80169 7.78761 -1.090351 1.347673 0.23007
O 6.70178 4.49766 8.40787 -0.553797 -0.3502 -2.010784
O 2.39526 11.5595 6.30552 -0.689544 0.32819 -0.588987
O 5.1379 8.11999 5.44098 1.022774 -0.659664 -0.829052
O 10.1604 7.88357 11.3747 0.461239 -0.726406 0.176216
O 7.06701 10.6788 7.85202 -1.658738 -0.283606 0.278228
O 1.29752 12.2465 10.3201 0.201536 -0.750614 2.346874
O 8.77032 4.19437 4.77058 -0.873388 0.075835 0.012698
O 11.1268 0.66607 10.0834 -0.584897 0.097987 0.707299
O 4.93907 1.81748 4.80262 -1.396274 0.329072 0.209281
O 2.67137 11.7907 0.16365 -0.5627 -0.440483 0.141174
O 7.65594 3.30926 12.2001 -0.519274 0.363405 -0.389986
O 5.69634 1.86782 11.3863 -0.625136 -0.212982 -1.747492
O 2.12815 1.40775 1.96988 2.731807 1.114917 -1.863057
O 3.09219 6.05058 3.30184 -0.422193 -0.584765 -0.822574
O 5.35335 1.64626 8.66576 -0.391768 -0.264715 0.35866
Na 0.42435 2.12392 10.6454 0.137843 0.257231 -0.129691
Na 7.48066 8.35199 7.8845 -0.317105 -0.092711 -0.147137
186
energy=-1003.78892566 config_type=nep2xyz pbc="T T T" virial="-10.182832130091356 2.5431703125070126 -5.008477543825051 2.5431703125070126 -10.921966141359642 -3.885966331947868 -5.008477543825051 -3.885966331947868 -17.22187839354323" Lattice="12.4 0.0 0.0 0.0 12.4 0.0 0.0 0.0 12.4" volume=1906.6240000000003 Properties=species:S:1:pos:R:3:force:R:3
H 10.7732 10.8989 10.2873 -0.16811 0.130209 0.639588
H 10.9782 10.6035 4.20382 0.690888 0.365569 -0.327495
H 5.58146 6.1427 5.46927 1.513337 -0.74802 1.086536
H 7.73123 0.22972 3.82028 0.738499 -0.930032 -1.141199
H 11.9354 1.15588 3.17462 1.305856 -0.906728 0.105026
H 1.93119 7.45141 4.57031 -0.713001 1.717733 -0.552292
H 2.61918 3.01971 0.0481 -0.231231 0.04146 -0.914005
H 0.84863 8.8013 11.279 0.035121 -0.229362 -0.175007
H 9.50742 10.3988 5.84175 0.330211 -0.070443 -0.812541
H 10.9981 11.1264 0.23572 -0.168092 0.126952 -0.326133
H 4.55334 8.09371 10.5684 0.582006 -0.421702 0.381096
H 1.83089 1.92088 5.86927 0.522469 0.215324 -0.03585
H 12.36124 10.1623 8.04533 -0.784438 -0.842778 0.862883
H 1.65039 6.32834 5.6973 0.459903 0.042415 -1.029599
H 0.70929 8.71687 2.36755 0.886112 0.175501 1.051675
H 6.20847 7.46587 3.82801 1.415822 -0.566992 -1.479466
H 5.03421 8.45109 5.67721 -0.133271 -0.596877 0.07797
H 3.4799 5.47416 0.84839 -0.241281 0.511882 0.639066
H 7.81216 12.2715 1.9114 0.129943 -2.138023 0.425119
H 5.42687 10.1921 11.2205 -0.46522 -0.241836 -0.173881
H 0.57221 1.3173 7.17834 -0.212707 -0.077667 0.776034
H 2.95745 4.48696 2.5866 -0.703739 1.00111 0.843748
H 7.34312 10.7756 2.50549 -2.032222 -0.728277 -0.377073
H 2.34834 10.0948 0.0295 -1.299852 0.587944 -0.914463
H 4.20338 6.6645 5.11238 0.400345 0.311121 -0.787838
H 10.9597 7.11833 0.44781 0.44797 -0.411872 0.08829
H 7.36927 11.3752 10.7091 -0.23318 0.222165 -0.062539
H 0.86204 4.6168 1.78844 -0.183584 0.194072 -0.555522
H 2.71598 1.10712 0.86492 -0.21727 -0.028877 0.482393
H 9.79918 5.96393 6.41053 -0.071076 0.464779 0.04458
H 0.0142 10.6416 0.62823 -0.742901 0.354558 0.208254
H 7.12241 2.55318 10.6615 -0.453266 -0.875133 0.4257
H 1.12592 1.8848 11.1533 0.309217 1.061434 0.422903
H 4.30528 2.44233 8.88337 -0.165384 0.117282 -0.133932
H 7.18695 2.51928 7.0063 -0.0593 -0.167363 0.077305
H 5.37274 3.34664 3.07458 -0.639093 -0.018406 -0.084911
H 11.9148 8.73872 9.64541 -0.319461 0.65975 0.168439
H 6.83093 4.29647 9.30859 -0.101291 1.459089 0.268517
H 3.66388 2.75577 2.12051 0.010821 -0.44368 0.196154
H 3.95393 0.43828 10.614 0.492616 0.272445 0.804833
H 1.55525 0.24819 10.3043 -2.155185 1.039255 0.754987
H 7.82091 5.32014 9.9866 -0.223136 0.263241 0.042956
H 11.029 9.23099 1.4512 -0.02067 -0.7912 0.867158
H 8.54406 2.68489 11.1904 0.188526 -0.375207 0.277759
H 5.1012 10.7553 5.63034 0.084748 -0.266334 0.436499
H 6.06551 11.9211 5.26056 0.541985 0.703042 -0.85835
H 8.37124 5.04738 12.1917 -0.025089 0.16262 -0.459767
H 6.87129 4.45078 1.69064 -0.018608 -0.016318 0.40542
H 3.1968 2.4568 3.63586 -0.34291 -0.922222 0.511905
H 9.6898 12.1336 6.97366 -0.215591 -0.187376 -0.389291
H 7.32991 4.15209 5.77128 0.47568 1.064172 0.465157
H 11.695 4.66271 6.89822 2.127003 0.765608 -0.308604
H 8.8879 2.84774 8.64048 -0.555612 -0.454354 -0.564591
H 8.31349 2.90199 5.25905 -0.252998 0.754602 0.335351
H 1.66518 10.8195 11.1075 0.510235 -0.06477 0.093925
H 8.81119 7.80912 7.78774 0.790193 1.796017 1.014325
H 10.5362 4.389 7.77332 -0.708414 -0.39787 0.474785
H 1.57435 5.49672 7.74248 -0.977521 -0.006013 -1.045767
H 5.19045 3.50688 10.4523 0.674668 -0.697621 -0.731793
H 11.7495 5.73052 0.46686 -0.292539 0.39276 -0.561636
H 6.66313 1.3669 3.74574 0.570802 -0.746848 0.917705
H 9.39307 7.15344 5.36128 -0.203904 -0.080566 0.942084
H 11.4925 3.32079 2.24024 -0.07818 0.137341 -0.172538
H 1.56063 7.0753 9.56553 0.370224 -0.434437 -0.279771
H 5.78864 9.40604 7.644 0.130104 0.522049 0.202732
H 7.52559 1.84479 0.45085 0.034632 -0.326513 -0.553997
H 9.95477 1.27965 6.56394 -0.183015 0.350324 -0.990741
H 9.29059 10.056 7.38536 -0.631927 0.149676 -1.007149
H 0.48516 11.5182 4.53496 -0.032136 1.143006 -0.028748
H 5.48143 11.7215 11.5853 -0.153009 0.40977 -0.105708
H 10.4394 8.17332 2.59822 0.666092 0.192088 -0.648171
H 9.34656 3.78231 9.74111 -0.327461 1.211273 1.374631
H 2.54461 0.34119 9.13666 -0.26938 -0.521304 1.465197
H 7.90477 8.925 8.28054 -1.007606 0.787342 0.653497
H 3.94429 9.10432 9.63818 0.382696 0.585904 1.222505
H 6.66462 3.55135 3.88234 0.444298 -0.109653 0.434266
H 10.4433 9.08721 9.0061 1.595284 0.590837 0.34711
H 7.80061 0.4587 10.4268 0.413293 -0.348328 0.178335
H 5.67896 9.93062 9.14377 0.644594 -0.545461 -0.496424
H 2.86618 11.95 1.25617 -1.814915 1.446503 -0.10384
H 9.34103 11.4987 10.7239 1.712582 0.594101 0.116804
H 9.6179 8.91502 4.15221 -0.055874 -0.588121 0.001985
H 10.4087 3.24962 6.06136 0.005668 0.055699 -0.878782
H 0.3943 10.4102 5.76709 0.332573 0.723806 0.130842
H 6.82711 5.56292 7.49887 0.454078 0.350343 -1.230286
H 10.1652 2.39591 2.2477 1.405682 0.930249 1.097241
H 2.2219 2.31765 7.32278 0.282379 0.02506 -0.262093
H 3.02143 6.59753 9.46857 1.364447 -0.323059 0.591357
H 4.12693 1.92718 12.3569 -0.426118 0.471944 0.580773
H 2.85876 9.81267 2.08489 -0.568395 -0.777872 0.896798
H 4.24004 1.22962 7.96525 -0.719778 0.750918 -0.192744
H 10.6184 2.66751 4.49732 -1.171124 0.06872 1.812698
H 6.40258 8.91955 2.27009 0.394217 -1.399555 0.497535
H 6.64717 2.2614 8.54175 0.821348 0.153992 -1.134666
H 3.92467 4.16742 0.18145 0.766136 0.780282 0.368695
H 5.48018 6.09857 10.0521 1.047557 -0.301095 -0.525348
H 9.43056 10.9135 3.80119 -0.876255 1.337072 -1.758173
H 11.5774 0.61596 7.50215 -0.201412 -0.128275 -0.244072
H 1.24665 4.17803 6.94387 -0.071523 1.013867 -0.697014
H 0.57444 0.7324 12.0227 0.24129 -0.236929 0.705533
H 4.0297 9.15628 6.71319 -0.744646 -0.379661 0.465814
H 8.58005 7.77832 3.57762 0.763198 0.138563 0.694011
H 4.48373 5.99037 11.263 0.137857 0.5335 -0.678566
H 0.62084 11.4928 7.60107 0.192192 -1.264928 -0.015779
H 0.54133 3.89462 0.44023 0.571227 -0.170192 -0.381584
H 9.76329 5.62774 11.6139 -1.108364 -0.970815 -0.241068
H 6.23193 9.69852 0.97125 0.734549 0.486282 -2.19557
H 7.83315 6.11488 6.3311 -0.467698 0.041225 0.439251
H 7.20245 1.89092 1.95848 -0.572419 0.917182 0.628314
H 0.63888 0.33571 2.37283 0.350597 -0.023181 -0.173543
H 6.77157 6.73309 2.50125 0.125372 0.058716 0.074387
H 5.06938 1.54688 10.5024 0.65364 0.430397 -0.023264
H 12.335 7.45144 11.3193 -0.240664 -0.445615 0.501404
H 1.00253 9.52711 3.67855 0.133442 0.118293 -0.111001
H 2.00431 4.34376 11.4516 0.046036 -0.345446 0.019842
H 1.88962 0.63471 4.19781 0.397253 0.395634 -0.081925
H 2.26161 9.83188 7.85699 -0.323238 0.112745 0.079891
H 4.24837 10.0009 1.2938 -0.319649 -0.056267 0.638239
H 3.34327 0.15072 4.56799 -0.52374 1.130025 0.486838
H 5.98023 5.15379 0.74251 -2.329076 0.253345 -0.876336
H 2.1867 5.8338 3.24062 0.823543 -1.130817 -0.99389
H 2.48285 8.36232 8.27275 0.570453 0.133048 -0.303983
O 5.93562 10.868 11.6978 1.054537 -0.268291 0.301298
O 6.30107 9.84723 8.38075 -0.508003 0.046367 0.180873
O 2.97974 9.18017 8.01938 -0.250847 -0.490789 0.357368
O 2.17305 6.60287 4.88482 0.465039 -1.745927 1.244992
O 4.18832 5.14678 0.27516 -0.218633 -1.259026 -0.801727
O 4.45403 9.06662 10.5136 -1.189575 0.285204 -1.883391
O 10.7573 4.57677 6.85174 -1.3493 -0.039243 0.241856
O 8.93185 5.06399 11.3759 1.132193 0.618289 0.579281
O 0.28883 0.48543 3.2682 -1.209063 1.034631 0.350073
O 6.87147 5.15663 1.01465 2.521164 0.138843 0.477346
O 1.04602 5.16557 6.9345 1.104123 -0.885391 1.66838
O 0.41991 1.23381 11.222 -1.022202 -0.602963 -0.903475
O 0.39956 10.6113 4.80503 -0.590106 -1.754725 -0.072754
O 10.0337 0.60871 7.25164 0.272287 -0.235482 1.352221
O 9.4761 7.92422 4.03488 -0.996742 0.086357 -0.802629
O 9.21015 6.75401 6.30279 0.518158 -0.172441 -0.77255
O 11.2952 6.39316 12.2524 -0.362188 -0.012567 0.550847
O 5.97496 9.66704 1.86465 -1.224632 0.926851 1.489108
O 11.3722 9.46884 9.20986 -1.726581 -0.980051 -0.338
O 0.1176 0.68489 7.81621 0.307909 -0.151858 -0.061888
O 1.5238 2.44345 6.63804 -0.022513 0.023787 0.118414
O 7.82774 2.02571 11.1742 -0.150227 1.47474 -0.695047
O 3.59576 2.48157 0.59974 0.810698 -0.146401 -0.574896
O 10.1109 2.56434 5.39756 0.655945 -0.254661 -1.277004
O 3.67616 3.06671 3.08376 0.678486 1.019895 -0.984526
O 11.0897 8.29925 1.85008 -0.299721 0.660337 -0.461837
O 8.82056 8.66033 8.39046 0.55705 -2.618187 -1.443603
O 10.8898 2.8009 2.82909 -1.18025 -1.22972 -1.113135
O 7.39875 3.25232 5.43925 -0.148962 -1.367336 -0.475038
O 1.45104 8.97327 2.99663 -0.903813 -0.449012 -0.838698
O 2.22408 6.63706 8.95162 -1.838625 0.777199 0.008245
O 10.0411 10.4118 4.30346 0.38226 -1.406958 1.415699
O 2.7139 0.91652 4.67511 -0.139498 -1.248803 -0.566349
O 4.69291 6.50593 10.4112 -1.28868 -0.632057 1.233835
O 7.36422 2.04698 7.8609 -0.870165 -0.100627 1.152702
O 1.49625 10.2108 11.84 0.712199 -0.658247 1.004026
O 7.13175 0.73139 4.3477 -1.286199 1.410857 0.439023
O 5.17185 6.81357 4.94002 -2.348823 0.843479 -0.527467
O 1.77953 3.4598 11.7795 -0.182987 0.077985 0.022071
O 7.65289 1.38243 1.29583 0.586895 -0.523947 0.305415
O 0.50558 8.01055 10.7673 0.50868 0.234563 -0.71599
O 11.5232 10.8712 1.01464 0.961304 -0.51418 -0.239564
O 7.05499 5.28507 9.36273 -0.182159 -1.608379 -0.167864
O 4.80042 0.76337 11.042 -1.302691 -0.851214 -0.095412
O 4.8723 9.22051 6.24209 0.845229 0.181984 -0.505053
O 3.3056 10.2648 1.37278 0.788604 0.675123 -1.454254
O 0.72249 10.463 7.5415 0.594074 2.339894 -1.05871
O 6.91778 5.69752 6.50651 -0.085833 -0.658078 1.059596
O 5.3235 11.6856 5.81134 -0.55348 0.404412 0.636315
O 6.33183 3.48824 2.96873 0.303668 -0.546226 -0.155397
O 9.67255 3.2577 9.0339 1.073764 -0.844419 -0.741493
O 7.99812 11.9234 10.168 -0.997713 -0.140353 -0.182832
O 2.4141 12.3742 10.0627 2.493881 -0.640968 -2.562878
O 9.00228 10.6459 6.62488 -0.166877 0.180392 2.131973
O 10.3767 11.5709 10.9031 -0.773582 -0.621952 -0.805265
O 8.05593 11.3626 2.36757 2.32325 3.036523 -0.15223
O 6.95453 7.48919 3.09606 -1.315245 0.07287 1.165322
O 5.66128 2.83206 9.89865 -0.366587 1.205956 0.264726
O 2.18497 0.33672 1.19368 1.320639 -1.587067 -0.10155
O 0.10848 4.36799 1.18302 -0.397045 0.119102 1.203504
O 2.43292 5.33278 2.39054 -0.346785 -0.018733 0.491094
O 3.6768 1.99084 8.24782 0.917711 -0.990751 0.05221
Na 11.0362 1.05462 9.68878 0.043911 0.090708 0.059552
Na 7.1349 11.8761 7.73026 0.167912 0.06374 -0.157197
186
energy=-1001.83453852 config_type=nep2xyz pbc="T T T" virial="-10.027272570668725 5.181816018622332 7.109055205318715 5.181816018622332 -17.232695685427803 -2.5944483221116728 7.109055205318715 -2.5944483221116728 -13.778314309231204" Lattice="12.4 0.0 0.0 0.0 12.4 0.0 0.0 0.0 12.4" volume=1906.6240000000003 Properties=species:S:1:pos:R:3:force:R:3
H 10.1034 12.242 9.84968 -0.039695 0.906546 0.061395
H 8.29197 8.16481 9.38895 0.201478 -0.374715 -0.408388
H 1.95557 6.08678 7.27356 -0.258028 0.01464 -0.022298
H 7.02655 0.48038 5.44235 -0.024336 0.408158 -0.018265
H 1.83374 5.43434 1.58865 0.600794 -0.785352 -0.478474
H 1.00598 8.19835 7.88901 0.895082 -0.603587 -0.15241
H 2.21582 7.79599 11.0776 0.295922 -0.037536 0.05024
H 0.53984 8.95732 11.6976 0.185525 0.339075 1.270564
H 10.2107 9.32442 1.04464 -0.185621 -0.302367 -0.149258
H 11.4349 9.08727 7.5061 -0.496015 -0.024047 0.097668
H 6.56768 11.0579 12.2034 -0.393991 -1.561543 -0.012584
H 0.19519 2.30982 4.48602 0.086866 -0.053919 0.513246
H 10.9196 12.38783 7.25564 -0.3572 -0.738775 -0.825442
H 1.79422 8.35181 6.57892 0.282994 -0.645644 -0.014644
H 1.23907 9.67498 1.59807 -0.49971 -1.096573 -0.824642
H 7.88023 2.73324 0.56287 -0.729819 -0.449235 -0.658224
H 0.94107 8.9934 4.738 -2.139545 0.338789 -0.647668
H 0.6513 7.43849 1.59839 0.365999 1.160251 -0.318118
H 8.32904 5.89315 0.77322 -1.839781 1.37258 0.729759
H 5.85898 0.74361 9.6557 -0.840253 -0.417477 -0.812832
H 10.298 11.0247 6.63431 -0.030638 1.55394 0.013658
H 10.5963 5.67526 1.57643 -1.696166 -0.588196 -0.625018
H 6.90199 6.81132 0.65017 0.656054 -0.570308 0.214279
H 3.09815 9.29199 2.63602 -0.121332 0.881389 -0.642981
H 1.72778 5.02469 8.38372 0.01406 -0.097136 -0.82363
H 2.1809 4.34593 10.7762 -0.78817 0.761194 -0.668086
H 4.11079 1.90784 6.32471 -0.010377 0.385274 -0.181777
H 3.36205 12.2674 11.4322 1.239004 -1.1831 1.556449
H 8.44358 9.84878 3.3864 0.612657 0.573562 0.372529
H 3.40318 3.45968 4.90613 -0.012597 -0.175755 -0.106251
H 9.89598 8.82597 7.63343 -1.364791 -0.016492 0.75716
H 7.88964 5.83299 9.54781 0.27126 -0.14259 0.633986
H 9.16661 4.00597 6.49816 -0.602835 0.583993 -0.655775
H 2.92223 3.30952 0.18992 -0.259906 -0.39936 -0.808922
H 6.03081 5.14518 8.31959 -0.218846 0.371107 -0.674197
H 4.56126 0.35739 1.71156 1.044149 0.974357 1.315029
H 0.1925 2.80126 10.2235 -0.819283 1.153604 -2.148874
H 8.33937 7.7395 2.12615 -0.453141 -0.535704 -0.474761
H 4.74259 10.9592 0.0066 0.308184 0.354736 0.005392
H 4.89789 11.6349 8.77115 0.033248 0.122794 0.111734
H 10.8794 8.77656 5.12461 1.473969 0.1656 -0.556118
H 9.75352 7.31006 2.58023 -0.841944 1.229628 -0.341341
H 0.32247 0.09736 3.80584 0.157565 -0.282035 -0.417548
H 9.06102 5.96872 10.7247 -0.728308 0.182944 -0.488252
H 3.24272 7.84352 8.19667 -0.346158 0.503955 0.025771
H 4.62961 7.37176 7.99387 0.691282 -0.566525 -0.167349
H 10.7226 5.53993 12.0055 -1.295433 -0.407625 -0.170974
H 5.85629 2.54616 10.6247 -0.603865 0.753848 0.252312
H 3.50836 11.0055 0.80858 -2.4002 -1.740527 1.978453
H 5.62632 5.45805 6.19745 -0.084244 0.909552 1.114251
H 10.002 5.78304 5.65325 1.23345 0.729634 1.75098
H 2.87711 3.47875 2.85645 -0.756155 1.060188 -1.171109
H 12.1261 2.08717 3.03876 -0.764919 0.106742 -1.152774
H 9.94751 5.65892 4.15056 -0.52557 -0.207633 0.3151
H 2.37959 10.5129 3.13791 -0.360655 0.647594 0.283723
H 6.40957 0.55061 1.24422 0.405254 0.240982 0.036856
H 2.18573 2.31282 3.70045 1.214657 0.77088 -1.124537
H 6.63651 4.15007 4.54818 0.392889 -0.640133 -0.465989
H 3.18874 2.00346 11.6132 -0.562479 0.727344 -0.073336
H 2.35118 5.89547 10.7779 -0.393364 -0.238224 -0.649429
H 8.43238 0.2479 5.6685 2.634499 -2.001572 -0.048349
H 2.80963 4.09157 6.27423 0.891946 -0.804469 -0.332173
H 11.5815 2.27819 0.8294 -0.151675 -0.326665 -0.392725
H 0.1192 2.36525 8.73611 -0.535799 1.360297 1.223505
H 11.1563 10.0912 9.43826 -0.404328 0.601852 -0.223037
H 8.29708 3.65405 9.70854 -1.601729 0.22274 -0.554753
H 4.39334 5.00506 6.8065 0.205496 0.844453 0.631068
H 10.4133 10.8401 1.01707 -0.149963 -0.139617 -0.627912
H 9.09985 11.7073 2.39811 0.737432 0.288577 -0.365603
H 6.86356 0.73885 10.8535 -0.056695 0.666974 -1.436685
H 11.9242 11.1692 3.74238 -0.141415 -0.384428 0.129908
H 0.67867 3.53997 6.80359 0.065816 0.615549 -0.353576
H 0.55775 10.0613 7.93923 0.76109 1.14368 -0.413529
H 7.9811 0.28965 0.86444 -0.696564 -0.27542 0.044447
H 6.40915 10.1497 10.9118 -0.876032 -0.147534 1.025345
H 4.40454 1.5983 2.74008 0.501225 -0.312472 -0.452843
H 11.0034 8.47827 3.64896 0.079616 -0.035264 -0.629148
H 3.19675 0.78326 6.60409 -3.962216 -1.127874 0.308165
H 10.6852 10.1091 10.8679 -0.03924 -0.287651 1.977685
H 7.42421 10.8842 3.744 -0.744289 0.522259 0.455285
H 10.9829 0.91121 9.20509 0.617466 0.027994 -0.371762
H 12.2943 6.2722 6.79798 -0.047045 -0.793297 0.331381
H 8.86757 3.78084 3.81736 1.255523 1.564341 1.126792
H 10.0732 0.44672 1.68945 0.714292 0.794235 0.284632
H 12.0656 6.97321 10.6739 -0.292021 -0.967343 0.285815
H 10.1683 2.42942 1.5277 -0.892945 0.957181 -0.549611
H 5.66486 0.18493 3.93528 -0.149373 -0.006324 -1.011894
H 4.51448 7.4545 12.2186 1.409748 1.1585 0.792688
H 11.7896 0.94402 11.2119 -0.199521 -0.079807 -0.24126
H 5.69052 6.2524 2.19052 -0.263353 -0.306298 0.834577
H 5.17935 12.0679 5.23134 -0.493667 -0.218309 0.558012
H 8.333 2.36887 4.07731 -0.035582 -0.705616 0.633435
H 3.82947 7.0151 3.33094 0.400834 0.021782 0.18268
H 6.1197 4.45403 9.69507 -0.18723 -0.483723 0.876163
H 3.59437 7.76659 10.3123 -0.362619 -0.689659 0.145384
H 5.63409 8.6512 0.11982 -0.300459 0.153387 -0.379128
H 8.92996 9.50306 9.52156 1.037321 1.126702 0.489582
H 0.22174 2.13178 6.95967 -0.282831 -0.426113 -0.613026
H 7.61828 5.3466 5.01418 -0.534281 -0.696348 -0.184712
H 10.6503 3.73015 6.60532 0.733826 -0.299116 -0.21646
H 1.78412 10.1356 5.57532 -0.691952 0.082361 -0.360171
H 11.1476 7.15607 7.03753 -0.903238 0.373386 0.288025
H 1.59092 6.89887 2.74429 0.806427 0.909248 0.693426
H 0.39781 12.2773 8.70953 0.030526 0.07942 0.447956
H 3.30331 0.38298 9.95169 -0.569346 -0.331186 1.04296
H 9.42149 4.53259 12.36277 -0.182538 -1.776124 -0.289312
H 2.92079 7.95345 4.31926 0.268659 -0.05419 -0.212339
H 0.22227 5.50758 10.7076 0.61881 -0.098032 -0.241536
H 9.09852 2.35019 10.2032 0.108043 1.328712 -0.096594
H 3.36241 4.9564 1.47008 -0.534773 0.134642 0.017309
H 8.30015 3.26737 1.95093 0.069211 -0.069849 -0.545794
H 4.4953 0.37837 7.75178 0.017397 0.224496 0.941138
H 0.30555 9.03084 10.1359 0.286244 -0.561864 -0.044816
H 12.2068 9.5865 0.84544 0.020014 -0.464035 0.44359
H 0.96721 1.05876 11.4364 -1.392168 0.627141 0.09357
H 0.88318 11.8672 5.40563 1.732106 -0.101738 1.558023
H 5.3533 9.3533 9.11237 -0.055018 0.45415 -0.363305
H 5.84673 5.83748 3.7256 -0.688396 -0.054016 -0.881809
H 0.84435 12.1448 6.97111 1.10212 0.20359 -0.86835
H 4.6159 3.54625 11.1474 0.619864 -0.922615 -0.180814
H 11.7177 6.1023 2.33996 0.126071 0.452232 1.274037
H 6.86805 9.58797 9.00063 0.352107 0.482608 -0.438213
O 6.70447 1.11661 9.92813 1.226048 -0.106546 2.227405
O 10.42 10.4497 10.0308 0.314827 -0.059295 -1.704418
O 6.013 10.0841 9.07346 -0.618337 -0.656215 0.663383
O 1.76224 7.72364 7.36375 -1.254132 1.428326 0.254811
O 0.96348 6.65322 2.06627 -1.045278 -1.889835 -0.313949
O 6.17097 10.1562 11.8991 1.356857 2.18401 -0.982082
O 3.06871 2.72454 3.39504 -0.594138 -1.918149 1.736863
O 9.87188 5.3404 0.15413 1.941259 2.128536 -0.601266
O 2.4425 4.62955 1.39637 0.439423 0.562906 0.497818
O 5.5809 3.4478 10.9475 0.207055 0.179489 -0.19542
O 6.69246 4.9746 5.01709 0.541304 1.408309 0.603947
O 9.805 3.53918 7.01814 -0.226063 -0.701821 1.098884
O 9.63011 12.0034 1.59213 -1.564772 -0.684513 0.647651
O 5.05315 5.73255 6.99492 -0.075856 -1.616071 -1.604828
O 11.37 6.20094 7.1006 0.434398 0.113392 -0.604479
O 3.57369 3.56284 5.86666 -0.811842 0.96122 0.96577
O 1.7664 5.18117 10.386 1.623566 -1.046654 0.926659
O 3.09245 7.66242 3.40469 -0.46259 0.046307 -0.003783
O 11.5648 8.76821 4.37144 -1.545744 -0.026652 1.296733
O 10.2447 12.0272 6.57641 0.616948 -0.821714 0.952854
O 0.40522 1.83944 3.66065 0.707686 -0.164159 1.024843
O 8.75099 6.25441 9.83742 0.270701 0.237712 -0.110521
O 0.07386 1.51205 11.5868 1.834617 -0.333354 -0.036755
O 8.37724 3.08479 3.4455 -1.22938 -1.005366 -0.41412
O 4.11337 11.5874 0.43979 2.206561 1.538055 -1.662457
O 0.42114 11.5065 3.83752 -0.087901 0.942732 0.015884
O 7.04411 0.27813 0.54862 0.419802 -0.108548 -0.52194
O 10.9892 1.94522 1.52059 0.928947 -0.521857 0.913449
O 9.44422 5.43564 4.9825 -0.57625 -0.37369 -2.328854
O 0.63074 9.05111 1.0707 0.341902 1.668918 0.518763
O 12.3605 3.22709 9.28613 0.981552 -2.781073 1.135379
O 8.3762 9.01775 8.91317 -0.65838 -1.207304 -0.052656
O 1.53378 11.9208 6.23493 -2.680116 -0.144878 -0.549505
O 5.32409 7.7631 0.3553 -0.996518 -1.561718 -0.249338
O 6.65868 4.89206 9.01374 0.709226 0.00621 -0.142281
O 2.8237 10.2228 2.3373 0.11149 -1.753849 0.476877
O 7.84653 0.95507 5.74875 -2.292688 1.703737 -0.139011
O 1.78406 5.12335 7.38772 0.183691 -0.511786 0.895983
O 3.09852 7.35055 11.0681 0.073026 0.810914 -0.223456
O 9.04277 3.35389 10.1966 1.410599 -1.526276 0.723517
O 0.41529 8.42331 10.921 0.081171 0.119724 -1.81804
O 10.5781 8.7692 6.9792 1.306524 0.096471 -1.083515
O 9.14097 8.13274 2.49346 1.554664 -0.26727 0.639769
O 4.54175 0.14889 8.74509 0.216976 -0.620923 -0.450739
O 1.73086 9.23969 5.17962 2.730451 -0.111665 1.303248
O 5.18887 5.92638 2.97891 0.455454 0.423051 -0.110721
O 12.3194 0.56743 8.23932 -0.2964 0.366346 -0.761099
O 11.7822 6.00671 10.6877 -1.11609 0.70986 0.380006
O 4.14802 7.98224 8.55767 -0.228477 0.178952 0.332783
O 5.09123 0.98178 2.35753 -1.710547 -0.792433 -0.845773
O 0.18212 2.86707 6.30662 0.087886 -0.215496 0.696077
O 4.06932 0.93389 6.39453 3.526877 0.648845 -0.87549
O 0.01091 9.502 8.46458 -0.367523 -1.122534 0.672134
O 10.6457 10.006 0.50231 0.338028 -0.154261 0.362681
O 10.1688 0.84091 9.75682 -0.785331 -1.087595 0.251247
O 7.55284 6.36222 1.26229 0.630637 -0.351378 -0.968424
O 8.54233 3.26202 0.98699 0.534625 0.190337 0.281556
O 3.00413 2.98139 11.6561 0.247937 -0.107003 0.693247
O 8.37615 10.7718 3.75074 0.300973 -1.104672 -0.986994
O 2.79806 0.30191 10.826 -0.972031 1.732883 -2.497959
O 10.7393 5.99836 2.47972 1.422238 0.026409 0.400655
O 5.8759 11.9012 4.58976 0.344563 0.30153 0.265624
Na 10.4593 4.77268 9.04568 0.626492 0.132561 -0.014047
Na 8.58969 1.60601 7.77984 0.307001 -0.267884 0.25382
186
energy=-1001.58188971 config_type=nep2xyz pbc="T T T" virial="-8.29572045520442 -2.089772269820182 -0.153453222058968 -2.089772269820182 -20.719219531789683 1.0687817587871293 -0.153453222058968 1.0687817587871293 -7.7944359630747595" Lattice="12.4 0.0 0.0 0.0 12.4 0.0 0.0 0.0 12.4" volume=1906.6240000000003 Properties=species:S:1:pos:R:3:force:R:3
H 10.2791 1.19007 7.60301 0.293936 -0.08212 0.160831
H 9.16553 7.31663 4.41118 0.375313 -0.393415 -0.738521
H 5.92484 5.61733 4.88597 0.426576 0.073404 0.160682
H 9.08103 9.76792 5.4722 -0.736657 1.158905 -0.100008
H 10.2772 2.42368 2.96265 -2.650258 1.815976 1.233774
H 1.25906 6.23016 10.3982 0.862181 -1.628066 -0.614031
H 6.05394 8.81662 8.57102 -0.022888 -0.305885 0.40981
H 1.38698 8.59122 10.0001 -0.643387 -0.773101 0.710978
H 11.1535 10.8508 9.71976 -0.072852 -0.505156 -0.52379
H 0.56334 10.002 6.07687 -1.716594 0.356437 1.059497
H 4.98679 11.2414 11.4697 -0.793467 -0.89878 0.597982
H 1.56532 0.38913 5.9004 0.248988 -0.380208 0.284692
H 10.7252 10.2337 6.33251 -1.10796 0.956948 -1.116567
H 2.57561 2.99597 8.40879 -1.228519 0.015682 0.738862
H 12.0208 10.8655 11.8017 0.225715 0.081741 -0.602638
H 5.3786 5.48442 3.40289 -0.318589 0.417156 -0.814614
H 4.10098 5.64629 7.28881 -0.07336 1.076608 1.135979
H 4.9149 7.50654 0.43814 0.250186 1.272151 -0.717592
H 5.76625 7.63094 2.42666 1.124373 0.7419 0.118321
H 6.91591 0.69304 11.7917 0.071595 -0.666071 0.117716
H 11.508 3.7785 0.29551 0.138792 -0.671964 0.412383
H 1.06636 9.37452 2.38466 0.455782 0.30641 -0.259782
H 6.50863 8.94401 1.85409 -0.125169 -0.668695 1.013219
H 0.55441 10.2144 4.25312 0.275178 -0.089705 0.905907
H 4.12142 4.66511 5.24099 2.468866 0.673063 -1.465765
H 2.22247 5.3675 1.256 -0.123933 -1.404678 -0.372777
H 5.97518 12.0156 8.81839 -0.109069 0.293869 -0.011917
H 3.00536 4.01058 0.88768 -0.928236 0.105604 -0.126605
H 9.63243 0.2858 0.03192 0.319993 2.27997 0.025925
H 0.49222 4.27401 4.38154 1.045969 0.599787 0.305549
H 1.71656 9.39331 5.53422 1.285416 -1.087198 -0.669125
H 5.64969 5.10785 11.2904 0.344821 -0.220954 0.15605
H 7.17497 2.81314 11.4492 0.096908 0.921959 0.754525
H 4.17136 12.2633 7.63896 -0.321751 -0.382728 0.049896
H 6.42321 2.08241 6.27188 -0.754322 -0.296392 -0.483414
H 3.978 1.89099 0.76931 -0.147318 1.088823 -0.011362
H 7.94065 5.13263 6.01376 -0.023598 -1.03153 -0.369169
H 8.271 7.96359 0.65473 0.729947 0.790632 -1.493851
H 3.56646 11.9846 0.22652 -0.348224 0.138819 -0.364876
H 1.28548 10.6242 10.5278 1.020881 -1.512463 -0.694245
H 0.33382 7.28815 8.0984 -0.090619 -0.143619 0.050828
H 8.82437 8.46535 11.5343 -0.34466 -0.387592 -0.430241
H 6.84791 5.593 2.04525 0.312169 0.151947 0.199192
H 4.11966 5.65524 10.581 -0.09797 0.136093 -0.298581
H 4.48202 8.49551 7.1574 0.413895 -0.047865 0.131383
H 4.18991 9.98402 7.44501 1.449624 -0.791508 -0.115997
H 10.8092 9.28304 0.21272 -0.19261 -0.26658 -0.39288
H 4.99541 5.66251 1.20504 0.360679 1.027952 1.736813
H 2.87329 12.245 1.54517 -0.049542 1.519118 -1.284582
H 10.8603 4.23613 7.383 -0.108758 1.520667 0.952209
H 5.71232 3.40605 3.61517 0.616024 -0.854975 -0.398056
H 12.0814 2.28804 3.98105 -1.018744 -0.861915 -1.69402
H 2.63133 1.46846 6.39267 -0.974638 -0.211334 -0.688744
H 7.06499 2.70103 3.20057 -1.225526 0.0482 -0.188254
H 1.03577 11.1418 3.20198 0.37691 0.44686 -0.035801
H 9.24206 7.35056 9.97062 -0.566544 0.318065 -0.394791
H 0.80323 2.13857 5.02139 2.125876 -1.08408 0.656729
H 3.26603 3.30083 7.06352 0.475039 0.127497 0.576223
H 4.55656 1.30678 7.85496 -0.332386 0.984345 0.305639
H 2.32002 7.23295 1.98834 -0.754178 1.265167 -0.312067
H 9.18438 11.1098 4.55787 -0.435057 -0.775683 2.194624
H 1.28019 5.55879 3.7868 0.145641 0.014442 -0.711054
H 8.45107 3.67521 4.48122 0.517107 -0.130999 -1.014355
H 0.80306 2.34144 9.77382 -0.050441 0.782322 -1.278867
H 7.04156 7.19943 5.78499 1.222647 2.358614 -1.04961
H 8.10319 5.2922 9.55334 1.784416 -0.058346 0.122549
H 11.1053 5.89779 7.47768 0.494003 -0.293599 0.034877
H 10.0185 9.7588 9.5492 0.422672 0.093168 -0.829964
H 10.9414 11.5017 3.26187 0.627873 -1.759227 -0.276986
H 7.18914 11.5805 0.12255 -1.585196 2.325663 -1.064168
H 7.17124 4.54298 1.05483 0.518986 0.416529 0.156415
H 1.03978 3.80483 9.5184 0.158797 1.806348 0.330973
H 12.0617 7.69789 6.76123 -0.086614 0.240866 0.137173
H 8.16054 8.53179 9.59593 0.752209 -0.960985 0.641754
H 4.57533 9.74233 11.8227 0.44575 -1.010882 0.536884
H 4.79471 2.67498 1.78512 0.386943 0.360999 0.059574
H 9.27242 4.58789 6.48822 -0.526432 -0.599556 -0.554139
H 6.88302 11.568 10.0424 -0.10346 0.324143 -0.319072
H 6.13576 6.52123 6.83392 -0.938795 0.357564 0.625582
H 10.0841 1.56145 0.8941 -0.552069 -0.618677 -1.65598
H 10.0912 12.1435 8.3575 -0.273676 0.676247 -0.311616
H 1.47734 7.05087 5.47425 0.282694 0.615056 -0.06279
H 11.643 2.66418 6.12221 -0.818049 0.169583 0.331663
H 10.3385 0.29879 3.5398 -1.647555 -0.441914 -0.631711
H 9.32312 4.90808 0.42504 -1.594269 0.012418 1.129469
H 8.3975 4.09295 2.95298 -0.475512 0.943872 -0.771114
H 5.86065 12.0296 4.66548 -0.724478 -0.702068 -0.67748
H 8.52542 10.1036 0.92911 -0.138493 0.480508 -0.503124
H 0.57547 1.9857 11.8927 0.093238 -0.341796 -0.578405
H 2.95283 0.55421 4.03352 -0.239273 0.472139 0.401094
H 6.1018 1.17499 4.16724 -0.121486 -0.644653 -0.028044
H 12.0021 2.63479 7.56679 1.131239 0.2114 1.771286
H 5.43541 9.7475 3.72572 0.117505 -0.1394 -0.135871
H 7.71875 2.94503 6.52425 -0.883024 -1.150068 0.420499
H 5.83397 7.53681 9.48863 0.739285 0.665422 0.007465
H 8.92813 11.0684 2.05865 -0.248776 0.776397 -0.105006
H 7.83022 8.08596 3.91255 -0.16146 -0.047815 -1.259608
H 0.56582 3.59645 0.8362 0.158657 -0.018987 0.144565
H 2.62465 4.65104 5.26934 0.070282 -0.761672 0.465226
H 8.56178 1.81868 11.7474 -0.421079 0.977802 0.156715
H 4.56667 6.20765 8.77272 -0.474472 -0.152482 -0.574708
H 2.15964 7.38426 4.1512 0.506265 -0.147642 -0.971558
H 5.05332 7.77648 11.354 0.151834 -1.297672 -1.853038
H 11.1849 9.77908 7.66461 0.510617 -0.42509 -1.373463
H 1.83941 4.97603 11.198 -0.00441 0.031471 0.011033
H 12.1049 9.33768 0.9929 0.475652 -0.417078 -0.570217
H 5.02768 9.91693 5.21537 -0.145446 0.268898 -0.258354
H 9.91091 5.12283 11.4722 -0.403253 0.196579 -1.356301
H 9.71571 5.35946 9.05785 -0.912958 -0.027121 0.452874
H 11.3847 2.4246 1.9178 0.656189 0.027287 -0.175275
H 3.59928 6.43285 2.35836 -0.298467 -0.304004 0.431157
H 2.85697 10.3154 10.736 -0.38446 -0.65753 -0.376266
H 0.10932 8.05657 10.8278 0.85905 -0.070228 -0.795717
H 0.13336 12.2105 11.0357 0.554009 2.363283 0.567181
H 1.73312 1.00338 11.8413 1.20433 -0.614663 0.646412
H 2.24043 10.6368 7.23345 -0.801174 -0.271649 -0.893068
H 6.82828 5.2723 8.18201 0.08786 -0.827215 0.585162
H 3.79017 11.7033 3.71402 -0.155878 -0.259625 -0.023359
H 2.57146 10.7938 8.75509 -0.472131 -0.602001 1.067414
H 5.39545 3.83108 12.2453 -0.273084 -0.414475 0.187749
H 1.92444 9.36421 1.00505 0.334997 0.804421 -0.376901
H 6.24447 5.03695 9.57539 -0.98775 0.055526 0.382437
O 6.52368 12.1956 11.9786 1.21534 -1.811467 0.793706
O 6.80612 6.39022 6.16291 -0.591933 -2.593781 0.953623
O 6.89018 4.65763 8.95114 -0.016306 0.416098 -1.259844
O 1.66586 5.276 10.2845 -0.542388 1.440078 0.778653
O 5.07246 8.24206 12.1657 -0.233132 -0.396282 2.776316
O 4.21445 10.6294 11.7138 0.478326 2.233064 -0.990475
O 0.07689 2.66347 4.74525 -1.45485 1.899847 0.769502
O 11.7729 9.33967 0.07218 -0.873731 0.340335 0.885345
O 10.9544 1.88608 2.64027 1.761274 -1.533904 -0.833449
O 6.11701 4.36604 11.888 0.420147 -0.271408 0.518288
O 3.43592 4.24441 5.70152 -2.691799 -0.18393 0.963906
O 7.75066 2.08452 11.2007 -0.115045 -1.052414 -0.388039
O 10.0171 11.7673 3.32615 1.187477 1.892496 0.73072
O 10.5137 5.15885 7.74301 -0.143403 -1.671097 -1.346145
O 1.91095 7.78889 4.98415 -0.700183 -0.41815 1.171183
O 1.15687 5.00072 4.55455 -0.758813 -0.229779 0.32436
O 2.57321 6.50431 2.54584 0.771654 -0.725964 0.155045
O 4.96836 10.3482 4.33259 0.063707 -0.100205 0.581821
O 8.48735 4.28621 5.91646 0.480235 1.987235 1.629177
O 12.1229 3.09302 0.71392 -0.156498 1.154534 -0.753255
O 1.99309 1.21684 5.66024 1.03872 0.284949 0.707973
O 5.02859 5.95367 10.4168 -0.2552 0.687736 -0.519756
O 1.09275 1.40798 11.2633 -1.595477 0.798052 0.131539
O 11.2158 2.71149 7.04337 -0.415387 -0.256144 -1.826016
O 2.92876 0.23961 0.59743 0.417738 -1.292395 1.791513
O 7.62956 5.05908 1.77988 -0.692957 -0.214283 -0.920335
O 9.0671 8.34176 10.0106 -0.430175 0.130355 -0.372661
O 8.57618 3.35104 3.5316 0.470933 -1.242684 1.273822
O 6.04547 2.58157 3.13663 0.500395 0.692198 0.723668
O 12.2362 11.3271 10.9449 -0.531185 -1.985414 -0.272678
O 3.37866 2.82728 7.93338 0.953414 -0.435795 -1.553929
O 8.3827 7.79656 4.63792 -0.277471 0.784082 1.644946
O 2.84651 11.0174 7.86592 1.545774 0.850713 -0.519023
O 8.41952 11.0502 1.22694 0.423743 -1.090358 -0.033992
O 7.19261 2.11332 6.82676 1.806429 1.627446 0.44822
O 0.32851 10.5055 3.36435 -0.612621 0.322626 -1.127743
O 8.88323 10.7457 5.50653 1.081585 -0.538388 -1.877329
O 5.5807 4.99878 4.22587 -0.202696 -0.634214 0.773262
O 6.45461 8.29439 9.31123 -0.650334 -0.263975 -0.382772
O 9.06848 5.54346 9.81623 0.201398 0.561504 0.251324
O 0.76348 7.79568 10.1279 -0.539583 0.44211 0.21632
O 1.41854 10.285 5.74701 0.270246 0.454231 0.028771
O 8.66708 8.68516 0.08836 -0.297334 -0.467469 2.35475
O 2.05713 9.9837 10.2048 -0.394093 2.577533 1.145908
O 4.2798 6.46962 7.83892 0.661716 -1.013465 -0.769561
O 3.06012 12.2604 3.3811 0.055362 -0.70532 -0.514204
O 11.3675 9.61141 6.63372 0.598772 -0.469526 2.53369
O 10.1442 4.95623 12.3823 2.053757 -0.307017 0.145904
O 4.97588 9.34137 7.22263 -1.99138 0.726417 -0.103682
O 4.25408 2.83415 0.98158 -0.11266 -1.516502 -0.029945
O 0.72949 3.03928 9.03993 -0.003626 -2.519419 0.733066
O 6.89201 11.8483 9.10507 0.669222 -0.164009 0.243242
O 0.03461 6.94026 7.23611 0.048246 0.218811 -0.056963
O 10.5987 10.388 9.02244 -0.129095 0.230385 1.15766
O 9.65857 0.57231 8.0322 -0.356101 -0.433493 0.158135
O 6.41723 8.4091 2.68804 -0.849411 -0.107514 -1.197046
O 5.05034 6.2163 2.05893 -0.260115 -0.541709 -2.082019
O 4.94169 0.4339 7.76603 0.133851 -0.540376 -0.31853
O 9.81253 1.29852 12.3467 0.412022 -2.328 2.008046
O 2.1483 4.50979 0.7113 0.632929 0.819711 0.523526
O 1.49133 8.84575 1.66833 -0.427913 -1.118722 0.548282
O 6.34338 0.43802 4.78754 0.906484 1.134677 0.529957
Na 7.75815 1.92622 9.11756 -0.053499 -0.243328 -0.841359
Na 7.7679 12.3579 6.68804 -0.165883 -0.236663 0.026033
186
energy=-1002.42019256 config_type=nep2xyz pbc="T T T" virial="-15.517208854940593 -0.7219620066594392 5.6542543990597895 -0.7219620066594392 -15.209267092457468 4.519176564267192 5.6542543990597895 4.519176564267192 -12.589852127470284" Lattice="12.4 0.0 0.0 0.0 12.4 0.0 0.0 0.0 12.4" volume=1906.6240000000003 Properties=species:S:1:pos:R:3:force:R:3
H 7.80925 10.6833 9.61505 -0.366395 1.106308 -0.344519
H 9.4902 7.95932 2.44198 -0.368116 -0.2207 -0.23667
H 6.45991 3.65016 5.36336 0.286263 -0.715583 1.08596
H 5.72583 10.5091 6.3706 -1.38805 0.914605 -1.628978
H 0.68768 1.72186 3.74648 -0.464888 -0.740485 -0.529737
H 1.11418 7.53277 3.1923 -0.285357 0.117833 0.118783
H 2.87557 6.95877 8.34317 0.001284 -1.42749 -0.380367
H 12.1862 7.93315 4.87401 -0.385735 0.727142 -0.216276
H 8.71941 4.83595 2.83094 0.003718 0.041567 -1.055102
H 10.1887 10.5532 12.3657 0.987518 0.467646 -0.84397
H 4.88445 7.51776 10.4398 0.21404 0.438876 -0.722065
H 3.0994 1.2297 7.75507 -0.911785 -0.096845 -3.145325
H 11.8929 7.85803 8.77386 0.254269 0.742756 0.388298
H 11.1874 8.51144 3.6133 -0.033168 0.129217 -0.318658
H 10.7591 11.0913 10.9441 -0.257898 -0.069899 -0.395289
H 2.80117 1.42917 0.5216 0.094537 0.04152 0.64685
H 5.67324 9.47902 2.72944 -0.152882 1.396277 -0.33841
H 2.34197 9.1022 0.78721 0.453642 0.018476 0.120406
H 3.59065 10.1412 5.22898 1.127118 0.953963 -0.638696
H 5.05091 9.85954 10.2582 -0.440344 0.379387 0.566901
H 0.67683 8.09187 12.2808 0.535091 0.649174 0.530635
H 2.48389 7.60558 3.95489 -0.363781 -0.354063 -0.205725
H 6.38203 7.39278 1.76702 -0.153387 -0.094558 0.600103
H 1.71659 10.4466 2.71767 1.039889 0.321257 -0.601392
H 6.8408 4.43471 4.16073 0.925935 0.185532 -0.295568
H 11.3678 7.08795 2.3696 0.561737 0.525647 0.517197
H 6.52591 0.3668 9.06106 -0.523659 1.427161 0.22966
H 11.6134 5.05752 1.26523 0.335041 -0.05041 -0.008485
H 4.88103 2.18332 0.0901 -0.03526 0.32917 0.278411
H 1.38506 3.10545 3.7176 0.501914 1.168282 -0.886287
H 0.49591 9.63581 3.07414 -0.983038 -1.346367 0.280023
H 8.40575 3.38969 1.09042 0.235948 0.011287 0.079034
H 0.87456 3.70269 9.05116 0.810091 -0.436622 0.881997
H 6.48633 2.11121 8.34019 0.760945 0.802363 -1.525424
H 8.30559 2.72866 6.38402 -0.465262 -0.74921 -0.425597
H 5.60354 5.84052 5.2271 -0.548278 0.795967 -1.235319
H 10.7901 8.79941 6.31555 -0.589233 -0.06239 0.23721
H 10.4101 6.15129 9.99614 1.090777 0.314213 -0.028436
H 5.17708 5.13728 1.72758 -0.462972 -0.468556 0.819832
H 1.77867 11.2449 9.94294 0.181358 0.404265 -0.17013
H 6.41162 0.92334 11.7853 -0.23911 0.643511 0.516494
H 10.2576 4.58574 10.4477 -0.19792 1.158565 -0.218474
H 4.79545 10.5406 3.49762 -0.027225 0.708909 0.502606
H 9.33797 5.592 0.78224 -1.025397 -0.256775 0.343735
H 2.76741 9.56341 8.56555 -0.426707 -0.513805 -0.356931
H 3.9479 8.97577 7.87464 -0.00631 -0.454729 0.146615
H 9.4418 12.2909 2.05159 0.016333 0.590039 -0.268329
H 5.7052 6.60824 0.07541 -0.379951 -0.489021 0.145491
H 5.00844 4.45914 3.22017 -0.090874 -0.107897 -1.220942
H 11.4926 3.11057 12.29188 -0.119962 0.17954 0.502913
H 9.06888 5.16849 8.57425 -0.402769 -0.105239 -0.243011
H 0.17827 3.06224 5.48271 -0.356834 0.029597 -0.127062
H 7.34416 7.16577 11.7999 0.47359 0.42233 -0.223362
H 9.28333 5.35128 7.02889 -0.007328 0.0578 -0.415675
H 1.2671 0.03926 11.9217 0.382389 0.372364 0.568143
H 10.9545 6.40488 5.95935 0.249031 0.341001 -0.161125
H 12.1959 3.94213 6.82708 -0.39281 -0.506869 -1.152335
H 4.09014 7.77545 5.31744 -1.105241 -0.011303 0.409475
H 7.45332 2.16381 0.89502 1.661559 0.27349 0.262155
H 11.2991 7.26824 0.79861 -0.340462 -0.302198 0.921734
H 6.23249 10.9199 7.78922 0.057337 1.515713 1.089213
H 1.88612 5.34658 3.0614 0.12795 -2.36071 -0.64013
H 9.81656 2.12807 4.62653 0.398862 0.394443 -0.218071
H 1.13887 5.4192 7.82219 -0.064153 0.067559 -0.080104
H 10.7292 11.7335 3.68318 -0.35047 -0.305223 2.331779
H 9.51778 1.482 2.0865 -0.633735 0.143673 -0.480931
H 10.1227 2.31695 12.0261 0.780132 0.365493 0.154041
H 9.37652 5.15261 4.17842 -0.006904 0.052692 0.352567
H 0.80933 11.0847 5.3393 -0.086479 -0.083177 -0.376853
H 3.73527 10.6828 10.2697 0.928005 0.74743 0.307804
H 8.01797 11.0282 0.79035 -0.127125 -0.058852 -0.324273
H 8.18007 7.14108 10.3885 -0.080773 -0.251424 0.612647
H 0.11384 11.5025 11.4377 -0.082629 0.113272 0.244236
H 10.8842 4.87612 5.73428 1.289129 -1.76292 -0.084861
H 6.24822 8.22334 10.3222 0.885482 -0.309292 0.360086
H 5.81948 7.01061 6.07401 -0.269015 0.670045 -1.267608
H 10.1162 10.035 5.71329 -0.56013 -1.054805 0.909804
H 5.83896 11.476 9.68285 -0.266877 0.615169 0.270177
H 9.8827 12.247 4.84542 -0.702057 0.988024 0.279141
H 6.20256 2.19302 10.9702 0.027075 0.65112 -1.691465
H 8.2447 9.30638 10.0648 0.5508 0.285913 -0.393144
H 0.38338 12.0405 2.52312 0.201205 -0.346158 0.493821
H 10.2259 10.7735 9.08948 -0.875119 -0.734275 0.027405
H 11.5923 1.98852 7.19699 1.133442 -1.219023 0.362776
H 7.33218 6.39087 7.58586 -0.744681 1.117901 -0.272
H 8.50475 1.46561 4.27004 0.196578 0.117996 0.146366
H 2.74117 2.10669 9.0429 0.677424 -1.295163 -1.174621
H 12.1901 5.92366 8.34527 -0.614987 0.723163 0.95648
H 4.46621 3.20379 1.26195 -0.055644 -0.247821 0.044114
H 1.72594 4.65681 0.04973 -0.000335 -0.590698 -0.402909
H 5.02018 1.83456 8.80377 -1.741269 -0.269214 -0.665112
H 10.9897 11.9278 8.46719 0.228258 -0.00555 0.322451
H 5.69961 11.0393 11.9739 0.215145 0.287252 0.239312
H 7.84244 3.82012 7.23269 0.024036 1.223668 0.803081
H 2.43494 7.72935 1.54854 -0.252782 0.035115 0.581717
H 3.45693 5.71165 11.5823 0.025245 -0.436904 -0.130985
H 7.9769 8.41482 2.98055 2.064736 0.182 -0.810207
H 11.7364 9.10475 11.9423 0.915073 -0.800663 0.061651
H 2.98576 8.19234 6.43083 -0.224368 0.023065 0.079293
H 1.7711 3.40113 10.4675 -1.251507 0.033174 -1.677336
H 6.0948 7.46437 3.49137 0.094705 0.098704 -0.697172
H 11.5928 0.61558 2.2789 -0.31491 0.347206 0.062481
H 3.39903 7.14148 12.1402 -0.561489 0.829499 0.524864
H 12.0437 7.56648 10.4553 -0.281708 0.591004 -1.046567
H 0.62653 4.3252 1.5473 -1.548814 -0.18853 -0.434566
H 8.94143 10.1963 1.75951 -0.165155 -1.102543 0.645228
H 6.11147 11.224 1.11568 0.216196 0.57924 -1.974336
H 6.34429 7.37207 8.39863 -0.254837 -0.034269 -0.785263
H 12.39174 0.62096 7.05536 0.490795 -0.560186 -0.785695
H 2.73811 1.52289 5.14648 0.160238 -1.413946 2.209931
H 1.4749 1.13925 1.43707 0.533377 -0.702407 -0.653312
H 2.85876 12.1035 9.11881 -0.524816 -1.405131 0.2705
H 0.46163 7.15349 5.88609 0.867174 -0.685211 0.930139
H 2.81007 3.52504 12.395 1.469866 -1.275074 1.152561
H 3.7787 5.81389 7.74192 -1.399331 0.069055 0.484294
H 1.90685 0.45326 5.90291 0.738724 0.269611 -0.049159
H 12.0205 12.1141 5.26567 0.82767 -0.59865 -0.063634
H 2.78522 11.7651 1.20512 0.051253 -0.376744 0.074465
H 3.68653 11.718 5.29648 0.644942 -0.369513 -0.477567
H 7.57229 5.69902 0.89855 1.940802 -1.092082 -0.500787
H 2.96548 4.32121 2.57388 -0.819688 -0.116202 -0.059023
H 3.90387 10.6466 1.73699 -1.887797 0.430984 -0.626878
O 4.69701 10.7298 10.6105 -0.150036 -1.571395 -0.831545
O 10.575 11.6058 4.6897 0.878789 -0.571507 -2.202099
O 0.57628 11.9909 5.57378 -0.700498 0.58934 0.645181
O 12.0743 8.14888 3.46886 -0.466377 -0.089233 0.104224
O 2.31865 8.12815 0.6656 -0.181049 0.208898 -0.705424
O 5.42105 8.11486 9.82836 -1.044131 -0.433896 0.310118
O 11.8314 3.39268 6.06218 0.083346 0.457548 1.351357
O 8.9251 10.9316 1.13455 0.482534 0.589781 -0.389127
O 0.98095 2.45991 4.28815 0.241043 -0.711431 1.43177
O 6.4683 6.57104 0.67079 0.507166 -0.058103 -0.155086
O 3.17452 8.17756 5.48119 1.042841 0.124019 -1.053256
O 1.34758 3.01216 9.59115 0.478812 0.541442 1.143413
O 12.028 1.213 7.708 -1.561668 1.488068 0.263612
O 11.0207 2.51826 11.679 -0.756458 -0.504632 -0.823047
O 0.14527 0.588 2.51009 0.171479 0.238193 -0.294095
O 1.9779 4.31354 2.76914 0.793597 3.317491 0.291137
O 10.8859 6.77728 1.57912 -0.233971 -0.446237 -1.554903
O 6.39318 11.4594 0.1429 -0.63415 -0.629743 2.191992
O 9.92518 9.27447 6.35749 0.92107 1.213374 -1.095209
O 12.1421 8.17265 12.0446 -1.290568 0.112556 -0.969215
O 3.37167 1.39745 8.62167 -0.211882 1.220162 3.994089
O 8.52715 5.05738 0.96677 -1.323154 1.406516 0.135753
O 4.1122 2.5594 0.60838 -0.542612 -0.17945 -0.189144
O 10.965 11.3566 9.26181 0.45466 0.930311 -0.718636
O 4.65002 4.48574 2.27837 0.910744 0.81909 0.558525
O 5.36718 10.4764 2.71338 0.589514 -2.080355 -1.051661
O 10.3625 5.65794 5.7713 -1.613714 1.488654 0.133606
O 9.12573 1.5866 5.00777 -0.581285 -0.350172 0.356946
O 8.58602 5.12096 7.69529 0.436161 0.938576 0.880442
O 2.33847 4.15442 11.8763 -1.387228 1.887709 -1.262298
O 0.16955 5.24275 7.80136 1.324471 -0.924037 -0.363497
O 8.9892 8.69285 2.83349 -1.750897 0.175634 0.498002
O 2.82704 0.87934 5.95897 -0.897845 0.896643 -2.160632
O 3.98505 6.51291 11.7084 0.790967 -0.172745 -0.675038
O 7.48506 3.03113 6.81779 -0.170538 -1.24813 -0.66385
O 0.90873 10.4848 3.23178 -0.007568 1.099314 0.292818
O 6.23269 10.2629 7.11159 0.269578 -1.665878 0.116833
O 6.06411 4.19345 4.67811 -0.79838 0.7326 -0.553369
O 2.86712 5.96866 8.11109 1.188912 1.327436 -0.07373
O 9.87093 0.67306 2.49099 0.491346 -0.972958 0.120422
O 12.2055 7.84024 5.92404 -0.271879 -0.189331 -0.260533
O 10.984 10.56 11.7186 -0.881151 -0.546964 1.741767
O 9.82271 5.40003 10.089 -0.869882 -1.543577 0.109463
O 2.53832 11.1412 9.31916 0.015613 1.263094 -0.101457
O 6.37066 7.95538 2.6808 0.060071 0.409831 0.745164
O 2.93221 10.796 1.37276 1.972734 -0.846413 0.764283
O 11.6999 7.30595 9.53362 -0.159564 -0.999352 0.678407
O 6.71275 7.21677 7.47967 0.770192 -1.879206 1.366491
O 3.02756 8.72449 8.08763 0.585248 1.151107 0.496158
O 5.4392 6.84192 5.13312 1.133793 -1.436842 2.329415
O 7.75723 7.72481 11.0403 -0.131845 -0.124992 -0.029915
O 6.64024 11.8419 9.23864 0.314941 -1.802494 -0.089792
O 0.74069 12.1903 11.1431 -0.003126 -0.942714 -0.434612
O 8.79982 4.51349 3.73409 -0.265562 -0.109737 0.593311
O 8.41503 9.98112 9.35852 0.282538 -1.705228 0.724899
O 4.19203 10.9191 4.95286 -2.014421 -0.736685 1.731345
O 2.14499 0.74902 0.7968 -0.668537 0.836993 0.058401
O 8.37824 2.4036 1.21723 -1.459139 0.091809 -0.620451
O 6.23614 1.90139 11.868 0.486168 -1.904078 0.84321
O 12.1792 4.29793 0.98301 1.261893 0.348321 0.678442
O 2.03448 7.18615 3.17436 0.602536 -0.325593 0.152664
O 5.91003 2.00235 9.0782 1.251829 0.016037 1.905471
Na 12.1648 1.21512 9.92879 -0.219769 0.675411 0.020447
Na 7.81772 9.0291 7.2675 1.5566 -0.015701 -0.114796
186
energy=-1002.68648659 config_type=nep2xyz pbc="T T T" virial="-13.018140724748472 -1.0949027221387722 -4.772317854661792 -1.0949027221387722 -15.901359569270607 5.003788860653959 -4.772317854661792 5.003788860653959 -9.390730279243039" Lattice="12.4 0.0 0.0 0.0 12.4 0.0 0.0 0.0 12.4" volume=1906.6240000000003 Properties=species:S:1:pos:R:3:force:R:3
H 8.05612 10.2033 9.45437 -1.676518 1.468235 -0.969373
H 10.642 9.73369 4.24835 -0.213059 0.006276 0.018733
H 2.00235 4.64414 7.10853 0.412448 0.198032 0.144387
H 12.2856 4.16411 11.8119 1.084954 -0.141216 -0.544073
H 0.59768 0.5164 11.4111 -0.252984 -0.69989 -1.306566
H 0.8389 9.33497 7.45157 -0.085533 -0.767422 0.071292
H 6.30726 7.0156 9.62364 0.011388 0.355061 -0.188241
H 0.40023 10.9288 10.1561 0.359044 0.372852 -0.667459
H 9.41503 7.43521 7.71645 -0.411299 -0.57328 -0.376228
H 1.29924 12.0668 8.54061 0.654858 -1.078761 1.261913
H 6.13042 8.38911 11.3856 -0.560469 0.25863 0.057678
H 9.02879 3.59353 5.06199 -0.254461 -0.117054 -0.163002
H 9.24914 3.34268 9.91027 -0.338323 0.034656 -0.144906
H 1.12818 7.89208 6.82633 -0.248561 0.619757 -0.001397
H 2.73768 8.08439 2.41684 0.312835 -0.79938 -0.463238
H 4.28069 6.19831 1.73872 0.566626 -0.618667 -0.041942
H 11.7374 0.74817 1.2561 0.232657 0.507207 -0.129451
H 4.03725 4.35452 0.26686 -0.890258 -1.274796 0.219487
H 0.98234 5.23777 4.10572 0.361431 0.109322 -0.290084
H 4.34067 0.47766 0.0609 -0.597922 -0.003784 1.17186
H 10.0928 2.36994 9.12622 0.296471 -0.316203 -0.196316
H 8.28944 2.24921 7.56942 -0.001379 0.206889 0.53455
H 1.63292 5.89261 2.7202 -0.494339 -0.574434 0.895559
H 2.06985 7.38443 4.47546 -0.939956 0.721559 0.651569
H 3.39717 4.18354 6.71508 0.753793 -0.676402 -1.358163
H 2.27136 0.79016 9.44887 -0.297625 -1.299922 0.375155
H 6.24582 0.58197 8.65691 0.152502 -0.928945 0.096144
H 4.32677 11.5396 10.6708 -0.0995 1.202683 0.838497
H 8.66476 11.0062 5.45732 -0.541694 0.996764 -0.948659
H 4.3131 1.12873 7.61484 -0.131107 0.24262 0.334827
H 11.2501 2.02623 2.13707 -0.016395 -0.496578 -0.02957
H 7.45932 7.37462 4.0945 -0.287682 -0.60911 -0.127852
H 10.8407 4.0301 0.85698 -0.26713 0.652619 -0.305918
H 3.09798 2.0494 0.81273 0.750416 2.561473 -0.662836
H 7.10664 3.11577 11.7987 -0.095381 -0.523722 0.267984
H 4.9119 9.74849 2.1043 -1.266085 0.49005 0.959329
H 2.83173 6.00384 11.1859 0.255258 0.064981 -0.286604
H 7.11676 8.81327 2.50106 -1.056432 0.44935 -0.387847
H 3.52017 8.07309 11.8546 0.673598 0.098775 0.014648
H 7.44426 6.51926 7.70723 0.120479 -0.595829 -0.386307
H 9.90025 9.16164 6.81764 0.216071 0.591491 -0.470695
H 8.57784 9.10135 2.83512 1.246055 0.804025 0.230682
H 10.1102 3.71118 3.14649 -0.134846 -0.248737 0.118391
H 6.80964 5.88872 4.24534 -0.228107 -0.47178 -0.458706
H 2.8003 7.87311 7.94254 -0.733443 0.324477 0.24897
H 1.0263 12.1924 4.12402 0.495318 -0.946683 0.169125
H 11.8026 7.464 11.8385 0.24654 0.734839 -0.503856
H 8.14336 7.41064 1.47466 0.181759 -0.076809 -0.237502
H 4.33141 9.36717 11.4464 -0.527572 0.69842 -0.546576
H 4.17441 8.05618 6.13786 -0.810279 -0.079865 1.065473
H 12.2069 5.34568 6.14657 0.064243 0.016594 0.092345
H 5.66038 10.1172 5.63313 -0.270986 1.719719 1.238826
H 8.17455 4.0658 3.80332 -0.176663 -0.303945 0.421047
H 0.07257 3.85855 6.07002 0.487237 0.154041 0.145537
H 1.32533 8.79562 4.78488 0.009121 -0.382993 -0.179253
H 6.68361 10.8981 0.82488 0.128417 0.80853 0.62501
H 6.564 11.4127 5.73313 0.189936 -0.167868 -0.317245
H 3.26686 3.00859 4.5338 -0.344949 -0.017116 -0.243688
H 2.67512 1.17861 1.89536 -0.285157 -0.099973 1.283453
H 2.09115 2.28271 9.07771 -0.374212 0.392931 -0.274934
H 0.71414 2.80725 11.6425 0.106539 1.936053 -0.831228
H 4.77348 0.30648 6.39763 -1.6055 0.543155 0.293749
H 10.021 7.21086 0.90867 0.55133 -0.256654 -0.01305
H 1.50234 6.83705 11.3255 0.823347 0.501446 0.198024
H 9.20777 0.96977 10.7709 -0.212332 0.506249 -0.316629
H 12.027 1.87793 7.33255 0.407451 0.100694 0.193781
H 5.33541 7.69493 5.28251 0.664394 -0.329224 -0.66548
H 9.5171 8.31648 9.00765 0.500779 0.232708 -1.171966
H 9.87904 12.2898 2.41256 -0.218828 0.098781 -0.071518
H 5.79598 0.25226 11.9006 0.218365 -0.078403 0.768527
H 11.5033 4.31596 2.79821 -0.069789 -0.689232 -0.370033
H 1.99903 1.08329 6.6683 -1.40783 -0.286906 0.634256
H 12.3938 0.71654 3.44391 0.077574 0.367036 0.112289
H 7.63438 11.8148 12.38918 0.166049 0.253453 0.570521
H 7.47336 8.73409 10.5842 0.487776 0.97932 -0.148697
H 5.26727 8.91433 0.91036 -0.179992 0.310742 0.050254
H 10.7982 10.3718 6.41383 0.64125 0.081919 0.081968
H 6.49748 1.97486 9.17604 0.029425 0.183623 -0.040219
H 10.3081 0.42417 11.6393 -0.065559 -0.198898 0.225555
H 8.32436 11.6723 4.01017 0.164346 -0.003775 0.888014
H 9.1827 10.5812 10.4925 -0.25979 0.192806 -0.096276
H 10.9179 7.91179 3.70124 -0.091694 -0.340736 -0.43961
H 5.48736 3.59188 4.23941 -0.617739 0.143029 0.214215
H 8.53657 11.697 1.78687 0.274434 -0.180033 0.470803
H 12.2 4.12152 8.47298 0.74194 0.817382 0.79408
H 11.3477 7.09128 1.89027 -0.900076 0.049418 -1.560486
H 10.0274 5.7202 6.50496 -1.315778 -0.284821 0.111031
H 3.32209 4.51452 9.2423 -0.163297 0.324139 -0.406079
H 10.2054 4.98874 9.60604 2.767588 0.418743 -1.546892
H 1.84407 3.51234 2.96422 -0.580944 0.948592 -0.112527
H 10.6172 6.31237 5.06439 0.340073 -0.412053 1.965197
H 5.58529 4.5008 2.9261 -0.054326 -0.248049 0.445138
H 3.70968 9.0888 3.9177 -0.644781 0.373754 -0.762733
H 6.94309 4.32547 10.9521 -0.940744 -1.055666 -0.098526
H 5.39556 7.26483 8.32633 0.713924 -0.869688 0.879033
H 4.59608 5.25338 9.61162 0.155671 0.390819 -0.034199
H 10.4094 10.4603 2.84924 0.181029 -2.217178 0.773707
H 0.86997 0.91497 5.66034 -0.506496 0.250588 0.789494
H 4.04816 2.44041 5.80386 -0.283204 0.459571 -0.597319
H 10.9325 5.58509 0.45382 0.154664 -0.91696 -0.280886
H 0.45508 10.2708 3.81867 -0.28027 -0.165987 -0.126603
H 12.2414 7.18693 3.87047 -0.771842 -0.399024 0.186983
H 2.65998 3.88995 12.0367 -0.758423 0.17471 -0.133675
H 2.98386 11.015 9.96111 1.201289 0.283548 -0.543612
H 5.71706 11.0132 9.43098 -1.535372 -0.346982 0.696677
H 12.1686 8.69545 10.8814 -0.049461 1.807167 0.19473
H 2.39973 9.96522 3.4624 0.70115 -0.552899 0.307831
H 0.67386 4.5376 9.76503 -0.505792 -0.525504 0.234487
H 10.5315 2.33741 7.39766 -0.182672 0.107976 -0.349863
H 1.41258 1.06977 0.10804 -0.001419 0.250113 0.655035
H 5.79033 5.95581 1.22384 -0.999288 -0.438555 0.378938
H 6.33084 10.8247 8.05782 0.321265 0.140704 0.858353
H 11.3653 10.4216 9.77016 -0.548603 0.027924 -1.09314
H 2.37796 7.09889 1.16616 -0.622505 0.136103 -2.16403
H 9.77436 4.98348 11.1415 0.266462 -0.39112 -1.636072
H 0.12577 11.759 6.8061 0.109376 -0.807737 0.178887
H 3.54302 6.49512 7.86724 -0.542889 -0.687027 -0.281216
H 1.60669 2.03383 3.51115 0.033561 0.16233 0.14208
H 0.44965 10.665 5.79295 0.345044 -0.354112 -0.705356
H 8.08958 7.33313 12.2839 0.107579 -0.710249 1.077505
H 8.63088 1.3121 6.41541 -0.287261 -1.053709 -0.745233
H 7.70419 6.34672 6.16604 -0.130997 0.261374 -0.236048
O 4.88548 0.44891 11.6819 0.35195 0.469022 -1.626748
O 9.34253 0.43162 11.566 0.123871 -0.362617 -0.104411
O 8.12235 6.23346 7.03792 0.209208 0.277842 0.786276
O 0.98504 8.37426 7.67403 0.262291 0.134992 -0.168762
O 3.42021 3.56679 0.13023 1.499876 1.022324 0.089981
O 6.92974 8.05144 10.9716 0.109564 -1.442161 0.265188
O 5.75869 11.0105 6.12778 0.092615 -1.489899 -0.570869
O 12.2412 7.75412 10.9836 -0.123871 -2.234173 0.867794
O 0.49795 1.13174 12.1286 0.109891 0.271763 0.527141
O 8.40443 6.84071 0.70483 -0.439026 0.653996 -1.167014
O 3.86933 3.26462 5.26368 0.99946 -0.631678 0.964745
O 10.8907 4.63321 0.06098 -0.090488 0.523225 0.591524
O 9.22743 11.5526 2.50091 -0.007118 0.703539 -0.534518
O 4.64701 8.36367 5.36366 0.329703 0.581498 -0.812829
O 11.2808 6.99587 3.63462 0.819936 0.746117 0.034818
O 4.03229 0.92402 6.71434 1.192742 -0.884777 -0.788539
O 2.6722 1.68801 9.54459 0.801139 1.11342 0.137374
O 3.20026 9.40218 3.10574 0.188397 0.069878 0.814912
O 10.0316 9.85235 6.10864 -1.146612 -0.462607 -0.141994
O 9.19034 2.4589 9.45864 -0.265025 -0.395497 0.634555
O 9.07359 3.89949 4.14217 -0.635504 0.341974 0.340637
O 6.90547 6.76412 4.63392 0.178359 0.794574 0.662342
O 9.48613 4.89624 10.1622 -2.809996 0.17388 3.528464
O 6.07807 4.13005 3.69472 0.980095 0.539017 -0.587259
O 4.32817 8.62685 12.0684 -0.192319 -0.779599 -0.296002
O 10.8817 3.59577 2.52431 1.205823 0.727823 -0.206011
O 7.14883 11.7884 0.84421 -0.096879 -1.136662 -1.305178
O 11.0256 7.12023 0.90219 0.24667 -0.148723 1.512487
O 0.56834 4.69867 6.11772 -0.486937 -0.288737 -0.583102
O 2.70144 7.11062 2.04028 0.677016 0.41134 2.44249
O 2.46329 6.81293 11.5833 -1.160034 -0.238623 0.027481
O 10.7408 9.567 3.28441 -0.368678 2.061333 -0.231596
O 12.3582 10.7936 6.64604 0.031077 1.221788 0.746351
O 3.80196 4.87242 10.017 0.119876 -0.49991 -0.001681
O 6.47073 3.47065 11.1687 1.145316 1.512069 -0.341188
O 1.26523 7.78207 4.90199 0.835512 -0.219026 -0.501101
O 0.76333 3.82115 11.3889 -0.780181 -1.77 1.174688
O 2.94832 4.6402 7.41586 -1.202628 0.644755 1.456828
O 6.06441 6.63802 8.75178 -0.912898 0.61301 -0.439338
O 11.4236 2.52571 7.75153 -0.116871 0.066915 -0.005943
O 11.9587 10.5145 10.4968 0.294253 -0.403171 1.397924
O 11.3175 1.02595 2.0883 -0.225972 -0.137115 0.428395
O 7.95973 8.39617 2.70921 -0.356584 -0.820004 0.47713
O 6.57633 10.9787 9.02497 0.654939 0.162003 -2.294683
O 1.20406 10.4167 4.41069 0.061641 0.154893 -0.346042
O 2.27204 2.71072 3.26163 0.642162 -1.097608 0.037454
O 0.75284 0.72984 4.08724 -0.636839 -0.004097 -0.530783
O 0.19016 4.89106 8.99039 -0.702323 -0.48148 -0.866948
O 3.61811 7.43714 7.69132 1.168314 0.327622 -0.148797
O 5.67592 9.48972 1.60903 1.635041 -0.495115 -0.585141
O 0.9854 0.99416 6.66851 1.881275 0.150508 -1.219307
O 5.83874 1.44851 8.6975 0.288367 0.827406 0.39887
O 1.66447 11.7468 9.41709 -1.077556 0.654968 -0.664182
O 9.97204 8.10265 8.14497 -0.128288 -0.026726 1.604364
O 8.78374 9.88681 9.95153 1.93792 -1.543824 1.340167
O 1.05661 5.17165 3.13166 0.176257 0.208244 -0.471922
O 4.97878 5.49163 1.55609 0.308539 1.21008 -0.482414
O 2.81187 1.17097 0.95942 -0.163944 -2.468058 -0.621025
O 8.09848 11.71 4.98104 0.817258 -0.951765 0.570254
O 3.98677 10.8186 10.1558 -0.892225 -1.514027 -0.494759
O 8.86168 2.14213 6.80776 0.474129 0.796554 -0.371879
O 10.7725 6.10507 6.06919 1.073699 0.781172 -1.959437
Na 12.0847 7.04878 8.97749 -0.132951 0.145762 -0.740691
Na 4.4364 2.55067 10.5355 -0.043761 -0.154109 0.215537
186
energy=-1002.53880106 config_type=nep2xyz pbc="T T T" virial="-12.003302622851091 -6.448391186005204 2.878696764306361 -6.448391186005204 -2.064377219345282 4.554770095649772 2.878696764306361 4.554770095649772 -9.314497526973962" Lattice="12.4 0.0 0.0 0.0 12.4 0.0 0.0 0.0 12.4" volume=1906.6240000000003 Properties=species:S:1:pos:R:3:force:R:3
H 9.0385 9.13029 6.76085 0.159652 0.108187 0.015396
H 0.44355 8.37273 4.80416 -0.044225 0.032101 0.11074
H 6.76276 4.94268 6.17263 -1.119189 -1.351639 0.145936
H 7.03185 10.2031 6.65463 0.087596 -0.121208 0.31033
H 0.90853 6.12728 3.54246 1.892782 0.663319 -0.464016
H 0.90515 7.39844 6.99418 0.42073 -0.067254 -0.47818
H 10.1809 10.3726 5.02331 -0.151178 0.314532 0.997368
H 11.4151 8.75921 6.44188 -1.29425 2.514779 0.169983
H 5.54335 3.67838 3.02694 -0.775545 0.632102 0.482787
H 11.1215 8.02275 11.4447 -0.579055 0.498838 0.697798
H 5.49599 5.21191 8.99017 -0.552284 -0.166726 -1.017172
H 7.82516 0.44659 10.0811 -0.502466 -0.143729 0.459086
H 1.94683 8.5709 8.67252 -0.004808 -0.313961 0.21068
H 0.57231 0.06247 4.78743 -0.347309 -0.359718 -0.153723
H 12.1334 8.74413 10.44 -0.053914 -0.158002 0.229124
H 1.05264 3.82062 6.34529 0.604953 0.610665 0.28175
H 10.4727 10.1745 2.9864 0.347849 -0.843403 -0.273729
H 3.3311 7.07769 11.9595 0.229176 -0.144074 0.076882
H 4.51053 9.68572 2.88329 0.422408 0.620032 0.290836
H 7.46313 7.33079 11.4193 0.039798 0.323287 0.306052
H 1.35478 5.78498 11.7573 1.079711 0.273089 0.444783
H 2.53165 7.72497 6.76877 -1.654925 -0.843756 0.827839
H 10.1905 8.66193 1.21471 0.370084 0.094823 0.793137
H 1.03915 1.5923 2.84883 -0.545781 -0.618017 0.72002
H 7.83646 5.87206 5.77466 -0.790441 0.295911 1.538043
H 8.949 7.33617 4.18185 -1.218988 0.549286 0.101628
H 6.34067 10.5836 10.0873 1.483211 1.29538 0.742189
H 0.01765 11.751 12.2256 -0.031858 0.067126 0.560811
H 0.94927 2.0391 0.23189 0.209511 -0.086895 0.028326
H 11.7645 6.33535 3.67436 -0.333946 -0.283125 0.709117
H 0.64419 2.11242 4.25417 0.104579 1.876848 1.448682
H 7.59791 4.66316 2.11641 0.04655 -0.476923 -0.291546
H 10.4697 7.18202 9.20414 -0.043213 -1.035246 -0.909478
H 3.09489 4.26702 7.72306 -0.441794 0.249707 -0.186534
H 4.68353 7.16151 10.2348 -0.30424 1.607321 0.722762
H 6.72881 9.98456 2.68746 -1.958937 0.560131 0.091822
H 3.213 10.6975 6.14957 0.293731 -0.657501 0.24076
H 7.18056 0.54488 1.2419 1.175807 1.008855 -0.761454
H 0.46934 4.5412 10.2728 -0.51705 -0.15904 0.154252
H 4.34545 1.55305 10.2898 0.811157 -0.22198 0.310851
H 5.73741 4.38957 0.31366 0.899299 -0.202221 1.4602
H 8.74372 0.98576 1.40896 0.020418 -0.069146 0.031622
H 8.69884 10.6268 3.20222 0.399987 -0.911267 -0.217916
H 9.53981 6.0139 2.72513 0.486277 1.096621 0.874993
H 3.7347 8.76458 5.37124 -0.259705 -0.244073 0.776849
H 4.34108 9.16627 6.82835 0.204907 -0.15154 -0.088415
H 5.22147 11.4545 1.34252 0.703596 0.481229 0.480185
H 9.42044 7.33745 0.70664 0.817059 1.055426 0.119029
H 0.9644 4.0555 8.89644 -0.019802 0.1082 -0.4907
H 8.49706 2.16768 10.5503 -2.272242 -0.407374 0.904399
H 10.0509 2.7346 6.58666 -0.674782 -0.0296 0.539705
H 5.38938 0.48369 5.43689 -0.049196 0.59033 0.119204
H 12.1641 4.83872 2.23095 -0.892769 -1.242886 -0.363759
H 11.1597 2.87983 5.61217 -0.116887 -1.683759 0.752589
H 1.44759 12.2555 9.97902 -0.613007 0.009771 0.266546
H 12.2114 11.1124 5.31239 0.176446 0.136388 -0.091476
H 6.90053 0.42744 5.49422 0.231463 0.697423 0.739637
H 5.3896 3.50363 5.12637 0.234853 -0.471339 0.009174
H 7.53297 3.12568 1.75535 -0.542027 0.391753 -0.117346
H 7.6869 8.22985 3.8503 -0.398537 1.140756 -1.01545
H 6.23379 11.5635 6.83991 -0.053486 1.496952 -0.423418
H 3.52447 5.33791 3.15584 -0.385874 -0.022193 0.081468
H 9.1422 1.11629 5.22208 -0.175213 0.122523 0.291234
H 4.50396 3.24278 8.76822 0.524614 -0.343458 0.249977
H 4.12803 1.11024 1.56704 2.086914 -2.410612 -1.94304
H 5.04542 12.0928 12.3907 0.779779 0.798626 0.552041
H 7.57836 1.59134 11.7436 0.532977 -0.465615 1.769427
H 4.28529 2.86263 3.14439 -0.15345 0.88964 0.180182
H 2.31843 0.34036 7.75675 0.609615 -0.368039 -0.425164
H 8.41814 8.45438 10.9001 0.6204 0.851813 0.684942
H 9.63694 10.8285 11.0098 -1.799539 0.622578 0.414976
H 12.0537 4.90073 0.73176 -0.501729 -1.042349 0.052934
H 1.49024 10.7629 10.1478 -0.084032 -1.344838 -0.308863
H 10.7236 7.85852 3.02094 -0.293338 -0.482593 1.058699
H 6.01483 5.54792 10.2804 0.707592 -0.971929 3.13982
H 7.38695 8.85721 1.84637 -0.271675 -0.401423 -0.711361
H 1.96623 11.5854 6.1636 0.981676 0.239072 -0.419787
H 6.00255 10.1419 8.65236 0.020103 0.119068 0.55908
H 2.86018 2.04205 1.50574 0.845912 -0.574774 1.027313
H 5.44699 3.63666 11.4424 -0.875268 0.536628 0.113896
H 8.07724 8.24724 5.94421 -0.077234 -0.189968 -0.320928
H 11.1776 0.9943 2.82092 -1.286424 -0.972985 -0.286578
H 10.3141 0.63203 8.83526 -0.442624 0.732325 0.823688
H 2.59315 2.45991 11.4747 0.734703 0.751019 0.216024
H 9.57075 4.74663 8.19116 0.379063 -0.022421 0.522127
H 8.92599 12.2467 4.43427 -0.054362 -0.523794 -0.009197
H 8.39797 11.7429 9.21022 -0.34865 -0.210534 0.082037
H 5.00862 3.44886 7.22053 0.132737 0.527276 0.59227
H 0.38406 2.85487 1.43186 -0.404944 0.801204 -0.199783
H 11.0001 2.67816 9.67813 -0.939073 -0.224263 -0.381015
H 2.19744 5.44474 7.15254 -0.382587 0.723821 0.311653
H 10.4831 11.5234 9.3117 0.100991 0.610745 -0.610725
H 2.96765 11.983 10.7761 -0.216797 -0.214872 0.350348
H 4.89247 8.75509 10.4213 -0.037242 -0.431882 -0.153665
H 3.75168 5.57801 12.1906 0.31959 -0.010957 -0.235998
H 5.98453 6.39452 0.61635 -0.665492 -0.844737 0.219003
H 0.16936 9.24084 3.50256 0.313646 -0.374507 0.083937
H 0.1567 6.54618 11.0116 0.313341 -1.527506 1.188519
H 6.26154 2.3849 5.93937 -0.574404 0.270032 -0.188652
H 10.7482 6.54464 7.76969 0.644165 0.626515 -0.508729
H 11.6849 10.1198 1.79686 0.281705 -0.073553 -0.079904
H 10.1118 12.0997 2.79136 0.369241 -0.007956 0.51555
H 5.58601 7.71527 12.2146 0.510039 -1.06539 0.628839
H 2.73299 8.80874 9.96334 2.487798 -0.742377 1.125042
H 11.3959 12.2773 1.0121 0.415382 -1.197715 -0.600911
H 11.0132 10.7138 11.6562 -0.313446 0.166462 0.091703
H 4.40362 11.602 10.2992 0.308823 -0.592041 -0.507134
H 8.30111 4.53756 7.50523 -0.891478 -0.186617 -0.648399
H 1.38041 2.84537 10.4606 -0.053652 0.385244 0.084066
H 3.80952 0.93095 3.73279 0.554134 -1.375135 0.775159
H 0.44451 4.38614 4.95863 0.136402 0.752264 -0.006458
H 5.93533 1.98108 10.235 -0.44434 -0.178153 0.133745
H 11.0531 7.5473 5.41119 0.641832 1.007257 0.413449
H 9.69432 2.75562 8.7867 -0.563816 0.945027 -0.56582
H 10.4206 11.1095 6.47915 -0.426774 0.133163 -0.088401
H 3.6596 0.0202 5.10506 -0.386732 -0.297949 -0.388181
H 1.97007 1.61336 8.58637 0.076137 -0.161064 0.115914
H 3.43595 7.53111 3.42575 -0.085411 -1.392081 -0.618501
H 4.69247 11.1461 3.38857 -0.695125 1.388782 1.09546
H 9.80791 4.89261 1.76586 -0.373682 0.351147 -0.165446
H 2.86846 5.74006 1.84726 -0.065735 0.669318 -0.294875
H 2.47455 8.65072 3.81372 -1.06848 0.170029 0.043467
O 7.95896 7.67043 10.6531 -0.419766 -1.19136 -1.152777
O 3.65574 1.72859 2.04471 -3.008227 2.771081 1.095468
O 1.62975 0.76025 8.27839 -0.527084 0.500124 0.379482
O 0.34961 11.8869 5.56096 0.357339 0.291732 0.566211
O 3.162 6.28447 0.10027 -0.666521 -0.295593 -0.077905
O 5.8513 5.97159 9.48044 -0.561973 0.926451 -2.149429
O 6.12685 0.73947 6.05008 0.21628 -0.913523 -0.852239
O 10.4887 10.4721 10.8596 1.427248 -0.487369 -0.938365
O 0.15046 5.6849 3.86664 -1.640612 -0.679128 -0.319563
O 9.89851 8.17173 0.44196 -0.918122 -1.339287 -0.910172
O 5.94835 3.33693 5.93078 -0.095612 0.224538 -0.167955
O 10.1487 6.53249 8.51059 -0.60092 0.435655 1.380329
O 1.8789 2.13961 10.9445 -0.634049 -1.253719 -0.29699
O 7.53009 1.9314 10.857 2.310177 1.396011 -2.779838
O 10.3789 0.56743 2.37775 1.105653 1.070888 -0.298645
O 2.85349 5.95737 2.79193 0.59934 -0.697076 0.494277
O 7.92172 7.53041 4.44147 2.33056 -1.698127 0.871438
O 3.90659 12.2487 10.7997 0.307881 0.478606 0.367283
O 2.98087 11.6298 6.26136 -1.919488 0.410649 0.586079
O 0.45994 5.62352 11.4666 -1.308266 1.533432 -1.307714
O 7.77823 11.8761 9.95353 0.699774 -0.202497 -0.493488
O 9.10812 5.54867 1.99479 0.059954 -1.148653 -0.833639
O 1.02365 2.15968 1.19857 0.470447 -0.449063 -0.150185
O 10.3309 12.1216 8.51732 0.40906 -1.680144 0.082084
O 0.37791 3.76906 9.62822 0.324694 0.218548 0.034772
O 9.59993 10.7356 3.54616 -0.030021 1.561807 0.82323
O 10.478 7.16003 3.68988 -0.085619 0.200971 -0.318181
O 8.49359 0.39801 5.11074 0.58431 0.117809 -0.326732
O 10.6127 2.1395 6.07278 0.792376 1.825799 -0.945675
O 10.1571 2.20705 9.42294 1.585676 -0.472141 1.143351
O 4.59835 3.88431 8.04435 -0.060859 -0.046398 -0.336427
O 0.90142 8.89643 4.12691 -0.068673 0.402314 -0.24643
O 4.21184 0.19017 4.29211 -0.403847 1.35881 -0.879422
O 6.29646 7.24009 0.34287 0.150523 2.030661 -0.785942
O 4.35966 7.98057 10.7685 0.773853 -0.822836 -0.926363
O 0.59693 1.34998 3.71351 0.302163 -1.195314 -1.99489
O 6.33388 10.6706 7.14549 -0.294443 -1.766723 0.38627
O 7.31635 5.59255 6.5995 1.834065 1.227707 -1.522774
O 10.5386 10.2873 5.99041 -0.118732 -0.251645 -0.799269
O 5.56511 12.2406 0.83674 -1.748874 -1.104795 -0.89196
O 11.6469 7.91381 6.15566 0.710359 -4.000818 -0.91929
O 11.7536 7.90252 10.7257 0.384957 -0.750933 -0.915954
O 7.91072 1.18652 0.94234 -1.068607 -0.764416 0.916371
O 4.99793 2.28764 10.2865 -0.345687 0.420448 -0.434243
O 11.3957 9.54935 2.527 -0.496576 0.321315 -0.216758
O 3.42301 8.41692 3.76855 1.179938 1.569586 0.553885
O 1.90135 8.92346 9.57998 -2.610274 1.03879 -1.236595
O 8.97337 4.00956 7.96845 0.77771 0.171676 -0.016707
O 3.53313 8.89273 6.37065 0.468723 0.420177 -1.159961
O 7.53387 9.5301 2.50265 1.640569 -0.452706 0.304428
O 11.7645 4.27507 1.46376 1.346882 2.350107 0.553294
O 5.83299 9.94807 9.62581 -1.647753 -1.177317 -1.157272
O 1.29232 11.5528 10.652 0.306484 1.186751 -0.196553
O 4.66085 3.70694 3.52621 1.225866 -0.902487 -0.803981
O 8.19691 8.65491 6.84011 -0.150613 0.049005 0.149654
O 5.0989 10.4937 2.83707 -0.083228 -2.044572 -1.237059
O 0.50377 3.6331 5.57308 -0.948385 -1.342128 -0.703485
O 6.969 3.92558 1.87633 0.218391 -0.034801 0.220144
O 5.21439 4.47522 11.9292 -0.100606 -0.574744 -1.386132
O 11.7941 11.4721 0.53158 -0.012664 1.183232 0.024676
O 1.81624 7.11626 7.22403 1.073429 1.215018 -0.530288
O 2.14737 4.55537 7.54057 0.18466 -1.294782 0.253803
Na 11.9497 0.78548 7.34703 0.15816 -0.082653 -0.396192
Na 7.58424 7.0068 8.46753 0.372162 0.326984 -0.043157
186
energy=-1002.12408033 config_type=nep2xyz pbc="T T T" virial="-7.663926348005298 -4.360832355448531 -1.383185335894375 -4.360832355448531 -1.5070546331733048 -5.72308522002831 -1.383185335894375 -5.72308522002831 -11.709474510725618" Lattice="12.4 0.0 0.0 0.0 12.4 0.0 0.0 0.0 12.4" volume=1906.6240000000003 Properties=species:S:1:pos:R:3:force:R:3
H 8.24844 8.83862 10.9359 -0.003865 -0.201079 0.272268
H 9.35891 8.0984 1.8089 -0.430742 -0.517598 -0.284059
H 5.9813 3.38236 5.84075 -0.239557 -0.159315 -0.745561
H 5.52356 11.2748 5.43049 -0.765435 0.193646 -0.614454
H 0.90658 2.17705 4.13583 0.106973 0.694268 0.595334
H 0.52675 7.53175 3.44258 1.165697 -0.638165 0.502104
H 0.93427 5.2457 5.20397 0.956565 -0.393968 -0.890086
H 11.3774 8.4564 5.80025 0.055235 -0.503236 -0.522873
H 8.44701 4.28685 3.01493 0.454178 -0.284824 -1.298864
H 11.1065 10.4647 12.0521 -0.997024 0.127674 0.688002
H 4.46319 7.02855 11.1157 0.0238 -0.420803 -0.063619
H 3.09629 1.24756 7.01137 -0.25813 -0.360388 -0.589599
H 11.8168 8.40861 8.54504 0.691648 0.389661 0.543478
H 10.7353 8.20543 4.01003 -1.411723 1.162088 -0.740244
H 11.8339 9.88001 10.7957 0.215794 -0.09256 0.097851
H 3.45074 0.88427 1.25974 -0.085286 0.483179 -0.037662
H 5.76315 9.07057 2.41576 -1.016144 1.186979 0.031796
H 2.39087 8.53204 0.86937 1.04466 2.743674 -0.858246
H 3.34747 10.3767 4.64103 0.441465 0.691101 0.20384
H 4.95716 9.21863 9.65099 -0.643036 -0.025415 -0.135514
H 0.81627 7.51098 12.3775 0.8003 -0.349585 0.20187
H 1.99372 7.86495 3.9781 -0.035342 -0.82318 -0.123843
H 6.81222 7.06893 2.10771 -0.61722 -0.464864 -0.483429
H 1.16988 10.6199 2.41432 1.04139 -0.660478 -0.333692
H 6.91878 3.28044 4.661 -0.378615 0.252834 -0.522714
H 11.1224 6.58646 2.84258 0.163232 0.283237 -1.031814
H 7.01274 0.17091 8.36626 -0.940439 0.714741 -0.202317
H 11.9867 5.01033 1.196 0.737085 -0.536414 -0.335953
H 5.38561 2.13868 0.31962 0.054086 -0.476125 -0.367396
H 1.92421 3.3466 4.33648 -0.909997 -0.873655 0.600176
H 12.0406 10.3064 2.18568 0.683214 0.646873 0.447584
H 9.18148 3.53549 0.43843 -0.838139 0.77722 0.289657
H 1.57719 3.93867 8.83014 -1.345572 2.275831 -0.986606
H 6.23566 2.14862 8.41397 1.064975 1.859869 -0.56479
H 7.72789 3.06752 7.06038 -0.147035 0.48914 0.336065
H 5.47303 5.6063 5.35307 0.082341 -0.173812 -0.330462
H 9.63986 9.01471 6.56951 -1.771695 -0.791628 -0.653543
H 11.3662 6.56042 11.1199 0.852461 1.191681 0.602833
H 5.30214 4.72243 2.06608 0.981379 1.507835 -1.033307
H 2.26622 11.6271 9.92733 -0.452752 0.660479 0.855143
H 6.8577 0.53728 11.5377 0.100808 0.572463 0.197032
H 10.7256 5.26325 10.7316 -0.078131 -0.918083 -0.056491
H 4.91662 10.3619 3.04089 0.749677 -0.162517 -0.049621
H 9.63348 5.36033 1.66047 1.414672 1.453505 0.061174
H 2.40877 10.0571 7.91544 -0.758801 -0.702385 -0.016652
H 3.10139 8.77672 8.09717 0.267796 -0.37215 0.176537
H 10.07 0.17858 1.3749 -0.017597 0.655397 0.48392
H 6.34693 5.48898 0.27365 -1.38833 -0.855864 -1.009008
H 5.27707 3.98741 3.38808 1.163036 -0.711931 2.378428
H 12.0431 3.48148 11.6192 -0.073965 -0.126656 0.419123
H 9.6076 6.20188 9.11151 -0.300973 0.107494 -0.436744
H 11.6 4.12132 6.36854 0.697194 1.186789 -1.21124
H 7.96769 6.93277 12.3735 0.149997 0.266896 -0.324852
H 9.70428 6.23909 7.55113 -0.272037 -0.076605 -0.536876
H 1.74212 12.3007 12.0792 -0.179612 0.727771 -0.504468
H 10.2086 6.52399 4.94529 -0.551066 0.720464 0.489872
H 11.4331 4.00366 7.88021 0.104169 0.063594 -0.119313
H 3.81037 7.84615 5.42879 -1.243891 0.980018 -0.482059
H 8.28279 2.67614 11.7193 1.159734 0.094467 1.253447
H 11.381 6.94537 1.25374 0.389899 0.492357 -0.185696
H 5.60212 10.14 6.43097 0.58614 0.898195 -0.89791
H 1.73893 5.40139 3.19214 0.486129 0.370499 -0.422428
H 9.79325 2.66992 6.59552 -0.869551 0.461322 -0.686682
H 0.44162 5.68785 7.62024 0.111447 0.157483 -1.025643
H 9.69078 0.68713 3.76139 0.45624 -0.295913 1.379669
H 9.70641 1.71346 1.27354 -0.33086 0.18867 -0.566405
H 10.6607 2.78104 11.3933 -0.184563 -0.009539 0.29816
H 8.60063 4.88027 4.363 -0.056998 0.131334 0.688872
H 12.2408 11.0093 4.54583 0.631326 -0.498302 -0.686327
H 4.08425 10.4598 9.13449 -0.238014 0.134234 0.290669
H 8.9591 11.0562 0.53582 0.91116 -0.552653 0.346224
H 9.29473 6.98172 11.4872 0.603548 -0.513702 -0.311966
H 0.45977 11.6623 11.6051 -0.077631 -0.218956 -0.600319
H 9.00506 7.20925 5.70176 -1.034371 2.507337 0.247793
H 5.72083 7.84437 11.3244 -0.61646 -0.359314 -0.849353
H 6.23294 6.62583 6.21306 -0.511524 0.23546 -1.119767
H 8.30783 9.35918 5.71642 -0.462505 0.804087 -0.915339
H 7.37209 11.6949 7.07759 -0.601842 0.357505 -0.650738
H 9.66891 1.06864 5.34804 -0.387676 -0.282606 -0.764429
H 6.36731 1.41518 10.356 -0.285986 0.131981 -0.145681
H 8.78043 10.2657 10.4213 -1.081819 -0.882998 -0.559108
H 0.35744 0.09443 2.84904 0.536774 1.06341 0.216721
H 9.13719 11.7555 8.74532 1.054023 -0.31876 1.950635
H 11.9959 1.68556 7.13025 0.226122 -0.918749 -0.11382
H 7.42927 6.88548 8.07761 0.329224 -0.063401 0.26827
H 8.90233 3.04523 5.27806 0.233686 -0.349727 0.5499
H 3.12824 1.8302 8.46484 -0.298155 0.526847 0.004848
H 0.25794 6.27613 9.02073 0.102855 -0.13186 0.015563
H 4.65672 2.911 1.42855 -0.10224 0.016252 0.637635
H 1.79957 3.56733 12.3813 2.247354 -0.075707 -1.841463
H 5.02613 1.279 8.15956 -1.383034 -0.342315 -0.408041
H 9.62373 12.1865 10.2388 0.033133 -0.073166 -0.601701
H 7.23505 10.6481 11.5904 0.771593 0.388265 0.143082
H 7.60583 4.36726 7.96557 -0.841466 -1.226617 -0.665541
H 1.94287 7.53122 1.62503 -0.25796 -1.65755 1.393942
H 3.63816 4.90143 12.0923 0.303682 1.160995 0.243321
H 8.21523 8.67191 2.75188 0.035355 -0.453278 -0.344899
H 12.2716 8.71506 12.2511 -0.35203 -0.177587 -0.317894
H 2.59993 8.66021 6.09887 0.293157 -0.145334 -0.296053
H 2.38262 3.44605 10.0195 0.203641 0.232473 0.98105
H 6.33025 7.28057 3.63632 0.109827 0.023015 -0.299895
H 12.0607 1.2968 2.32814 0.079072 0.545051 0.263769
H 3.53859 6.41191 0.24793 -0.160776 -0.26295 0.326955
H 0.83456 8.88697 8.91216 0.623789 0.058743 -0.58004
H 0.95065 4.32287 1.62418 -0.864181 0.241176 -1.297554
H 9.73086 10.0854 1.48731 -0.51018 -0.645556 0.629544
H 6.62907 10.9354 0.55916 0.845752 0.847513 -0.162334
H 6.00045 6.92884 8.78512 0.691882 0.502816 -0.666152
H 12.155 0.0544 6.99798 -0.41554 -0.185185 -0.698449
H 2.01566 1.46728 5.25192 -0.361441 1.022669 -0.117417
H 1.87702 0.94213 1.68151 0.010239 0.124643 0.45817
H 2.94366 12.1091 8.52464 0.373843 1.64108 -0.02533
H 11.4904 9.96161 6.22278 -0.531796 -1.067722 0.480731
H 3.19849 2.81654 12.1473 1.682497 -1.816037 1.309404
H 12.225 6.34757 5.25904 -0.040551 0.49599 -0.509495
H 1.74137 0.10982 5.96603 -0.216851 0.105548 -0.031081
H 11.265 12.024 5.05507 -0.57177 0.082446 0.230055
H 2.72427 11.1412 1.40592 -0.011227 0.628558 -0.092281
H 3.40688 12.0079 4.7787 -0.240113 -0.449492 0.071455
H 7.95704 5.35865 1.25758 0.995606 -0.127181 -0.09643
H 3.05692 4.81417 2.568 0.855137 -0.007062 -0.05025
H 3.65251 10.0461 1.94068 0.459706 -0.472442 -0.190965
O 4.7115 9.77042 8.87389 1.027111 -0.425924 -0.200773
O 9.88125 0.35218 4.6956 -0.129953 0.553204 -0.978866
O 11.9779 11.4047 5.37664 0.014372 0.116178 0.608346
O 11.3987 7.6005 4.26716 1.752339 -1.514829 0.165566
O 2.39147 7.59828 0.77398 -0.311548 -1.096903 -0.264565
O 5.02949 7.66415 10.6338 1.14117 0.630555 0.774452
O 11.3455 3.51684 7.04413 -0.760553 -1.602621 1.420361
O 9.89141 10.7905 0.84677 -0.888801 1.415919 -1.124706
O 1.32829 2.73187 4.87592 0.269873 0.709445 -2.137252
O 6.88685 6.1083 0.71141 1.952527 0.864833 1.538934
O 3.02283 8.4405 5.22053 1.145932 -0.584537 0.654576
O 2.0214 3.19953 9.16597 1.042314 -2.689319 0.163363
O 12.366 0.84088 7.49251 0.325521 1.523035 1.147582
O 11.5649 2.87539 11.0314 0.325018 0.108828 -0.659613
O 0.49885 1.10575 2.81331 -0.983705 -1.193679 -0.555116
O 2.14698 4.60633 2.78208 -1.325951 -0.352472 0.76967
O 11.0271 6.28468 1.87262 -0.086438 -0.357778 1.183588
O 7.31707 11.3167 12.3385 -1.567157 -1.135084 0.361194
O 8.59286 8.73373 6.36422 2.006733 0.514939 1.6543
O 12.2828 7.72926 12.3098 -0.857359 -0.37005 0.257658
O 3.50334 1.14345 7.8948 0.061374 0.021866 0.304054
O 8.87153 4.81299 1.61252 -2.858023 -1.296646 -0.745683
O 4.54732 2.1609 0.80995 0.24589 0.022105 -0.428218
O 9.78704 11.5207 9.54494 -1.206919 0.53809 -0.981034
O 4.82539 4.10334 2.58111 -2.006104 -0.320037 -1.492805
O 5.24562 9.95193 2.21019 0.659446 -0.727815 0.402035
O 9.43244 6.39866 5.55365 1.438106 -3.687173 -0.687858
O 8.93637 2.47637 6.10601 0.931583 0.180545 0.062389
O 9.07846 6.12933 8.28234 0.167377 -0.127015 0.862302
O 2.64959 3.46088 11.7613 -3.968224 2.103615 0.57423
O 0.39549 5.43617 8.5434 -0.141396 0.06907 0.835998
O 9.14415 8.7656 2.46624 0.526348 0.756204 0.507744
O 2.44827 0.67559 5.62644 0.692023 -1.355533 0.333263
O 4.16405 5.72898 12.3263 -0.529916 -0.975624 -0.436958
O 7.06303 3.59921 7.60129 1.029846 0.775974 0.306774
O 0.27984 10.8579 2.69351 -1.533016 -0.341333 0.015043
O 6.17907 10.7737 5.92052 0.282689 -1.479109 1.658998
O 5.95512 3.21152 4.86551 0.398903 0.260751 1.263502
O 0.25382 5.61863 5.72852 -1.099503 0.001918 1.549887
O 10.1097 1.05231 1.84613 0.563721 -1.112352 0.365855
O 11.1636 9.04666 6.55382 0.347572 1.633462 0.156231
O 11.9639 10.1729 11.7228 0.631407 0.31249 -0.931703
O 10.6109 6.20692 10.6536 -0.590194 -0.378123 -0.589892
O 2.48186 11.4342 9.02045 -0.01477 -2.144363 -0.77527
O 6.52911 7.72449 2.78272 0.292469 0.461834 0.808237
O 2.73186 10.2024 1.65063 -1.046757 -0.409282 -0.07345
O 0.05898 8.47428 9.29645 -1.525475 -0.443474 -0.118797
O 6.54085 7.29092 8.03428 -0.75762 -0.228187 0.453141
O 2.26797 9.08613 7.71385 0.303912 1.025741 -0.013392
O 5.83416 6.50052 5.29466 0.253752 0.202151 1.435373
O 8.6951 7.54237 11.979 -1.047326 0.59043 0.595055
O 7.65753 11.9919 7.9457 1.641958 -1.188394 0.516989
O 1.12352 12.3238 11.2999 0.69153 -0.368041 1.037324
O 8.38038 4.0236 3.95738 -0.040971 0.115644 1.392406
O 7.96691 9.65253 10.439 0.932392 0.701 -0.172772
O 3.92129 11.1798 4.61159 -0.032513 -0.522018 -0.466673
O 2.594 0.41817 1.28136 -0.00692 -0.646935 -0.657549
O 9.13768 2.75599 12.2523 -0.550801 -0.837141 -1.338291
O 6.73407 1.47795 11.2566 0.164417 -0.475103 0.344636
O 0.29416 4.38472 0.83412 0.354343 0.16677 1.42409
O 1.51064 7.21187 3.39742 -1.455935 1.133031 -0.285636
O 5.82308 1.34935 8.68642 1.164398 -1.226426 1.38751
Na 0.55948 1.49881 9.79211 -0.28715 -0.005308 -0.204848
Na 7.07125 9.67713 8.23102 0.186496 -0.374869 0.167942
186
energy=-1002.64455259 config_type=nep2xyz pbc="T T T" virial="-6.088136095552226 3.1439524695947982 5.365936084670904 3.1439524695947982 -10.759659162246631 4.210544589540605 5.365936084670904 4.210544589540605 -15.335754436177108" Lattice="12.4 0.0 0.0 0.0 12.4 0.0 0.0 0.0 12.4" volume=1906.6240000000003 Properties=species:S:1:pos:R:3:force:R:3
H 11.3234 11.8531 9.86867 -0.080592 0.688171 -0.08082
H 10.6008 11.0806 3.61831 0.863388 0.16627 0.611215
H 4.18882 4.39843 6.21886 -0.21315 0.055914 -0.237132
H 7.03264 12.3146 4.88338 0.411738 -0.228478 0.212195
H 0.13651 1.26336 2.77722 -0.068908 -0.152464 0.315012
H 1.70431 7.32848 3.94973 0.45822 1.756734 -0.568877
H 1.98061 3.23626 11.3978 0.708657 -0.309436 0.950954
H 12.2846 7.98545 10.7967 -0.248418 -0.217052 0.188559
H 9.15621 8.78803 5.79612 -0.152179 0.893967 1.370951
H 11.763 10.1088 10.8474 -0.076888 0.189471 -0.43406
H 4.09078 8.25031 10.1079 -0.111805 -0.055889 0.236494
H 2.96936 2.41565 6.11719 0.427662 0.397893 0.629173
H 12.2725 9.77062 7.33085 -0.579335 -0.13372 0.623615
H 1.81791 6.19354 5.06368 -0.460617 0.386926 -0.747965
H 0.93731 8.63397 2.51989 -0.381087 -0.221389 -0.680497
H 5.7965 8.34725 4.19599 0.115268 -0.490965 -0.543935
H 4.86698 6.87166 5.69747 -0.08624 1.516768 0.16412
H 3.29059 5.36773 1.11223 -0.396093 0.794341 -0.007222
H 7.42792 0.55695 2.89908 1.020472 0.153216 0.623497
H 6.06296 9.58426 10.7946 -0.953088 -0.197683 -0.415169
H 0.90694 0.97306 6.69175 0.084935 -0.148132 -0.250588
H 2.54969 4.15766 2.51314 -0.265882 -0.540307 0.131251
H 7.13923 11.5861 2.51093 0.337498 -1.042595 0.75128
H 2.81577 10.561 12.3132 -0.246048 -0.444757 -0.932934
H 5.64252 4.84761 6.42946 -0.188474 0.517212 -0.020062
H 10.8713 7.50379 1.2794 0.763329 0.921469 0.480939
H 7.79114 10.9531 10.0007 -0.151777 0.488056 -0.32323
H 0.4052 4.21659 11.9762 -0.010875 -0.254918 -0.85336
H 2.34101 1.34931 0.62615 -0.418299 -1.039014 0.672282
H 11.8499 5.95501 4.18665 0.160581 0.333685 -0.094236
H 0.96205 9.96552 11.0285 0.032164 0.07579 0.109075
H 7.74895 2.6856 11.7858 0.597053 1.13178 0.493943
H 0.21282 1.9014 11.3807 1.90072 0.358737 -0.400063
H 4.84955 2.20241 9.55765 0.624514 0.64942 1.358257
H 8.06036 2.01933 8.30455 -0.242639 0.558562 -0.5026
H 4.5672 3.59302 3.60089 -0.310081 -0.503643 -0.413957
H 11.2163 8.30429 8.87267 0.792 -0.298648 -2.846411
H 6.24269 4.26587 10.4119 0.592706 0.938306 -0.051143
H 3.19595 2.55006 1.68823 0.034799 0.031055 1.526966
H 4.91742 0.06442 10.3111 0.302602 0.145752 0.218824
H 1.99116 1.57843 10.3629 -0.341016 1.177346 0.060695
H 7.15431 5.4806 10.7791 1.216948 0.539286 0.939929
H 12.0767 9.39545 0.93852 0.290697 0.704756 -1.559748
H 8.43088 4.1279 12.137 -0.28573 -0.430639 0.345534
H 4.13387 10.9028 6.06379 -1.122362 -2.594536 2.039913
H 5.20805 11.8042 5.66827 0.3935 0.370127 -0.1442
H 7.36986 5.89156 0.73282 0.969685 -0.321727 -0.57607
H 5.81546 5.02234 2.4717 0.468749 1.29807 -0.603742
H 2.36239 2.2063 3.07865 0.323859 -0.10303 -0.197915
H 10.3175 2.79118 7.63009 0.657557 -0.106182 0.958084
H 8.08219 3.47999 6.85893 -0.539851 1.09418 0.049846
H 12.095 5.46304 6.93779 0.081569 -0.117206 0.772968
H 10.0047 4.96449 8.75569 -0.111837 0.353849 1.104831
H 9.06685 2.85793 5.80171 0.670653 0.089134 -1.985411
H 2.49496 11.5494 11.1563 -0.423498 0.788385 -0.522647
H 8.09076 7.69359 7.20024 -0.212798 -0.131209 0.402753
H 10.7534 5.4087 6.33115 -0.611607 0.278994 -0.343311
H 1.52121 5.08561 8.06278 -0.104433 0.926229 0.032987
H 5.75518 2.95484 11.9841 -0.027603 0.050306 -0.144209
H 11.1994 5.93835 0.98965 -1.093599 1.393851 0.03029
H 6.81788 0.83441 6.11094 0.00698 0.867671 0.214453
H 10.4882 6.73292 4.08032 -0.174736 0.318544 -0.117728
H 11.3891 2.84287 1.26099 -1.016001 -1.300572 1.779821
H 1.28045 6.30211 10.2115 0.345928 -0.362389 -0.355713
H 5.78535 8.92269 6.7795 0.60498 0.012694 -0.342675
H 8.01949 2.93278 1.60179 -0.465293 -0.299268 1.736299
H 11.4987 3.63681 8.28589 -0.823287 -2.076879 -0.140796
H 9.86743 8.77453 7.20942 0.852321 0.137772 0.38166
H 0.4554 11.6009 4.12815 -0.49088 -0.243997 0.334455
H 6.15415 11.1649 11.2177 -0.17646 -0.307792 -0.518327
H 11.121 9.76101 2.1642 0.986801 -0.93784 -0.760688
H 10.7383 5.4852 9.9703 1.153585 1.155379 0.30445
H 1.55578 0.70644 9.16181 -0.195128 -0.014581 0.46194
H 6.96961 7.48933 8.28631 1.221133 -0.838623 -1.094104
H 3.49365 9.75493 10.2848 -0.335107 -0.035845 0.647559
H 5.45492 4.57298 4.39953 -0.275812 -0.166472 0.29214
H 11.2621 7.32537 7.58384 0.225208 -0.025141 0.209371
H 7.97993 0.062 9.37863 0.406677 -1.008142 0.211725
H 5.45439 9.72448 7.94266 -0.613852 0.508853 1.069961
H 2.55769 12.1478 1.0095 -0.493446 0.782581 0.240888
H 9.80342 11.24 9.7849 1.325939 0.278341 0.022213
H 9.2465 9.21075 3.83816 0.461233 -1.21277 0.427809
H 10.0038 4.04969 4.13517 -0.069162 -0.997552 -0.091897
H 0.05697 10.5749 5.33824 0.522191 0.51432 -1.076413
H 6.80611 4.44519 8.30829 -0.012181 -0.152477 -0.418674
H 10.776 2.46706 2.73761 -0.124188 0.258804 -0.026525
H 3.65159 2.77468 7.5492 0.30999 -0.542364 0.306895
H 2.9138 6.22049 10.0379 -0.641717 -0.49489 -0.378581
H 3.60622 2.20627 11.9399 0.313829 0.01778 0.343847
H 3.15721 9.70161 2.12166 0.16677 1.158126 -0.82159
H 3.65452 1.30716 9.11442 -0.131361 0.035193 0.273184
H 9.08687 2.88487 3.62734 -1.753823 -0.089388 -1.296084
H 6.34551 9.33849 2.03849 -0.246926 2.496714 -0.62084
H 7.21249 2.24615 9.73834 0.799667 -0.281137 -0.870422
H 3.66723 4.28712 0.31066 -0.060586 -2.451198 -1.003319
H 5.13576 6.14517 10.2784 -0.171122 0.15422 0.007136
H 9.14682 11.4942 3.10224 0.920623 -1.0541 -0.350886
H 12.0797 1.50457 7.54641 -0.122011 0.256772 0.330809
H 1.89621 4.22153 6.94253 0.541741 -0.788576 -0.760558
H 11.7275 1.44241 0.18728 0.119646 -0.033935 -0.94897
H 4.0422 8.14441 6.09806 -1.486533 0.788788 0.77575
H 8.18804 8.14746 3.86341 -0.80144 -0.482199 0.146204
H 4.09844 6.29492 11.4385 0.163683 -0.034389 -0.281758
H 0.35208 11.3282 7.39979 -0.663638 0.96336 0.430917
H 0.63183 4.54041 1.01757 0.33485 0.189942 0.688631
H 8.90634 6.20774 0.50481 1.165452 0.530828 0.349959
H 6.4047 10.3027 0.64453 0.153849 -0.437022 0.955224
H 7.40154 5.52675 7.55997 0.312359 0.958879 -0.712035
H 6.91435 3.13856 2.88578 1.388413 -0.471557 -0.630244
H 1.2642 0.26058 2.54645 -0.004932 0.947411 -0.17297
H 6.22304 7.38175 2.93694 -0.224692 0.279822 0.492645
H 5.80709 1.19244 11.0219 0.040943 0.17623 0.151056
H 11.6484 6.63479 11.3333 -1.507917 -0.93809 3.042469
H 1.32005 9.43187 3.62538 -0.138358 1.113135 1.055774
H 1.82505 4.10583 10.1539 -0.134794 0.514647 -0.093898
H 1.86235 0.57426 4.56842 -1.126423 0.628467 -1.194718
H 2.12278 9.55728 7.24522 0.214026 0.296641 0.30589
H 4.47071 10.3811 1.39227 -1.516813 0.148324 0.825137
H 2.89354 0.23498 5.55175 -0.248701 0.822117 0.410695
H 5.18595 5.73 1.25578 1.065725 0.206652 0.354956
H 1.74043 5.42278 3.04763 0.266424 -0.022424 -0.70595
H 3.3767 9.22802 8.23926 -0.543791 0.102171 -0.49312
O 6.61144 10.2799 11.1381 1.231285 0.512165 0.952114
O 6.21224 9.57928 7.38733 -0.473866 -0.800417 -0.545497
O 3.08331 9.37114 7.29251 0.544408 -0.269335 -0.083005
O 1.41897 6.45564 4.19826 -0.360488 -2.356955 1.891854
O 3.8973 5.20448 0.34511 -0.12819 1.763118 0.963379
O 4.06086 9.16459 9.75934 0.862327 0.083635 -0.921936
O 11.1445 5.60814 7.19357 0.515703 -0.203597 -0.523684
O 8.1488 5.79978 0.09009 -2.366856 -0.439848 0.049668
O 0.82704 0.77287 3.28535 -0.427352 -0.526923 -0.605502
O 5.99717 5.83841 1.8529 -1.100736 -1.029059 0.24386
O 1.32939 4.97976 7.10684 -0.217541 0.288417 0.692616
O 11.7465 1.67754 11.6303 -2.244051 -0.775727 1.090569
O 0.097 10.7068 4.34115 -0.08547 -0.201643 0.841237
O 11.0736 2.70465 8.30904 -0.192804 2.160574 -1.045987
O 9.07909 8.27838 4.22443 0.633741 1.932505 -0.604037
O 10.8872 5.86926 4.23985 -0.145108 -0.762085 0.379745
O 10.5069 6.6768 0.98234 0.512764 -2.390175 -0.624385
O 6.21487 10.311 1.62931 0.255905 -1.929744 -0.375741
O 11.4131 8.26479 7.84555 -0.976714 0.087251 2.788885
O 0.31721 0.77934 7.44567 0.532871 -0.50413 0.237189
O 3.34847 3.1367 6.7006 -1.09312 -0.263111 -1.119962
O 8.52124 3.13798 12.2559 -0.397616 -0.464906 -0.465051
O 3.03677 2.58837 0.22407 -0.00445 0.4093 -0.55975
O 9.83827 3.06501 4.17581 1.950682 1.476339 1.420602
O 3.15469 2.67986 2.75751 0.155116 -0.066646 -1.052872
O 11.7741 9.08178 1.77216 -1.5328 0.165561 1.807076
O 7.62792 6.98836 7.71513 -0.722318 1.754192 0.876884
O 11.02 2.086 1.87213 1.516475 1.366882 -1.550713
O 8.74998 2.80511 6.6868 0.307572 -1.337677 1.991317
O 1.7216 8.75675 3.07736 0.605751 -0.418513 -0.272438
O 2.03314 5.77421 9.82577 -0.377915 0.329741 0.045111
O 9.90809 10.8076 3.02194 -1.260069 0.217475 -0.086383
O 2.13925 0.8955 5.41723 2.08742 -0.877217 1.700091
O 4.3128 6.65238 10.5371 0.558118 -0.228567 0.507435
O 7.96808 1.82077 9.23816 -0.332171 -0.325208 1.571914
O 2.52952 10.6076 11.3343 0.588992 -0.289757 1.485258
O 6.98564 12.3307 5.87035 -0.188373 -0.509267 -0.583242
O 4.81647 5.11136 5.93432 0.877053 0.066512 0.160133
O 1.46493 3.29763 10.5794 -0.417199 -0.015315 -0.398457
O 7.79498 2.72258 2.59787 -1.081242 0.432161 -1.34792
O 12.0616 7.01536 10.6163 1.796014 1.116443 -3.05519
O 0.10357 9.49647 11.0363 0.125441 -0.540116 0.670692
O 6.58523 5.18944 10.0793 -1.901015 -1.666132 -0.590941
O 5.59965 0.20545 10.9873 -0.545365 -0.250222 -0.150809
O 4.84477 7.89873 5.66285 1.451241 -2.211422 -0.668123
O 3.45577 10.4664 1.53435 1.092508 -1.132986 -0.091861
O 0.55413 10.4278 7.16327 0.957081 -0.944887 -1.133161
O 7.05257 4.62535 7.3694 -0.605719 -1.164827 1.027825
O 4.29709 11.566 5.45167 0.306907 2.000598 -1.63867
O 5.45741 3.97945 3.61571 0.524067 0.085489 -0.102146
O 9.95261 5.01887 9.74612 -1.013524 -1.207287 -1.311529
O 8.25604 11.488 9.29702 -0.416632 0.807694 0.88374
O 1.94241 0.6729 10.0687 0.508771 -1.259347 -1.069541
O 9.14306 9.22093 6.75027 -0.578461 -1.183079 -2.164476
O 10.794 11.064 9.94805 -1.245883 -0.604912 -0.064218
O 7.68407 12.0514 3.21307 -1.771866 1.265384 -1.357957
O 6.41928 8.22178 3.43331 0.056725 -0.228384 -0.520425
O 6.07535 2.74568 11.0955 -0.182397 -0.25381 -0.578783
O 1.90309 0.48738 1.05039 0.937553 -0.482218 -1.041323
O 12.3116 4.41602 0.37503 -0.390181 0.1695 0.562496
O 1.99418 4.91661 2.21434 -0.212 0.671211 0.101909
O 4.36932 1.88596 8.8061 -0.630948 -0.512407 -1.334526
Na 10.1977 2.83638 10.5359 -0.339709 -0.068201 0.033675
Na 7.90709 10.8962 7.30547 0.083096 -0.116042 -0.564391
186
energy=-1002.58212124 config_type=nep2xyz pbc="T T T" virial="-16.34384511838411 -3.77560377426079 -0.09651071197349596 -3.77560377426079 -12.054735335199974 -2.442280322850872 -0.09651071197349596 -2.442280322850872 1.6741097965128775" Lattice="12.4 0.0 0.0 0.0 12.4 0.0 0.0 0.0 12.4" volume=1906.6240000000003 Properties=species:S:1:pos:R:3:force:R:3
H 10.0154 9.05329 9.47716 -0.140358 0.213818 0.359629
H 0.79562 9.80619 4.03242 -1.108603 0.188694 2.460437
H 7.11618 4.3952 7.02487 -0.046302 0.819164 0.237274
H 9.1346 10.8978 6.70043 0.010708 0.017274 -0.775029
H 11.6784 2.78155 3.83206 2.093891 1.046099 0.080772
H 2.25642 6.59966 3.36674 0.325405 -0.124105 0.288603
H 9.70077 3.46019 3.09529 -0.195029 -0.261154 -0.307221
H 11.4016 7.92542 7.77114 0.466559 0.40202 -0.069656
H 6.08554 3.61723 3.00328 -0.480781 -0.450091 -0.328789
H 2.42566 9.50751 10.3745 -0.074318 0.225532 0.28742
H 7.56549 7.23107 11.0039 -0.380986 -0.349516 -0.033388
H 4.58499 0.8499 8.59226 -0.468651 0.925235 0.183209
H 1.31716 7.90679 7.46081 0.220364 0.463702 0.188928
H 11.3039 9.74325 5.16604 1.058295 0.177757 0.418958
H 2.43435 8.49772 9.18485 0.485365 0.069189 0.33196
H 2.08005 2.0653 1.88126 0.152945 -0.133012 -0.058773
H 8.43891 9.49178 1.88287 -0.287168 0.451594 -0.064535
H 4.36005 8.36614 2.39214 -0.159161 -0.970845 -1.527302
H 4.53519 9.0984 5.62136 -0.004912 0.214943 -0.228252
H 6.39387 8.77272 8.94667 -0.342126 0.321171 0.430611
H 3.07482 6.85196 0.12754 1.517 -0.203281 1.372408
H 3.0357 5.27783 3.7761 0.127209 0.259473 0.402717
H 7.29745 8.28408 0.45882 -0.144419 -0.420371 -0.643389
H 0.61645 11.3512 2.22494 -0.386969 0.236846 0.178929
H 7.55846 4.44502 8.47266 -0.548027 0.668336 0.016754
H 11.3168 6.84261 3.52303 -0.17085 -0.373067 0.586197
H 5.65179 0.45653 11.4322 -0.208395 -0.102536 0.053996
H 0.09363 9.18625 0.59023 0.117587 0.442281 -0.438742
H 2.62262 2.05947 12.3684 0.905893 -1.531918 -1.753909
H 0.33767 3.85407 3.14555 -0.398443 -0.022031 0.250795
H 0.59575 0.52976 2.18678 -0.378675 -1.317591 -0.786834
H 7.95966 4.44671 1.78535 -0.10021 0.181638 -0.209657
H 0.34634 4.77436 7.18257 0.274064 -0.450902 -0.019167
H 5.52322 4.15708 9.60429 -1.393664 0.931212 0.016859
H 7.7876 3.42586 10.5058 -0.37797 0.419092 -0.097749
H 8.83067 8.70011 5.65322 -0.078937 1.306665 -0.058857
H 2.28122 10.4012 6.88395 -0.296343 -0.522475 0.106517
H 7.27242 1.11987 12.3524 0.353087 0.370116 0.1669
H 1.44233 5.42854 12.0564 0.147056 -0.425838 -0.197184
H 2.12754 12.3718 11.4466 -0.58436 -0.536304 0.137543
H 5.71656 4.33542 0.68045 0.292601 -0.326339 0.538276
H 8.50799 0.86865 0.99917 0.040091 -0.216417 0.326291
H 8.19228 9.88236 3.44697 0.037124 -0.314574 1.584862
H 9.77289 5.99054 2.40131 -0.743376 -0.627124 -0.962051
H 4.96471 6.5706 7.8217 1.525846 0.541024 0.376026
H 4.03138 5.48844 8.45234 0.668037 0.313722 -0.387126
H 6.54824 10.6896 2.34465 1.422224 -0.244108 0.746321
H 5.76519 7.65015 0.42492 0.830821 0.38297 -0.461555
H 1.53857 3.82904 12.3793 0.633618 0.176443 -0.370111
H 9.89382 2.51157 10.5959 0.106045 0.194583 0.098646
H 10.4872 4.12526 7.03592 -0.956297 -0.451678 0.286274
H 5.97515 0.56946 7.17514 1.144877 1.014158 0.938018
H 10.9062 5.66296 11.643 0.605921 -0.57072 -0.426939
H 10.1197 3.20552 5.92241 -0.472358 -0.246868 0.004463
H 0.02557 11.9977 11.0589 0.649504 -0.831041 0.743624
H 12.1566 8.93009 6.25449 0.215145 0.29479 -0.654646
H 6.5287 2.02184 7.18155 0.20982 -0.88949 0.483383
H 4.54508 4.13404 4.70863 -1.544387 1.121343 -0.028204
H 7.58202 3.00622 1.16154 -0.764303 1.177141 0.789481
H 10.9306 7.62299 2.29253 -0.783554 -0.190736 0.653729
H 8.60794 11.4093 8.04143 0.114796 0.198664 0.48532
H 1.00121 5.43966 2.38317 1.125778 0.638562 0.742749
H 7.93478 3.05828 5.58203 3.105173 -0.590003 -0.7548
H 1.02123 3.26866 5.44279 -0.128887 0.721265 0.930154
H 5.08447 0.16996 2.86462 0.459471 -1.447753 -0.751834
H 5.40202 11.1402 1.51893 -0.750488 0.18753 -1.12745
H 8.70667 1.71331 11.2341 0.195523 0.257955 -0.051557
H 4.95206 2.46672 3.37693 0.793454 -0.133906 -0.041911
H 1.33473 0.59788 7.21772 0.24641 -1.297078 -0.389876
H 5.77361 8.67777 7.51037 0.263695 0.385933 0.062156
H 9.17818 9.58163 12.1156 -0.289697 -0.881856 0.907098
H 11.1537 6.97303 0.02029 1.08794 0.933059 0.378011
H 0.43923 11.6729 0.16375 -0.192757 0.12521 -0.226857
H 0.0505 5.32535 4.83573 -0.084255 0.695864 0.108649
H 8.86005 6.56518 10.4855 0.113707 0.024787 0.312293
H 7.57287 9.6121 5.89534 0.784068 0.185948 -0.525353
H 0.94619 10.9254 6.20295 0.662727 -0.470447 -0.007567
H 5.67448 1.95361 10.8541 0.39395 -0.706389 0.120042
H 3.65598 0.91475 3.24261 1.336045 -0.649431 -0.298722
H 4.92967 4.6342 11.8263 -0.148412 0.168989 -1.152798
H 9.71984 9.66122 8.10694 -0.035298 0.858514 -0.29282
H 10.3527 12.34415 2.23406 -0.216328 -0.323354 0.110859
H 7.36417 12.0593 9.92866 -0.357832 0.293464 0.249607
H 0.00281 1.23402 8.66372 0.17839 -0.064354 -0.281225
H 10.5799 7.44 6.32849 -1.171164 -0.041376 0.201142
H 6.52815 3.23985 4.9905 -0.151939 -0.128713 -0.04426
H 3.12275 1.51118 8.31937 1.237217 -0.438859 1.021155
H 2.38708 3.85701 5.73371 -1.18969 0.281169 1.457851
H 3.4807 3.36885 0.52347 1.316372 0.069051 -0.519723
H 12.3705 4.15341 10.796 -0.240674 0.096594 -0.56991
H 4.11407 3.45634 9.55215 0.910408 2.627203 -0.196632
H 8.63309 11.2144 10.3825 -0.200237 -0.148137 0.096258
H 4.2211 11.9563 11.9607 -0.908752 0.265696 -0.095465
H 7.30183 4.98942 10.5943 0.085526 -0.487699 -0.256862
H 4.16754 6.88592 2.07283 0.130367 0.337133 -0.571961
H 5.88743 8.89758 11.095 0.505824 0.432606 -0.118651
H 0.8399 9.1852 2.70407 0.258582 -0.105394 -0.599782
H 2.487 7.44601 11.3189 -0.186079 0.777815 -1.126854
H 3.96132 5.29343 5.75998 0.02703 -0.070945 0.198314
H 12.11 6.08854 7.62803 -0.07305 1.795404 -0.504245
H 8.85087 7.7565 1.46112 -0.121567 0.393381 -0.536665
H 8.90433 11.6438 2.63829 0.490224 0.148388 -0.391972
H 4.6846 9.06339 10.2012 0.325765 0.733088 -0.253019
H 2.80631 7.46974 7.69476 1.03879 -0.851656 -0.209825
H 1.06778 7.94273 0.60386 0.108021 -0.107611 -0.382289
H 10.3631 10.522 11.7724 -0.244593 -0.050365 -0.032318
H 5.14303 10.7574 11.6996 0.318026 -0.765699 -0.785681
H 9.79504 7.00628 5.11877 -0.592739 -0.105562 0.042879
H 11.6362 2.35431 9.28533 -0.136013 -0.114928 0.35329
H 4.53188 0.28071 5.38397 0.115966 0.243546 -0.92985
H 1.36186 2.08608 3.26741 -0.461843 0.075363 0.061282
H 2.99266 0.62917 10.3261 0.581731 0.319007 0.61644
H 0.03773 6.80624 5.45903 0.086045 0.21885 1.130383
H 11.8719 4.62963 9.3552 0.377645 0.57649 -1.207443
H 9.51795 1.82803 3.148 0.487237 0.99438 0.448056
H 3.42912 12.0125 6.2456 -0.08939 0.140738 -0.027435
H 1.68545 2.06292 6.99192 -0.332388 0.985598 -0.042103
H 2.78697 9.55045 3.63791 1.106907 -0.420819 -0.068055
H 4.96572 10.4663 6.17408 -0.214744 1.137954 0.025916
H 9.55958 5.61363 0.86992 0.272517 0.155229 0.177699
H 0.59764 4.51812 1.2997 -0.939019 0.419881 0.034518
H 4.34554 9.88738 3.47175 0.050407 0.314357 0.011416
O 6.45692 8.30309 8.10455 0.199934 -0.669747 -0.588035
O 4.64035 0.81074 3.41132 -2.469344 2.243188 1.451032
O 1.51794 1.40327 7.68692 0.262427 0.228964 0.499289
O 12.2333 9.6923 5.50999 -1.392771 -0.468275 0.146194
O 4.42271 7.71355 1.59397 -0.277379 0.087961 1.908022
O 7.91672 6.63778 10.2901 0.358224 0.193592 0.037119
O 6.58409 1.17825 7.71255 -1.107118 -0.286853 -1.548833
O 9.50841 10.1996 11.4501 0.807475 0.681752 -0.906645
O 0.25966 3.17496 3.91208 -2.277717 -1.218346 0.404218
O 6.5292 7.92278 12.2313 -0.718948 0.027696 0.761063
O 3.70684 4.70062 5.02899 1.499976 -1.31688 0.263873
O 11.9904 5.14508 7.66692 -0.262499 -1.780611 0.29815
O 11.5498 1.38911 9.0958 0.054146 0.471262 0.195533
O 9.00729 2.17861 10.4112 -0.037187 0.037138 -0.157634
O 9.41256 0.11412 2.42291 -0.081688 0.530877 -0.034942
O 0.25291 4.89763 2.14897 -0.459449 -0.679317 -1.001371
O 10.5067 7.19305 3.0827 1.039721 0.959635 -1.161523
O 5.02509 11.5192 12.2757 0.369981 0.291624 0.552262
O 1.86974 11.1677 6.47001 -0.385067 0.680883 -0.055003
O 2.24124 6.9496 12.109 -1.408664 -0.359223 -0.000957
O 3.90945 1.4585 8.97477 -1.054447 -0.323444 -0.86217
O 9.21605 5.415 1.76019 0.061066 -0.033265 1.463616
O 2.71124 2.78087 0.55507 -1.825986 1.292393 1.98942
O 8.1866 11.6654 9.63705 0.211077 0.080033 -0.17925
O 0.9749 4.55278 12.016 -0.251856 0.128992 0.198026
O 8.12986 10.3234 2.61444 0.367546 -0.243593 -1.44722
O 12.1791 6.26064 4.72196 0.339989 -1.183904 -1.062658
O 7.07071 3.2502 5.80615 -3.154951 0.56633 0.670131
O 9.75141 3.48695 6.78129 1.638915 0.459376 -0.252893
O 11.687 4.03651 10.0756 -0.42656 -0.953543 1.699541
O 1.50271 3.65253 6.25499 1.352303 -0.646951 -2.606647
O 1.26196 9.89153 3.22065 0.568451 -0.180671 -1.888636
O 4.33664 12.37612 6.27167 0.057124 -0.455861 0.553576
O 5.55342 9.52051 10.3667 -0.899093 -1.075658 0.735216
O 7.02183 4.05734 10.3991 0.457199 -0.109081 0.228898
O 0.08843 12.0793 1.82636 0.670357 0.674453 0.28089
O 9.36206 11.5041 7.42226 0.012153 -0.374761 -0.174948
O 7.18457 5.04256 7.78599 0.289542 -1.68283 -0.382155
O 9.87356 2.65866 3.61395 -0.04152 -0.891664 -0.076975
O 5.666 11.0743 2.43638 -1.007029 -0.093439 0.507176
O 12.0358 7.67722 7.0626 -0.261178 0.307065 0.092584
O 2.81861 8.66732 10.1215 -0.282158 -0.174456 -0.329107
O 8.07526 1.5028 0.3943 -0.184371 -0.033299 -0.13638
O 2.93829 0.47993 11.3105 -0.053196 0.343786 -0.616603
O 8.63024 8.57024 0.9654 0.242018 0.001404 0.806953
O 3.73081 9.20239 3.79568 -0.490774 0.349403 -0.035456
O 2.23577 8.2439 7.68638 -1.381988 0.35381 -0.213911
O 9.58454 7.31776 6.01879 1.755288 -0.097493 -0.290171
O 4.10421 6.19996 7.74901 -2.087746 -0.625049 -0.46463
O 8.48631 9.66152 5.50636 -0.809669 -1.353674 0.673349
O 10.5041 6.32642 12.1972 -1.189879 -0.318629 -0.945743
O 6.20334 1.14358 11.0124 -0.051471 0.554311 -0.198702
O 0.58182 11.3821 11.6136 -0.703396 0.952975 -0.293274
O 5.35452 3.33825 3.62103 0.401548 0.49157 0.452363
O 9.9897 8.84948 8.53687 0.065185 -1.13504 0.26077
O 5.13098 9.53287 6.25558 0.041376 -1.085994 -0.159601
O 1.7333 1.47305 2.59543 0.601792 0.011955 0.300107
O 7.18878 3.83726 1.62477 0.407673 -1.406652 -0.484645
O 4.80692 4.36564 0.32947 -0.292686 0.072698 0.538821
O 0.20177 8.29045 0.90473 -0.407084 -0.409478 0.755794
O 2.64031 5.78091 3.02239 -0.440206 0.667511 -1.023867
O 4.52507 4.42784 9.56941 0.297923 -3.882848 0.465733
Na 9.45094 1.18529 8.31427 -0.343255 -0.062146 0.083278
Na 8.1399 6.9176 7.85288 0.236858 0.593808 0.160077
186
energy=-1000.19712829 config_type=nep2xyz pbc="T T T" virial="-11.674428389053366 -0.572578656794668 -0.053193943590817125 -0.572578656794668 -2.060640553061721 3.6924688995571104 -0.053193943590817125 3.6924688995571104 -5.146960300327588" Lattice="12.4 0.0 0.0 0.0 12.4 0.0 0.0 0.0 12.4" volume=1906.6240000000003 Properties=species:S:1:pos:R:3:force:R:3
H 8.27251 9.01152 6.8002 1.147297 -1.861395 -0.760195
H 1.03838 10.3044 3.53606 0.842824 -0.33861 0.523555
H 5.68802 5.25364 7.35383 -0.020687 -0.48475 0.22443
H 7.52312 10.6943 5.08983 0.115378 -0.561326 -0.578518
H 2.07617 5.09169 3.82554 -0.073628 -0.367373 -0.304476
H 1.35676 7.58652 6.32692 -2.630699 1.971313 0.019124
H 9.05541 11.8881 6.58877 1.359735 0.790323 -0.622261
H 11.6601 8.29815 7.34947 0.004849 -0.049504 -0.224673
H 6.02774 3.67741 2.97387 0.881697 -0.776026 -0.290737
H 11.7814 8.77674 10.4384 0.564297 -0.072621 0.392103
H 8.3615 4.8666 10.2306 1.337466 1.460201 -0.022514
H 4.75165 0.52015 8.16234 0.729667 -0.024028 -0.638506
H 0.92138 9.30562 7.75486 -0.173416 -0.052124 -0.143909
H 11.2467 11.0024 5.67093 -2.632064 1.678704 0.976612
H 0.84852 9.11591 9.95135 -0.540728 -0.277377 1.064542
H 0.2487 2.69052 3.66143 -0.317229 -0.102273 -0.149921
H 8.98987 10.4198 1.36387 -0.207745 -0.387213 0.188966
H 3.9705 6.94109 0.36066 -1.370046 -1.199005 -0.512469
H 4.27601 9.32783 4.748 0.801797 0.571079 1.1657
H 7.24494 9.15436 9.62328 -0.490016 0.373067 0.255687
H 1.97513 6.45073 11.9821 -1.407771 0.433414 0.270601
H 2.73429 7.4326 6.99943 -0.665267 -0.595969 -1.136777
H 7.74293 8.61996 0.21364 0.222409 0.955151 -0.389099
H 0.2513 0.65039 1.74173 0.352947 1.364256 1.521285
H 5.94386 5.53052 8.85492 0.093111 -0.867555 0.888877
H 10.3625 7.61455 3.47224 0.343391 -0.298404 0.3515
H 5.67952 10.6643 10.2269 -0.032768 0.168744 -0.103977
H 0.79146 11.1414 0.10142 1.19785 -1.562755 1.237468
H 2.92051 2.19141 0.23091 0.53318 -0.190791 -1.92399
H 1.74038 5.66161 5.14719 1.477389 1.477854 3.527719
H 1.18494 1.85751 1.86303 0.222342 -0.00471 0.104083
H 7.61665 4.60059 1.62721 0.461318 0.136433 0.080086
H 0.28227 5.36364 8.2114 0.098811 -1.410309 0.71932
H 2.37111 3.54603 7.67953 -0.0327 0.098305 -0.110511
H 6.83677 3.24313 9.88844 0.286162 -0.009901 -0.053057
H 8.10346 8.63332 3.499 -0.115255 -0.183055 0.094523
H 1.84055 11.2217 6.90142 0.177753 0.290684 0.229999
H 7.20785 0.98558 0.843 -0.571204 -0.616079 -0.12747
H 0.58393 5.03965 11.2053 -0.132733 1.115063 0.968826
H 4.84678 0.82577 11.8444 -0.490992 0.801554 -1.040738
H 5.89678 4.00732 0.5414 -0.130705 -0.856065 -0.254145
H 8.53503 1.09412 1.66734 -0.351062 0.723318 -0.552847
H 7.96768 10.4246 2.64134 0.873379 0.601318 -1.132739
H 8.90223 6.62505 2.07047 -0.125655 -0.260245 0.454263
H 4.48894 8.8102 6.95683 0.120149 0.897462 -0.848883
H 4.74292 7.66642 7.97607 -1.217663 1.099786 -0.245022
H 7.21686 11.5309 1.27494 0.081517 -0.468324 -0.062882
H 7.63771 7.27853 0.68006 -0.434803 -1.081216 -0.349914
H 1.24302 4.57421 9.9294 -0.031276 -0.243935 -0.330166
H 9.57745 2.20522 10.612 0.091035 0.341979 -0.384145
H 10.0086 3.44971 6.05072 0.690398 -1.061947 0.713562
H 5.52997 0.33632 6.16221 -1.263785 -0.192248 -1.090232
H 11.5634 6.65339 12.19 0.15159 -0.094592 0.152946
H 10.9894 2.64509 5.21519 -0.007826 -0.113965 0.465937
H 12.262 0.63474 11.5933 -0.599596 -0.615823 -0.39971
H 12.0622 9.75974 5.84102 0.461032 -0.561178 0.311332
H 6.74361 0.93379 6.75314 0.635557 0.360381 -0.152485
H 5.44235 3.97639 5.66357 0.296343 -0.603194 0.410831
H 7.64257 3.01724 1.46441 2.066108 -3.16171 -0.724032
H 9.77468 8.2656 2.09111 -0.408108 -0.058591 0.114746
H 7.06671 11.0356 6.47999 -0.380087 0.29943 0.322625
H 4.3816 4.0745 2.93117 -1.127334 0.946566 0.371825
H 8.51157 2.16311 5.81679 -0.234196 0.269336 -0.037998
H 3.15985 1.83202 5.85631 -0.425999 0.002624 0.539126
H 5.22551 0.45211 2.07336 0.657541 -0.97678 -1.11056
H 5.85982 11.4382 0.3556 -0.572652 -0.872197 -0.952669
H 8.69915 1.68986 11.7932 -0.197009 -0.315464 -0.87226
H 5.08179 2.49566 3.45203 0.426681 -0.981458 -0.579767
H 1.02673 0.55221 7.35835 -0.478807 1.521607 0.78919
H 7.45703 7.87179 10.5763 -0.29048 0.07239 0.831784
H 9.26416 8.56404 9.74685 1.059146 0.447708 1.148506
H 10.1679 7.44037 12.21241 0.65017 -0.63034 0.377648
H 11.1037 11.9616 11.2468 -0.334528 0.09977 -0.923292
H 12.3312 6.61819 4.4263 0.097721 0.093257 -0.024474
H 9.85776 5.56588 10.6768 -1.766699 0.519709 -0.7507
H 6.51173 8.94135 3.79481 0.505221 0.063261 -0.054904
H 0.92746 11.6803 5.82557 -0.707521 -0.304051 -0.589485
H 6.03289 11.3907 8.87071 0.434521 -0.840969 0.764639
H 3.89862 1.45913 2.07607 1.219907 -0.926472 0.071977
H 5.08157 2.928 11.9799 -0.197114 0.603435 0.261284
H 9.36769 8.41319 5.92026 0.59832 -0.04613 -0.643176
H 10.3479 0.9087 3.35783 -1.931917 0.436763 -0.119896
H 9.31482 12.2397 10.1452 0.526438 -0.699745 0.030591
H 1.00562 1.51496 9.7417 -0.170235 -0.908972 -0.308998
H 10.9531 5.6363 6.97676 -0.349446 -0.262532 0.103422
H 7.74335 2.04545 4.57007 -0.394511 -0.067762 -0.65427
H 3.33673 1.03951 8.40934 0.213672 0.085257 0.240558
H 4.00124 2.67853 6.73782 0.624466 0.652243 0.330749
H 3.07512 3.19281 1.44334 -0.312448 0.075426 -0.173816
H 11.4118 3.19491 9.84145 0.558852 0.33283 0.340673
H 2.62905 4.91336 8.39209 -0.114151 -0.24916 -0.3042
H 10.0187 10.7872 9.89993 -0.641116 -2.148768 0.08466
H 3.68813 10.8546 11.5173 0.134548 0.330857 -0.121311
H 6.12458 4.16167 10.8767 0.116668 0.209286 0.069408
H 4.1184 5.42835 0.0155 -0.253551 -0.692513 -0.305649
H 5.70087 8.02782 0.58538 0.800513 0.261467 -0.273773
H 1.78654 10.1531 2.23227 0.556379 0.224729 0.930175
H 0.81429 7.53023 11.3837 0.311408 -1.151755 0.565797
H 6.30494 3.14363 6.66365 -0.401187 0.675296 -0.571087
H 0.18162 6.54229 7.47985 -0.455126 1.060919 -0.258003
H 10.5198 9.38809 0.78277 -1.687524 -0.862984 -0.548745
H 9.17405 0.04793 2.85502 -0.158764 -0.255832 0.362728
H 4.59644 8.26754 1.67643 -0.359255 0.274787 1.157613
H 2.39491 9.25553 8.14616 0.367791 0.05918 0.323989
H 1.24748 9.62846 0.0172 0.143783 1.168326 0.799974
H 9.87028 8.89155 11.1968 -0.090867 0.219843 -0.523778
H 4.58007 9.84536 12.2102 0.383885 0.305469 -0.285913
H 9.83793 5.58225 5.82135 0.127329 0.794513 -1.052585
H 0.89609 2.72924 10.5764 -0.392569 -0.522316 1.091129
H 4.06058 0.47381 4.13002 -0.384513 -0.254895 -1.460229
H 0.11018 4.08679 4.3401 0.903338 1.197907 0.278547
H 4.60934 1.27284 10.2472 -0.926092 0.344969 2.307326
H 11.76 7.83475 5.31037 0.552928 -0.248873 0.617233
H 10.2867 4.12851 9.32594 0.073671 -1.149095 0.073561
H 10.1188 0.74938 6.13119 -1.070969 -1.021167 0.401506
H 3.04266 12.2334 5.37739 0.213351 0.621647 -0.963602
H 0.79082 2.14177 7.60398 0.163292 -0.016074 -0.296252
H 3.36166 7.62512 3.91409 -0.279748 -1.007362 0.549424
H 4.39345 10.7428 5.37977 -0.333581 1.480403 -0.094805
H 9.00754 5.86938 0.73788 0.239054 -0.051234 -0.008221
H 3.40537 5.25104 2.25268 0.438337 0.592164 -0.932893
H 2.86235 9.00457 3.42853 0.090485 0.170917 0.087807
O 7.66874 8.29005 9.74012 0.288813 -0.473665 -1.630465
O 4.72803 1.10151 2.55441 -2.412339 1.639342 0.926939
O 0.60375 1.27972 7.98873 0.366439 -1.163946 -0.657653
O 12.0203 10.6239 5.35138 2.383759 -0.726383 -1.284078
O 3.4135 6.08188 0.16516 1.871046 1.706385 0.812669
O 9.05715 5.60586 10.0394 0.166811 -1.621462 0.740331
O 6.09522 0.245 6.92132 0.210119 -0.257841 1.078341
O 10.1015 8.90928 10.2272 -0.598705 0.025126 -0.213998
O 1.33287 5.37718 4.38566 -1.354521 -1.160453 -3.185496
O 7.1606 7.87053 0.03455 0.521975 -0.126898 0.466622
O 5.5474 3.77393 6.62669 0.005172 -0.36624 -0.632349
O 11.9994 6.01413 8.05462 0.956233 0.48188 -0.38467
O 0.78588 1.73802 10.658 0.455128 1.257882 -0.321272
O 8.80554 1.65451 10.7982 -0.354776 -0.26614 1.00865
O 9.33504 0.91689 3.29338 2.14698 -0.60578 -0.109423
O 3.44776 4.43985 2.74775 -0.118355 -0.952461 0.398625
O 9.54076 7.78007 2.95726 -0.294652 0.344138 -0.326763
O 4.63389 10.665 11.6367 -0.62972 -0.823569 0.600943
O 1.69983 12.0153 6.32804 0.322121 -0.925393 0.615552
O 0.98298 6.68217 11.9513 0.774932 0.187312 -0.614443
O 4.12672 0.69504 8.86697 -0.628326 0.08493 0.252397
O 8.36499 6.03552 1.45386 0.373833 0.311954 -0.233415
O 2.67273 2.35636 1.11768 -0.084773 0.23533 2.108139
O 10.1166 11.7181 9.88396 -0.100744 3.002788 -0.144997
O 0.51952 4.36388 10.5317 0.006288 -0.712391 -0.56798
O 8.47061 11.0267 1.9589 -0.430871 -0.492803 1.080194
O 11.5648 7.18841 4.59318 -0.969219 -0.318436 -1.174864
O 7.58724 2.28276 5.48682 0.919278 -0.403729 0.991371
O 10.3493 2.49538 5.99086 -0.243649 1.455722 -0.689536
O 10.5355 3.16567 9.44522 -0.310492 1.024394 -0.426525
O 3.08566 2.38504 6.67569 -0.02038 -0.570084 -0.663134
O 1.9641 10.1152 3.24482 -2.024791 0.753165 -1.796941
O 3.87076 0.28994 5.04579 0.332873 -0.160247 2.255056
O 4.79538 8.36658 0.75046 -0.889817 -0.079765 -0.637769
O 6.74133 4.18431 10.0929 -0.340121 -0.176839 0.115863
O 0.55705 1.34826 2.41637 -0.645499 -1.587402 -1.649781
O 7.82395 10.6809 6.00124 0.331912 0.214517 0.792255
O 5.81567 5.95853 8.01703 0.126094 1.630804 -0.714573
O 9.9488 12.3464 6.70565 -0.396678 -0.075267 -0.329933
O 6.33294 11.914 1.02172 -0.270519 1.407112 0.860513
O 12.3169 8.38755 6.64171 -0.231676 1.018793 0.658725
O 0.33312 8.8029 10.7696 0.028669 0.928771 -1.878648
O 7.98302 1.54146 0.97617 1.442108 -0.11833 0.410865
O 4.46322 1.55175 11.2794 1.220049 -1.285331 -0.949342
O 9.62123 8.92904 0.65585 2.015232 1.305658 0.093649
O 3.69649 8.44368 3.57663 0.578382 0.246624 -0.597123
O 1.58067 9.74348 8.35762 -0.060673 -0.062592 -0.395229
O 10.094 5.23834 6.66078 -0.780604 -0.887528 0.647925
O 4.08916 8.40899 7.7325 0.915254 -2.120743 1.116592
O 7.39624 9.31488 3.6364 -0.18485 0.106496 -0.104019
O 10.5972 6.54032 12.1478 -0.693437 0.078712 -0.182749
O 6.39312 10.785 9.56361 -0.218093 0.479103 -0.708785
O 11.7635 12.2291 11.8915 1.652408 0.406203 1.75687
O 5.50967 3.31556 3.71952 -0.182588 1.468594 0.917293
O 8.79927 8.1336 6.62845 -1.738823 1.993113 1.177472
O 4.73311 9.8739 5.51343 -0.161208 -2.139325 -1.066084
O 12.0615 3.27039 4.17191 -0.917274 -1.443719 -0.117189
O 7.12282 3.7569 1.60016 -2.963347 4.019647 1.087134
O 5.15825 3.88571 12.2815 0.224041 0.253098 -0.324835
O 1.44285 10.4439 0.57615 -1.724589 0.422515 -2.190497
O 2.07247 7.00249 6.3598 3.790142 -1.515352 1.157631
O 1.97831 4.19764 8.30231 0.290423 0.446213 0.104926
Na 10.7662 1.25563 8.27641 -0.020903 -0.216534 0.236181
Na 8.16462 6.621 8.08411 0.267734 -0.193268 0.23905
186
energy=-1001.93320089 config_type=nep2xyz pbc="T T T" virial="3.08578423776663 -2.323254411487259 -5.9771428266771585 -2.323254411487259 -2.8444598569885136 7.4647168142893525 -5.9771428266771585 7.4647168142893525 -0.24027716220183193" Lattice="12.4 0.0 0.0 0.0 12.4 0.0 0.0 0.0 12.4" volume=1906.6240000000003 Properties=species:S:1:pos:R:3:force:R:3
H 5.99023 11.0964 8.65346 -1.217695 0.426304 0.238942
H 11.5112 9.13166 4.91313 0.752321 -0.377813 -0.390332
H 1.47534 5.09028 9.41337 -0.376641 0.502837 0.696845
H 11.6146 0.85409 10.1756 1.030449 -1.678727 -0.622053
H 9.94486 11.6492 9.79985 0.763447 -0.947537 -0.00114
H 1.23627 8.02866 7.46266 -0.966985 0.085391 -0.999171
H 7.01172 7.61098 9.77987 -0.794854 0.531 0.340958
H 2.35585 9.62495 9.29655 -0.08579 0.71292 0.664061
H 7.83844 8.94094 7.86435 0.413777 0.479298 -0.692955
H 11.2097 10.7085 9.39076 0.047471 0.111147 -0.106985
H 6.71894 9.66682 0.92291 1.055063 -1.602136 -0.621538
H 7.76875 4.27091 6.62879 -0.486834 -0.490726 0.850883
H 10.659 2.9241 9.34766 -0.637031 -0.03027 -1.105859
H 1.39015 7.1323 6.23911 -0.872613 0.287701 -0.089156
H 3.65769 7.29205 2.14131 0.17804 0.355677 0.735404
H 4.75639 5.3924 1.95185 0.770283 0.562674 0.018154
H 12.1947 0.54056 1.95486 -0.416699 0.327042 -0.399245
H 5.48266 3.63632 0.96374 0.103255 0.050694 -0.172097
H 1.40906 5.24288 2.50825 -0.251214 -0.779358 0.698729
H 5.64214 1.89247 11.0383 -0.077649 0.403858 0.752673
H 10.2558 2.84889 7.81858 1.073779 -0.675727 -1.260286
H 8.97135 0.26771 5.20535 0.152345 1.788442 0.342525
H 12.2007 3.82024 2.39673 -1.538824 -0.143442 -0.623709
H 1.44577 4.80769 4.62454 0.790184 0.54818 0.212302
H 1.12288 4.45165 8.0321 0.853237 -0.026547 1.400478
H 3.29939 1.6706 9.14324 -0.270991 0.397008 -0.756549
H 6.0458 0.31932 5.76461 -0.2845 -0.162621 -0.315356
H 3.52489 0.44542 0.36263 -0.191978 0.210387 0.72899
H 9.50793 10.501 5.21646 -0.600273 0.603995 -1.655403
H 4.75358 5.03869 7.31713 -0.154937 -0.376025 -0.262011
H 10.7508 0.86609 2.59346 1.578013 -0.923526 -0.405209
H 6.35631 8.5046 4.91658 -0.182899 -0.416093 -0.023211
H 12.3351 2.47211 0.6592 0.324611 -0.735342 -0.545433
H 3.66808 2.68127 0.46113 -1.336549 -0.983823 0.597172
H 7.90058 3.22024 8.55413 0.474256 -0.137692 -0.344803
H 5.17243 11.2997 1.42353 0.835505 -1.176019 0.647072
H 3.28327 6.92615 10.8489 1.010432 -0.047781 0.32183
H 8.4556 9.23104 4.18398 -0.83832 -0.430428 0.245423
H 3.6867 9.53095 10.941 0.468968 -1.100047 0.107671
H 8.1848 6.58219 8.51468 0.640221 -0.477462 0.056015
H 9.67946 9.52272 6.74024 -1.398601 0.279145 1.308347
H 8.74973 7.98029 5.03622 -0.756665 -0.338536 -0.532291
H 8.94588 3.65101 4.14071 -0.9427 1.157071 0.886904
H 5.42634 7.20525 5.03508 0.080044 1.489182 -0.001443
H 4.21471 7.13814 8.82065 0.20844 -0.600095 -0.393167
H 1.31993 12.0129 4.25881 -0.106251 1.438907 0.390224
H 12.2193 6.38211 10.6832 0.712507 0.471197 -0.143077
H 8.11645 7.27397 3.0321 -0.01563 0.004568 0.638133
H 3.28731 10.8447 11.5733 -0.08778 0.864909 1.478461
H 2.684 9.50096 7.08323 0.26877 -0.310619 0.500947
H 11.8945 3.86719 6.63662 -0.376226 -0.559238 -0.23469
H 5.93998 11.2486 3.73227 0.106554 0.070184 1.355854
H 7.089 4.99073 5.31984 0.79773 -0.882592 0.73848
H 0.57308 4.94562 6.38268 1.639217 0.244146 -1.395917
H 2.80205 4.64508 5.36916 2.303722 -1.246519 -0.1614
H 8.95833 9.2957 12.2374 -0.961915 -0.361104 0.560393
H 6.74885 10.9309 5.05728 -0.200729 0.028549 -0.35217
H 4.04919 2.79025 4.12519 -0.318392 0.077657 -0.077982
H 2.73104 2.38952 1.73064 0.077432 0.196209 1.040763
H 2.7078 2.95986 8.52601 -0.893772 1.497866 0.621774
H 11.552 1.89118 11.2597 0.468923 -0.264533 -0.146033
H 3.3466 5.09218 8.01905 -2.54535 -1.576949 0.482159
H 9.11265 6.11212 1.4885 -0.985243 0.363862 0.425007
H 2.18701 6.11821 11.26 0.109002 -0.321838 0.759143
H 8.78013 1.6427 9.18542 0.22862 -0.382696 0.333588
H 12.0941 1.65181 6.78187 -1.377603 0.346338 -0.002532
H 4.07096 9.31083 6.35215 2.140953 -2.149867 -0.757082
H 7.66308 10.4832 7.8253 0.858265 -0.528543 -0.139842
H 11.019 11.034 2.29137 0.525802 1.225247 -0.223076
H 6.92043 1.19425 10.501 -0.153881 0.17959 -0.044013
H 10.0124 3.27567 3.08016 -0.031877 -0.942851 0.76876
H 1.85743 0.66546 7.53322 1.430975 1.047304 0.160754
H 0.30857 0.78835 3.99671 -2.057626 0.231853 -0.902883
H 9.91421 9.91957 11.2054 0.674536 0.079134 -0.498029
H 7.13687 8.43855 12.1913 -0.503965 0.448472 -0.210398
H 5.09484 9.90826 2.2109 0.375354 0.426982 -0.181553
H 11.2487 9.64584 6.95461 0.578142 0.79407 0.864299
H 7.25807 1.20621 5.73623 0.857889 0.3794 0.242958
H 9.21285 1.02242 10.53 -0.124462 0.202779 -0.708372
H 9.44642 10.7028 3.60264 0.365828 0.020309 0.036431
H 7.17127 11.7526 9.57036 -0.623694 -1.008384 -1.666606
H 11.6741 7.23723 3.61559 0.238828 -1.154222 -0.145177
H 5.20009 4.56078 4.94298 0.385434 0.042818 -0.503912
H 10.4169 9.91508 1.44288 -0.737678 -1.218461 -3.708338
H 9.89524 4.96418 8.94875 0.35841 -2.34135 -0.302791
H 10.5079 5.97005 2.15509 -0.129404 0.284858 -0.301169
H 8.96847 5.81605 5.51313 0.832747 -0.003203 0.122516
H 5.20832 5.34786 9.63055 -1.675545 -0.356028 -1.012541
H 10.3625 7.7088 11.4279 0.117441 0.270454 -0.093695
H 1.88264 3.39285 3.25451 -0.249731 0.573171 0.030935
H 10.2955 6.28584 4.71851 0.418829 -0.349328 -0.554268
H 5.7098 5.50937 3.865 -0.004476 -0.121778 -2.459603
H 4.38726 8.72855 3.78086 -0.051917 -0.298512 -0.536613
H 6.89409 4.25508 8.86057 -0.753794 -0.501348 -0.221299
H 5.67816 8.14677 10.5178 0.840572 -0.485873 -0.512082
H 6.26873 6.0065 10.322 0.409193 -0.194594 0.749092
H 11.6047 9.26807 3.37943 -0.247559 0.402729 -0.567762
H 1.08368 0.46222 6.10066 0.528992 -0.057015 1.084353
H 5.28834 2.35635 5.03161 0.751066 -0.951497 0.535204
H 10.7471 4.01224 1.47379 1.087643 -0.512811 0.734796
H 1.27586 9.77173 4.12463 -1.002418 -0.482873 0.287733
H 12.1595 5.65539 3.24005 0.288675 0.192155 0.637824
H 5.54985 3.93784 11.8778 0.002807 0.942817 -0.944707
H 3.27051 12.0359 1.66739 -0.061471 0.154668 -0.595403
H 3.93115 11.4529 9.18411 0.105527 0.098677 0.418372
H 0.9184 7.14628 9.78799 -0.017198 0.091343 0.310897
H 3.19292 9.30587 2.92225 -1.455198 1.002153 0.480963
H 10.1288 6.18828 9.90984 0.091246 0.051408 1.010524
H 10.5165 1.51621 6.32368 0.254328 0.302993 -0.297154
H 1.29143 1.94283 0.06821 0.678473 0.215828 0.111752
H 6.45943 5.35413 2.07687 -0.786369 0.42964 -0.301758
H 3.83915 11.382 7.67547 0.593686 0.371225 0.208231
H 0.74492 9.83772 8.51331 0.077219 0.056933 -0.044994
H 3.13266 6.44498 1.01583 0.129784 -0.424402 -0.581758
H 10.5847 6.40942 12.2029 -0.248865 -0.526851 0.472707
H 0.42846 11.4017 8.18725 -0.565424 -1.258956 -0.548406
H 3.18293 8.27865 9.0454 -0.406784 -0.237801 0.010056
H 2.10979 1.88404 3.6461 -0.131239 -0.215879 0.44014
H 2.42233 10.3366 5.04323 0.016289 -0.09253 -0.184578
H 7.52084 7.55124 1.64959 0.656472 -1.309442 0.771217
H 9.12095 1.88544 4.85131 0.309839 -0.677364 0.073573
H 7.01023 6.48525 7.52763 -0.570304 -0.643111 -1.500149
O 5.94491 1.22119 10.425 0.09409 -0.376491 -0.336212
O 8.53012 0.93899 9.81907 0.390259 0.087971 0.535884
O 7.29142 6.91055 8.30973 0.660204 1.059004 1.139052
O 0.71229 7.73238 6.6413 1.882584 -0.517091 1.254954
O 5.33438 3.22534 0.06888 -0.348316 -0.928177 0.713814
O 7.38116 8.91375 0.61351 -0.697957 1.124 0.977077
O 5.93136 11.355 4.73873 0.194684 -0.470581 -1.169898
O 0.76169 6.34379 10.3204 -0.823559 0.042774 -0.201087
O 0.33352 1.81225 0.0063 -1.239675 0.740049 1.297002
O 7.86493 6.76118 2.24277 -1.449378 1.484789 -1.450155
O 4.72075 3.07068 4.77243 -0.485745 1.082233 0.184252
O 11.3086 3.32697 1.9681 0.716878 1.199973 -0.297715
O 10.5795 10.1854 2.29487 -0.055201 -0.213065 3.649213
O 3.41084 9.90997 6.57266 -2.446293 2.63518 0.269315
O 11.3961 6.28478 3.45571 -0.354837 1.205514 0.043551
O 4.14982 5.53132 7.87082 2.770436 1.962155 -0.077318
O 3.09728 2.12888 8.29855 1.29803 -2.064114 0.298372
O 3.97013 8.78417 2.86027 1.798421 -0.412766 0.252005
O 10.5464 9.30487 6.40265 0.967346 -0.829184 -1.730185
O 10.0886 3.32759 8.61955 -0.768856 0.302263 2.661615
O 7.94881 4.57503 5.74487 -0.526261 1.152926 -1.780413
O 5.41627 8.22144 5.02178 -0.287427 -1.158889 0.218232
O 10.7108 6.78468 11.3078 0.19744 0.104636 -0.177947
O 5.72032 5.41754 4.79352 -0.404919 0.126081 2.75862
O 3.30574 10.3744 10.7569 -0.185966 0.401479 -1.549467
O 9.39775 2.9042 3.79066 0.936352 -0.029144 -1.632547
O 9.82631 9.184 11.8457 0.468594 0.087316 0.304092
O 9.99694 5.77187 1.31908 1.736973 -0.939041 -0.579546
O 12.2343 4.72147 6.91771 -1.357792 0.286179 1.670378
O 3.41829 6.37151 1.94584 -0.338876 -0.477625 -0.446314
O 3.10797 6.28343 11.5791 -0.893755 0.320048 -0.613863
O 12.1224 8.95825 4.13656 -0.63327 -0.313016 0.744668
O 12.3996 10.499 8.28476 -0.292601 1.18102 0.044559
O 5.92375 5.10071 10.195 1.231301 0.158988 0.509122
O 7.03631 3.49957 8.21771 0.342642 0.863529 0.804952
O 1.98499 5.06051 5.45618 -2.937369 1.120207 -0.367576
O 11.1031 1.5857 10.4372 -1.482644 1.867688 0.640761
O 1.82631 4.45282 8.78394 -0.528962 -0.646228 -2.239395
O 6.61737 7.86373 10.6521 -0.428488 0.016217 0.158853
O 11.2354 2.14826 6.58763 1.272257 -0.81875 0.191122
O 1.90369 8.98843 8.74882 -0.279992 -0.768552 -0.838409
O 11.4934 0.18643 2.52337 -1.083234 1.218068 0.519481
O 8.0482 8.35497 4.42101 1.399359 0.340223 0.345406
O 4.27058 11.9175 8.39951 -0.593275 -0.849811 -0.52445
O 1.94425 10.4633 4.18882 0.965163 0.892957 0.009666
O 2.56915 2.67871 3.32259 0.174634 -0.410435 -0.265466
O 1.10169 0.62514 4.45717 2.322549 -2.185821 0.524443
O 9.77856 5.88564 9.05909 -0.809926 2.657137 -1.049075
O 3.94789 7.78456 9.47688 0.602208 0.451333 0.600368
O 5.74907 10.6213 1.92592 -1.207482 0.642075 -0.577003
O 1.07393 0.36106 7.10982 -1.870157 -0.452011 -1.182441
O 6.38232 1.15369 6.14204 -0.838622 0.103267 0.059692
O 10.5628 10.9433 10.1144 -0.875864 1.133868 -0.168927
O 8.17834 9.73023 7.37947 -0.374724 -0.855559 -0.051633
O 6.92895 11.2261 8.74627 0.914987 1.618425 1.947447
O 0.88043 4.64413 3.10006 0.247668 0.174024 -0.991487
O 5.60399 4.86975 2.09692 0.15531 -0.472112 0.286922
O 2.87707 2.11242 0.8158 1.714139 0.903377 -2.393531
O 8.95892 10.868 4.43736 0.760308 -0.237579 1.544418
O 3.61719 11.9557 0.76018 0.224256 -0.547429 0.093855
O 8.99767 1.21083 5.59618 -0.172887 -1.883286 -0.520982
O 9.73761 6.4597 5.49012 -1.057486 0.378753 0.882466
Na 11.0883 6.7206 7.31476 0.0067 -0.018133 -0.397995
Na 5.78223 1.51777 8.21891 -0.470827 -0.075453 -0.181771
186
energy=-1002.00866053 config_type=nep2xyz pbc="T T T" virial="-6.270875737113879 -1.174538934780774 -1.0478373872614384 -1.174538934780774 -8.571519747522267 3.9425875363337983 -1.0478373872614384 3.9425875363337983 -10.444374969518421" Lattice="12.4 0.0 0.0 0.0 12.4 0.0 0.0 0.0 12.4" volume=1906.6240000000003 Properties=species:S:1:pos:R:3:force:R:3
H 8.28847 8.65166 10.5581 -0.520135 -1.44386 -0.389785
H 10.4414 7.95937 1.92959 -0.29716 0.571183 0.137378
H 5.29109 4.25738 6.8001 -1.281596 0.776722 0.950803
H 6.5815 11.1819 5.23554 -0.165344 -0.447047 -0.01787
H 1.00965 1.8135 3.81568 0.444045 0.214241 0.519476
H 0.85236 6.79491 4.36056 2.174078 -0.260429 -0.234314
H 12.3039 2.90114 5.04604 -0.604082 -0.582744 0.361846
H 11.3669 7.03508 5.8486 -0.202069 -0.036273 1.150497
H 7.83342 3.78233 1.9193 0.447375 -0.391875 -0.208871
H 11.2412 10.1095 11.8151 0.501153 0.564159 0.138548
H 4.95305 7.56033 10.7009 -0.575165 -0.331843 0.157726
H 3.50315 1.5266 7.32603 0.968414 0.417788 0.506648
H 11.6825 8.51421 8.83151 -0.272149 -0.164739 -0.029818
H 11.2365 7.79815 4.05312 0.587591 -1.138484 0.223231
H 12.0235 9.28952 10.7589 0.342088 -0.172813 0.249325
H 3.13425 0.81193 0.30523 0.08049 0.289234 -0.131868
H 6.96313 9.45152 2.31564 0.565185 -0.669673 0.160133
H 2.33752 9.53133 2.68851 0.671218 0.409371 0.006814
H 4.6023 11.2023 3.75988 -0.276065 -0.273969 -0.461055
H 5.48023 9.73264 10.1387 0.527703 0.640329 -0.372807
H 1.39718 8.28273 1.60465 0.369582 0.782346 2.258323
H 2.21456 6.60507 5.23491 0.292629 0.039414 1.199268
H 6.05675 7.43615 1.16663 -0.66237 -0.391141 -0.045107
H 0.37548 10.2554 3.61698 0.416356 -0.335813 0.200644
H 4.2017 3.62172 7.76554 0.057604 1.170409 -0.805069
H 11.5716 6.70052 3.01306 -0.287385 -0.948255 -0.131636
H 7.30701 0.53982 8.40196 1.384694 -0.203829 -0.595545
H 0.01695 5.13086 1.3039 0.340601 -1.033231 0.366742
H 5.20831 2.26646 12.0254 0.440067 -0.330028 -0.479508
H 1.7751 3.16114 4.01099 0.722002 0.512367 -0.137695
H 11.246 10.2293 3.51905 0.902901 0.968923 0.761305
H 8.93569 4.11443 0.33736 -0.203994 -0.33074 -0.321538
H 0.9258 3.18683 8.40192 0.025486 0.344295 -0.276826
H 6.71052 2.64208 7.88762 -0.74732 -0.374852 0.936065
H 7.0322 3.04281 6.03382 0.596769 1.642363 0.671587
H 6.61712 7.59764 5.57736 -0.280115 0.155128 -0.024073
H 9.6991 9.27592 8.70073 -0.04884 0.023602 -1.056042
H 11.1439 6.24973 9.76175 -0.601749 -0.51712 0.162021
H 5.04317 5.19633 1.34469 0.589776 0.046434 0.387893
H 2.71926 10.7086 10.2156 0.463529 -0.070186 -1.266978
H 6.98714 0.90775 11.4296 0.44088 -0.698052 0.674766
H 10.5588 4.87381 10.4152 0.302516 0.611937 -0.469323
H 6.41918 11.8305 2.35694 -0.052217 -0.105009 0.691872
H 10.0787 6.10261 1.33025 0.613812 0.214801 0.269146
H 2.68879 8.60097 9.09759 -0.044494 -0.578264 0.774451
H 2.53131 7.28277 10.1193 0.66313 0.602871 0.315184
H 9.57729 12.1265 0.93847 0.406228 -0.329517 -0.373764
H 4.63733 7.1693 0.4773 -1.793211 0.969541 -0.688434
H 5.86019 4.15172 2.37122 -2.581681 0.906848 -1.500462
H 11.9516 3.34523 11.9688 -0.143862 0.053932 0.044336
H 8.98763 5.80491 8.35066 -0.569641 -0.064629 -0.945068
H 10.7485 0.7831 7.14327 -0.453953 1.017718 -0.015152
H 8.32873 6.54095 11.8492 0.163922 0.64194 -1.444426
H 8.83338 5.88092 6.74373 -0.687822 0.269009 1.51219
H 1.12756 0.05747 11.1818 -0.330389 0.40374 0.081778
H 9.50578 6.28566 4.45325 1.966182 0.365598 -0.402658
H 10.619 2.41475 7.22518 -0.06313 -0.523191 -0.328545
H 3.35628 5.62212 7.08074 -0.924775 0.604627 -0.205879
H 8.1193 2.90328 11.9457 0.283983 0.18985 0.458951
H 12.0097 6.70959 1.29582 2.614656 1.832738 -2.120793
H 8.13216 11.1409 5.09545 -1.344802 -0.959537 0.565066
H 2.44942 5.33043 3.64785 0.03723 1.045263 0.333396
H 9.59997 2.43514 5.20579 0.383543 -0.177671 0.147311
H 0.15276 4.29665 6.54937 -0.165587 0.524904 0.01495
H 8.99466 12.1433 3.11799 0.233567 -0.100465 -0.220097
H 9.27486 1.25182 1.10198 0.027227 -0.316179 0.477707
H 10.4726 2.98075 11.6461 -1.211528 -0.327575 0.857984
H 7.91313 4.44336 3.26951 0.727902 2.816934 1.597979
H 11.5269 11.3384 5.83479 -0.453016 0.700889 0.482555
H 4.78343 10.7808 9.25179 0.260346 0.265621 0.424287
H 8.33032 11.1816 11.8368 -0.012274 0.657954 0.380129
H 9.02237 6.72505 10.4181 -0.861174 -0.210693 0.798424
H 12.2759 11.6531 10.9092 0.056167 0.059822 0.10104
H 8.10413 6.6968 4.7173 -0.406443 0.436031 -0.024968
H 6.38863 7.84943 11.1504 0.110775 -0.264681 -0.240302
H 7.414 8.87421 5.2275 -0.218439 0.215084 -0.106373
H 10.308 8.65426 7.32513 0.53148 -1.581234 -0.424348
H 8.59721 0.10079 7.47861 -0.423765 0.503387 0.201803
H 8.78904 0.38699 4.45272 0.14727 1.234275 0.46954
H 6.70162 1.94142 10.3693 0.025464 0.478414 0.194301
H 9.16169 9.70077 10.9808 0.501268 0.976695 -0.552924
H 12.3653 12.3844 3.39767 0.762144 0.466468 -0.765899
H 9.14091 0.35336 9.60654 -0.12059 -0.077065 0.291747
H 0.3197 11.9844 7.54922 -0.155833 -0.657345 -0.412718
H 7.30161 7.40935 7.81126 0.034077 0.097673 -0.681749
H 8.65186 2.66949 4.05207 -0.481296 0.243132 -0.885298
H 2.85879 2.11263 8.5663 0.424475 0.245474 0.566442
H 1.14963 5.45857 6.94885 1.547205 0.470939 -0.204887
H 4.52477 2.59118 0.94018 -0.200729 0.460504 -0.275204
H 1.55351 4.52587 12.271 -0.347366 -0.375797 0.510593
H 5.52051 1.74542 8.6649 0.866257 0.89488 -0.572296
H 9.71195 0.0181 11.0337 -0.023701 -1.038913 0.829655
H 6.97903 11.263 10.9807 0.433709 0.607372 1.253798
H 7.76279 4.29252 6.89729 -1.465589 -0.515573 -0.358596
H 1.97163 8.4006 3.74243 -0.096415 -0.214171 -0.325789
H 2.95919 5.91852 11.7245 -0.307584 0.490255 0.026761
H 9.11594 8.84027 2.16542 -0.003776 -0.37376 0.314814
H 0.63337 8.52628 0.31567 -0.687576 0.984679 -0.743025
H 2.53992 6.8204 7.7402 0.040757 0.850971 1.299098
H 1.32441 3.15114 9.83738 0.333613 0.229476 0.907352
H 7.25569 8.24968 3.34526 0.209361 0.613986 -1.882421
H 11.8926 0.79544 2.23769 0.424197 0.371124 -0.067923
H 2.35784 7.31568 12.2327 -0.940012 0.285056 0.948131
H 0.5197 7.79979 9.38008 -0.495192 0.115766 0.350101
H 1.30791 4.59473 1.9756 1.234937 -0.008754 1.211399
H 9.90437 10.2462 0.58906 -0.031272 0.29306 0.026544
H 6.71115 11.1305 1.06037 0.003737 -0.227893 -0.173816
H 6.40793 8.06436 8.73586 -0.908174 0.29227 0.710733
H 1.33929 0.6421 7.85181 0.269845 -1.174635 0.217379
H 2.57954 1.44846 5.34336 0.231449 -0.318987 -0.148005
H 2.03747 0.11422 1.18866 0.047096 0.176742 -0.455334
H 2.24217 11.2129 8.84909 -0.338037 0.266073 -0.652177
H 11.7215 6.55563 7.29143 0.060375 -0.513916 -0.019252
H 2.77381 3.7572 11.7804 1.970497 -1.778851 0.821915
H 11.2898 3.82796 4.51041 -0.633918 -0.178561 0.542881
H 2.44601 0.18286 6.25493 0.359408 0.050196 -0.352056
H 10.7364 10.9996 7.13952 0.013263 0.268873 -0.145519
H 3.51823 11.0368 1.07722 -1.696886 0.847463 -1.384385
H 4.51836 12.1511 4.91141 -1.341495 1.131048 1.192469
H 8.52032 6.24143 1.79127 0.898991 -0.150839 -0.763939
H 3.39501 4.38542 2.78318 2.090023 0.050198 -0.784055
H 4.68261 10.7656 1.79409 0.204342 -0.476608 1.07345
O 5.64605 10.619 9.69852 -0.471901 -0.63833 -0.172118
O 8.99388 11.9314 4.07584 0.030345 -0.770617 -0.077968
O 11.182 11.7644 6.67557 0.388714 -1.787897 -0.451354
O 11.5925 6.85904 4.09852 -0.348199 2.043195 0.645628
O 1.611 9.02115 3.06749 -0.149596 0.347298 0.338412
O 5.70029 8.13458 10.5298 0.156942 0.256717 -0.051387
O 10.3198 1.57311 7.60787 0.630499 0.019505 0.149412
O 9.91936 10.9222 12.2823 -0.590489 -0.998709 -0.061008
O 1.47715 2.38204 4.51991 -1.221027 -0.589006 -0.588836
O 5.43109 6.77899 0.77608 2.636544 -0.496314 0.866009
O 2.56851 6.28866 6.95618 1.096487 -1.621702 -1.535512
O 1.19252 2.55525 9.09096 -0.355787 -0.000832 -0.734153
O 1.29148 12.066 7.65669 -0.070979 1.949036 0.211771
O 11.2778 3.3258 11.2718 1.265189 0.423073 -0.861477
O 0.31535 0.69816 2.76466 -1.26324 -1.038261 0.769754
O 2.55064 4.49484 3.17775 -2.145286 -1.23412 0.387675
O 11.3107 6.39525 1.78709 -0.997557 -0.957183 1.731916
O 7.44012 11.6629 11.7904 -0.903696 -1.369814 -1.20511
O 9.94238 9.42662 7.73196 -0.629268 1.876739 1.574125
O 1.2196 7.91844 0.76061 -0.355728 -1.670905 -1.987187
O 3.76345 1.98089 8.19819 -1.096512 -0.745619 -1.034146
O 9.12707 5.96703 1.0617 -3.216013 -0.609025 -0.323278
O 4.32252 2.34709 0.01988 -0.731583 -0.201834 0.674377
O 9.67906 0.67975 10.3601 -0.105998 0.856693 -0.952284
O 4.95017 4.37829 1.88298 2.177471 -1.197115 1.607271
O 6.33824 10.9508 1.96306 0.37209 0.699307 -1.151143
O 8.65031 5.91403 4.54828 -0.954501 -1.312168 0.204413
O 8.74598 2.15531 4.85461 -0.213549 -0.37307 0.895151
O 8.30721 5.84757 7.61213 1.822392 -0.11758 -0.673108
O 2.0957 4.31312 11.4811 -1.297124 1.604644 -1.524519
O 0.37773 4.95978 7.22638 -1.465386 -1.429076 0.505423
O 10.095 8.82234 2.27612 0.568252 0.060279 -0.1342
O 3.11962 0.74205 5.80098 -0.549189 0.028403 0.57117
O 3.10424 6.89722 11.7857 1.359437 -0.872884 -1.29068
O 6.89398 3.83286 6.64718 1.012725 -1.582642 -0.663314
O 12.0003 10.7001 4.00683 -1.499932 -0.664904 -0.727211
O 7.33926 10.7132 5.65167 1.326981 0.591549 -0.893799
O 4.41022 4.47993 7.26443 0.960011 -1.590991 -0.066478
O 11.3376 3.14863 5.2182 1.480796 0.82614 -0.804887
O 9.50731 0.44676 1.61319 -0.184545 0.878562 -0.121249
O 11.1538 7.17984 6.82063 -0.069303 0.340544 -1.302843
O 12.1837 9.85352 11.5451 -0.530045 -0.1791 -0.175648
O 10.3722 5.63029 9.80107 0.196633 0.172619 0.092299
O 2.94084 10.668 9.24306 -0.22375 -0.510341 1.939823
O 7.44331 8.57525 2.37939 -1.037915 -0.133663 1.103011
O 3.70472 10.7161 1.94351 1.091434 -0.748585 0.656166
O 11.9622 7.98777 9.59921 1.073647 -0.194529 -0.697224
O 6.67271 8.1691 7.81535 0.771278 -0.9576 -0.008816
O 2.44594 7.6522 9.21617 -0.70836 0.499767 -0.808718
O 7.16586 7.98123 4.87558 -0.098966 0.39474 0.94369
O 8.17456 6.92924 10.9162 0.810678 -0.681928 1.203377
O 8.05908 12.263 8.24917 -0.690295 0.284691 0.494171
O 0.26617 0.13401 10.7211 0.560464 -0.686851 0.215854
O 7.75408 3.63011 2.87013 -1.128903 -2.151014 -1.347698
O 8.71281 9.40984 10.1477 0.513192 0.732825 0.599453
O 5.13397 11.7712 4.31502 1.483995 -0.539361 -0.626609
O 2.4663 0.1018 0.30989 -0.203186 -0.186106 0.11708
O 8.87561 3.14789 0.14434 -0.19352 0.148239 -0.048525
O 6.72748 1.83685 11.3506 -0.046621 0.696281 -0.794852
O 0.69798 4.39581 1.27444 -1.877554 0.576591 -1.516703
O 1.92762 6.71557 4.32443 -2.741974 0.573533 -0.488176
O 6.49091 1.99702 8.6363 -0.58543 -0.545877 -0.207874
Na 11.4727 1.59103 9.669 0.143532 0.329266 0.082213
Na 7.26852 10.2665 7.88993 0.197714 -0.029782 0.16403
186
energy=-1002.08016949 config_type=nep2xyz pbc="T T T" virial="-16.04052063780551 0.32824352260973355 -2.6411566506561823 0.32824352260973355 -4.77492400089141 -4.922784123736131 -2.6411566506561823 -4.922784123736131 -9.840808163034604" Lattice="12.4 0.0 0.0 0.0 12.4 0.0 0.0 0.0 12.4" volume=1906.6240000000003 Properties=species:S:1:pos:R:3:force:R:3
H 7.18827 11.882 11.0303 0.20297 -0.473022 0.710469
H 9.65523 7.15655 6.93756 0.409108 -1.195185 -1.511238
H 1.46613 6.38178 7.77891 0.816295 1.400322 0.051301
H 9.18011 3.02488 10.8536 0.298382 0.358278 0.908698
H 12.2212 1.68394 10.834 -0.303772 -0.812541 -0.687627
H 2.98883 10.4192 9.61567 0.088027 -0.541928 -0.345645
H 3.25814 7.2284 8.71684 0.000499 0.378039 -0.88161
H 11.6859 11.9245 10.5014 0.078667 -0.164304 0.476522
H 6.05948 8.5157 11.1038 0.945739 -0.914342 -0.605414
H 0.68277 0.52053 9.25922 -1.62452 0.54062 0.349524
H 4.51858 9.36729 0.11255 -0.360506 -0.740928 0.308566
H 12.2422 2.45679 5.87865 -0.236349 -0.089495 0.566636
H 10.6711 0.81286 8.93119 0.632767 -0.694362 -0.515921
H 2.80522 10.9217 8.21675 -0.023694 0.365279 -0.460874
H 2.67596 6.00614 0.25248 0.231099 0.090267 0.335279
H 5.958 5.26365 2.4309 0.548649 -1.372041 -0.580574
H 1.30193 10.0896 2.70203 0.096273 0.136585 0.16978
H 4.66038 2.05863 0.56394 0.818366 0.214113 -0.022027
H 3.62388 6.26097 2.41848 -2.752873 0.012047 -1.371382
H 6.31215 0.81519 11.9708 0.415368 -0.380265 0.273991
H 9.81249 0.27532 7.65485 0.382491 0.02136 0.574105
H 8.94629 1.34646 3.75009 0.358349 0.58189 1.178077
H 1.88276 6.29268 2.36412 1.293252 0.131954 -0.457284
H 0.47734 6.28591 3.93869 -0.186375 -0.821774 0.853857
H 12.3626 6.04891 8.12661 -1.546992 0.947223 0.841131
H 3.74506 2.91057 11.459 -0.194755 0.343769 0.188629
H 4.83071 0.99956 8.44738 -0.445703 0.139131 -0.062518
H 2.99378 12.3426 10.7956 -0.484979 -0.329839 1.117923
H 8.06041 11.4484 6.41167 -0.258926 -0.222603 0.377478
H 5.03864 2.74163 5.92356 0.092976 -0.20685 -0.197093
H 0.83389 11.5499 3.12573 -0.046086 -0.993207 -0.905294
H 10.5156 5.64245 5.54674 0.67247 -0.347634 0.204419
H 10.7952 2.64737 12.3872 -0.464757 0.892012 0.041829
H 1.72027 11.6875 0.46486 0.205962 0.192493 0.271878
H 5.76618 4.01527 7.80376 0.800877 -0.092885 -0.696048
H 7.03882 8.68216 2.69415 -0.234251 -1.05225 -1.638727
H 0.04624 4.67633 10.4119 1.016571 0.321002 -0.517522
H 8.31838 7.83691 1.0887 0.516235 0.371718 0.032997
H 2.62556 8.02294 0.18137 0.12842 -0.515351 -0.103467
H 7.45837 10.3394 8.64567 -0.259824 -0.432855 -0.317468
H 10.1565 9.57136 7.18938 -0.097163 0.054352 0.011391
H 9.52363 8.55623 0.29929 -0.052557 0.434659 -0.177709
H 0.75917 1.17923 4.19531 -0.877576 0.678666 0.895055
H 9.79755 6.68422 4.74259 -0.005896 0.697878 -0.355867
H 4.3857 7.97254 7.07343 0.586108 0.101416 0.230784
H 4.80904 9.48737 5.53516 0.459107 -1.512348 1.422483
H 10.4736 4.87143 8.95147 0.874864 1.195515 -0.774319
H 6.59133 5.24821 0.35094 0.133946 -0.792234 -1.789045
H 2.8458 8.87292 1.54022 0.060841 -0.507532 -1.553431
H 6.12401 9.98835 4.06977 -0.061624 -0.167474 0.249939
H 12.313 4.20441 5.0049 -0.05758 -2.708263 -0.572324
H 5.13757 1.10855 4.77051 -0.417148 -0.464015 0.089952
H 11.0627 2.08094 4.89795 -0.016137 0.161257 -0.010988
H 0.35306 5.22212 6.09609 0.757294 -0.038787 1.645654
H 12.0806 7.37468 3.21157 1.211657 -0.956866 -0.133789
H 8.21355 11.0235 3.08482 -0.663556 -0.461618 0.4831
H 6.57597 0.78127 5.25272 -0.028801 0.158539 -0.16694
H 5.84543 7.1443 2.63732 0.462742 0.792674 -0.440111
H 2.18512 10.2892 12.2996 -0.352528 0.593184 0.018213
H 3.62549 4.41989 11.0079 0.023506 -1.534912 -0.30743
H 9.08338 2.1118 9.63339 -0.720919 1.562558 0.268349
H 3.9435 3.23351 6.91154 -2.247775 -0.544156 0.999083
H 8.47929 5.65907 11.5256 0.904087 -0.484998 0.32287
H 1.09284 4.84001 9.21848 -0.384981 -0.320266 1.718141
H 9.61657 0.86008 0.20501 0.287848 1.524319 -0.275693
H 12.1311 2.09246 8.37242 0.451183 0.051578 -0.007223
H 7.5127 10.0201 4.7563 0.082097 0.277607 -0.024416
H 6.99478 8.46255 9.83884 0.234712 0.225034 -0.706399
H 12.0259 10.4755 3.89445 -1.501542 -0.74789 0.086815
H 5.13598 1.08363 11.0804 -1.250182 -0.628767 -1.035244
H 1.61705 0.9323 3.02806 0.447646 0.226586 -1.433088
H 2.87624 3.08948 9.188 0.183996 0.339946 0.788524
H 1.76732 0.51696 7.40683 1.881601 -0.740638 0.86682
H 8.99034 12.0129 2.22676 0.500537 -0.281224 0.704273
H 5.79878 10.3139 12.3562 0.019824 -1.829389 0.055288
H 6.32772 8.63513 1.16803 0.505375 -0.776484 1.007074
H 10.3863 10.6263 6.07311 0.503732 -0.353258 -0.310256
H 5.77915 1.97678 7.77555 0.376235 0.902826 -2.192513
H 10.1931 11.8856 12.3347 1.923894 -1.050095 -1.229573
H 8.57394 12.2667 5.27223 -1.084791 0.125516 -0.236357
H 8.0188 11.9239 12.3362 2.424278 0.334616 0.805971
H 9.92302 7.71773 2.70473 0.491574 0.210404 1.41095
H 6.71355 2.98337 4.77598 -0.367252 -0.717049 0.071584
H 10.449 10.7206 3.95708 0.207608 0.097321 -0.123537
H 10.7594 3.40063 7.67887 -0.158276 -0.042506 -0.075873
H 9.61772 6.36803 12.2654 0.15259 0.478347 0.391373
H 6.13134 7.19674 5.81728 0.010604 0.049917 0.39785
H 4.08502 6.4136 10.3618 -0.4952 -0.264229 0.891079
H 8.8031 2.38209 1.45032 -1.001535 -0.013417 0.471984
H 2.51437 1.86448 1.11568 -1.040218 -0.886256 -0.152169
H 7.4835 7.40682 5.10213 -1.03502 -1.323168 0.254807
H 7.10449 4.19533 3.92419 0.408851 -0.425279 1.734485
H 1.62668 8.38666 3.55459 0.749947 -0.227581 -0.412378
H 6.11183 5.22955 8.56092 0.849268 -0.546682 -0.137711
H 2.58244 8.50111 8.07592 -0.022346 0.951417 0.553887
H 5.395 7.02156 9.83752 0.096157 0.050684 -0.049074
H 9.57668 7.29003 8.47909 0.322793 0.400558 -0.936869
H 2.62513 1.88626 8.20945 -0.232445 1.184774 0.051428
H 5.55008 6.4212 3.98163 0.497454 0.121521 0.971163
H 9.6749 3.89251 0.29756 0.555417 0.876143 -0.409012
H 4.39038 10.8465 5.06669 -0.746482 1.283537 -0.076387
H 10.5067 8.67244 3.86679 0.126693 0.065459 0.229391
H 4.46083 3.38756 1.49966 -0.117829 -1.024341 -0.932537
H 3.33112 0.11226 9.3403 0.295094 0.845019 0.709087
H 6.78425 0.09972 8.93214 -0.308673 1.630197 -0.73783
H 10.2069 5.7686 10.027 0.593925 0.818637 0.708129
H 3.01912 9.22208 3.7674 -0.041896 -0.064035 0.144887
H 9.23081 3.35962 8.28056 1.409446 0.541854 -0.816779
H 0.8583 3.07569 7.99201 0.892514 0.253648 0.277074
H 0.36357 2.89458 11.5721 -0.322021 -0.234253 0.254641
H 6.87548 3.81211 2.0058 0.510323 -0.342633 0.539031
H 8.45122 12.3341 9.27976 -0.777052 0.69795 -0.968232
H 12.347 11.2594 11.7619 0.027076 -0.145762 -0.351318
H 2.06777 5.71452 11.1513 1.194669 1.120751 1.219543
H 7.5776 1.47683 2.01181 -0.183751 -0.442976 -0.209657
H 2.89206 0.4312 4.85556 0.985193 -1.052872 0.631705
H 5.83426 8.69211 7.41427 -0.55771 -0.435503 -0.40811
H 1.20181 1.31216 0.34155 -0.472554 0.476389 -0.118997
H 3.46868 0.21596 6.36111 -0.198749 -0.514998 -1.053205
H 6.33993 6.16974 11.5314 -0.047624 0.53196 -0.697668
H 8.75936 2.45241 4.86997 0.253254 -0.481095 -0.383448
H 8.02446 9.14697 7.81435 2.059738 -0.946911 -0.935197
O 5.74482 1.53638 11.652 0.54868 0.949281 0.812671
O 9.50552 12.3466 0.39422 -1.585862 -0.260878 1.601177
O 7.26099 9.44187 8.25888 -1.79596 1.3717 1.409965
O 3.06485 10.1073 8.69277 -0.164736 0.327045 0.662961
O 4.02251 2.65556 0.98703 -0.593563 0.834742 0.927598
O 5.50288 9.3338 0.03507 0.687342 2.711076 -0.443466
O 6.02229 1.50024 4.86086 0.181961 -0.258709 0.215983
O 10.8327 5.76736 9.26487 -1.58122 -1.868018 0.265237
O 12.1764 2.12458 11.7391 0.667249 1.031683 0.214545
O 6.685 5.29497 11.7082 0.156428 -0.200757 2.118421
O 5.16805 6.65322 3.13628 -1.143009 -1.30497 -0.535879
O 9.84771 2.95093 0.23712 0.139431 -1.847485 0.006467
O 11.1503 10.199 4.39809 0.418022 0.513298 -0.374115
O 7.08552 9.77262 3.92423 -0.038369 -0.350378 -0.504525
O 10.2532 7.7356 3.66927 -0.331106 0.264066 -2.452513
O 4.77875 3.42878 6.5474 1.701266 0.76851 -0.55651
O 3.72814 3.47531 10.6714 0.437252 1.535111 0.173379
O 2.31325 8.96948 3.14002 0.224748 -0.115655 0.330008
O 9.99398 10.5016 6.94689 -0.520179 0.289767 0.270455
O 9.76641 0.71651 8.52126 -0.699924 0.293542 0.357908
O 11.9846 2.41585 4.94075 0.19939 -0.368837 -0.366901
O 9.71701 6.18564 5.5722 -0.337171 -0.809817 0.532345
O 7.99782 2.33166 2.06946 0.944422 0.684087 -0.32142
O 7.20536 3.81284 4.84596 0.413995 1.059035 -1.706033
O 3.01955 8.83532 0.5259 -0.35066 1.088881 1.483471
O 1.47628 0.6047 3.91451 0.198164 -0.554144 0.226411
O 8.85229 11.7376 3.17255 0.585801 0.608848 -1.628728
O 9.4727 5.59051 11.7075 -1.338371 -0.245703 -0.603764
O 12.3197 5.09118 5.26862 -0.83919 2.986226 -1.146099
O 2.78338 6.25938 11.7006 -1.54532 -1.386309 -2.069806
O 1.01664 4.59337 10.2263 -0.675212 0.427481 -0.788916
O 9.4986 7.78417 7.62763 -0.604726 1.222765 2.397807
O 3.67655 0.00808 5.35944 -0.736683 1.50004 0.435474
O 4.68151 6.37394 9.60965 0.079544 0.045447 -0.80723
O 6.58986 4.43438 8.18568 -1.748585 1.011852 0.840236
O 0.58257 6.90202 3.20836 -1.567361 1.609487 -0.080491
O 8.7936 3.03212 9.97264 0.032182 -2.325789 -0.912898
O 0.78185 5.72238 7.81431 0.868085 -2.106155 -0.997392
O 2.80915 7.58619 7.90073 0.414958 -1.493515 0.12849
O 12.3468 2.85128 7.74871 -1.472833 -0.676502 -0.471273
O 11.5059 11.3048 11.268 -0.408085 0.284787 0.023093
O 0.54888 10.7165 2.61751 -0.053457 1.737297 0.857494
O 9.30636 7.83753 0.89074 -0.273719 -0.728263 0.509262
O 7.50002 12.0385 9.33727 1.093911 -2.321978 1.554901
O 4.61465 9.96699 4.74674 -0.211648 0.220377 -1.678122
O 1.72061 1.22699 1.14933 1.536877 0.437831 0.713545
O 2.68351 0.3028 7.7969 -1.526748 0.489628 -0.861974
O 9.84208 3.76584 7.59355 -1.220205 -0.149195 0.512671
O 5.29462 8.20274 6.73095 -0.40136 0.576697 0.557949
O 6.85919 8.06324 1.86065 0.021541 1.97019 0.533429
O 2.46043 2.90407 8.33841 0.501763 -1.512158 -1.103143
O 5.53692 1.63413 8.60053 0.155763 -1.194337 2.241451
O 12.174 0.86705 9.51245 1.198046 -0.307287 -0.229716
O 6.59229 7.87972 10.4936 -0.983699 0.930405 1.331691
O 7.15639 11.7325 12.0287 -3.086866 -0.44868 -1.802583
O 2.72911 6.17616 1.836 1.690714 -0.228794 1.853031
O 6.27122 4.52956 1.78336 -1.295908 1.659678 0.122001
O 1.79992 11.1755 12.0483 0.379089 -0.630353 -0.257746
O 7.72399 11.8705 5.60673 1.204204 0.141019 0.378371
O 3.70292 0.30784 10.2684 -0.118279 -0.424407 -1.426034
O 9.2691 1.63714 4.64822 -0.294158 0.119932 -0.523767
O 6.83147 6.68189 5.34489 1.251406 1.101435 -0.525761
Na 8.1073 4.97215 6.56977 -0.09609 0.094438 -0.26788
Na 6.22177 3.33644 10.3035 0.042669 0.084494 0.024283
186
energy=-1003.50912807 config_type=nep2xyz pbc="T T T" virial="-8.237623624642815 -1.8535530796014528 6.670544326710656 -1.8535530796014528 -12.570526184653396 0.8930513415599264 6.670544326710656 0.8930513415599264 -14.385296476299036" Lattice="12.4 0.0 0.0 0.0 12.4 0.0 0.0 0.0 12.4" volume=1906.6240000000003 Properties=species:S:1:pos:R:3:force:R:3
H 8.31153 9.44072 7.59135 -0.565599 0.650049 -0.054085
H 0.22474 9.88539 2.97168 0.302432 -0.379055 -0.559587
H 5.98384 5.5254 5.76662 0.023784 -0.389437 0.222237
H 6.0857 10.0356 6.50538 0.104755 1.396246 0.955944
H 1.98569 5.44525 3.0655 0.582322 -0.157821 0.021169
H 0.38182 6.11223 6.72186 -0.37056 0.256667 -0.212385
H 10.8483 11.0254 7.32483 0.025425 -0.46186 -0.134818
H 10.8174 8.45733 6.55843 -0.379997 -0.085723 -0.172558
H 5.84136 3.92972 2.09745 -0.099835 0.377775 -0.010383
H 11.9223 9.03554 9.9242 0.409042 -0.315359 0.529666
H 7.86526 5.06335 10.8763 -1.487859 -1.677596 0.642787
H 7.0991 0.85737 10.3326 0.257707 0.147644 -0.51993
H 0.21001 8.53617 7.17719 -0.201769 -0.354147 -0.586549
H 12.3002 11.9965 3.64787 0.411082 -1.120192 0.524613
H 0.84754 8.80025 9.1806 0.125172 0.078199 0.292453
H 0.37349 2.49954 5.98172 0.928974 -1.215811 0.726637
H 9.69277 10.0043 2.64305 0.581036 0.182359 -0.029258
H 4.40284 6.95587 0.22344 0.219133 -0.132124 -0.286435
H 4.5072 9.46369 3.57359 -0.366834 0.465815 -0.033666
H 7.26372 9.18666 10.0349 0.595597 -0.050133 0.852384
H 2.22412 6.45026 11.4802 1.083669 0.155718 0.568572
H 1.87482 6.64933 6.62062 -0.392734 -0.556835 -0.091301
H 8.79944 8.78401 1.17371 -0.608158 0.341586 -0.295113
H 12.1973 0.52065 1.3286 0.002508 -0.854398 -1.242699
H 5.68675 6.22204 7.16598 0.413792 -0.17375 -0.560491
H 10.1403 6.81236 3.65936 0.318378 -0.48032 0.543641
H 6.1473 11.1352 9.96287 0.30155 0.458247 0.01441
H 0.78734 10.8678 12.2215 0.996284 -1.435191 0.693889
H 1.78139 2.62267 1.10021 -0.209661 0.196745 -0.555914
H 0.54229 5.57775 3.52875 -0.704966 0.400417 0.174389
H 12.2596 1.61801 2.274 0.304007 0.428665 0.517555
H 7.77625 4.2711 1.40835 0.197028 0.409156 -0.519254
H 11.3634 6.92175 9.71672 -0.364429 -0.059587 -0.603782
H 3.33072 3.61686 7.64542 0.409346 -0.408047 -0.024506
H 5.99235 4.68067 8.67261 0.095671 0.520707 -0.364623
H 6.37103 7.51026 5.18102 0.361547 2.432815 0.956219
H 1.59459 10.5673 6.72803 -0.376399 -0.83285 0.721516
H 6.83073 0.38722 1.31263 1.764649 1.476789 0.719334
H 1.2644 4.93087 10.2391 -0.018285 0.111623 -0.368644
H 4.19639 0.16444 11.7877 0.005564 1.306914 -0.412021
H 6.12424 3.83878 11.9513 0.889706 -0.205176 1.329177
H 8.11131 0.69223 2.23493 0.685413 -0.24427 0.585506
H 9.53204 10.0285 5.1846 0.585584 0.508225 -1.639293
H 9.15648 5.77607 2.39118 -0.326472 0.124263 -0.718871
H 3.01639 8.02457 5.22906 0.278999 -0.148753 -0.135949
H 3.93257 7.31919 6.39877 -0.189278 0.141703 -0.734955
H 5.24433 11.267 2.38808 0.367469 0.690325 -0.854653
H 8.49897 7.29029 0.97525 -0.831896 0.40586 -0.37448
H 1.48585 3.9459 8.92998 0.394961 0.132478 0.164201
H 8.85154 2.24704 11.2719 0.102733 0.636585 0.106867
H 9.73442 4.17472 6.82672 0.106765 0.128777 -0.244902
H 5.11585 0.7481 6.22128 -0.296603 -0.431564 0.716989
H 10.9714 4.57557 11.2187 0.165478 0.632061 0.048922
H 10.9256 3.14942 6.36839 -2.031358 0.807186 0.005281
H 0.69752 1.13612 11.8446 0.580471 0.813667 -0.305706
H 11.5614 10.8091 4.39077 -0.457165 -0.114766 -0.004662
H 6.57749 1.18067 6.4977 0.04179 -0.073089 0.471369
H 6.23349 3.9711 4.27803 -0.9311 0.219677 -0.651542
H 7.28048 2.75917 1.36364 -0.154794 0.779924 -0.76969
H 8.76104 7.36142 3.91258 -0.900644 0.836345 0.013366
H 5.95146 11.6376 6.99874 0.062041 -0.327073 -0.180777
H 4.2303 5.41357 2.63985 -0.158878 -0.208052 -0.053367
H 8.88193 2.23307 6.05463 0.09691 0.466123 0.428524
H 5.31131 2.38914 7.57865 0.140144 0.964909 -0.536127
H 4.25998 1.20287 2.10292 0.365944 -0.719249 -0.206028
H 5.01516 11.6959 0.845 0.453931 0.120408 1.666856
H 8.37967 1.15589 12.3071 -0.202692 0.028377 0.980597
H 4.61848 3.24177 2.62017 -2.10171 -2.754887 0.042697
H 1.41042 0.46161 6.85081 -1.668254 1.359989 0.336628
H 8.14841 8.55703 11.225 -0.594607 -0.536276 1.581541
H 9.49968 9.27349 10.2346 0.603213 0.418289 -0.53331
H 11.7024 5.8435 11.871 0.453873 -0.142314 -0.148133
H 11.83 0.29034 11.3468 0.113628 0.155666 -0.391596
H 12.0207 7.85594 3.44434 -0.024377 -1.205893 0.369009
H 9.17582 5.71775 10.9025 0.781961 0.486109 0.197873
H 6.332 8.93518 4.48504 -0.868493 1.628966 -2.378519
H 1.23868 11.2336 5.35277 0.104845 0.20066 0.605706
H 5.66844 10.1395 8.96188 0.044404 0.068237 -0.283945
H 2.87406 1.8937 2.45669 0.194152 0.364556 0.215421
H 4.78951 3.39679 11.3374 0.712031 0.35567 -0.101949
H 7.96543 8.65908 6.25464 -0.648029 0.407178 -0.319166
H 10.0395 0.44957 3.03356 -1.695789 -0.437712 1.009423
H 9.92117 0.55457 10.6378 0.106391 -0.567368 -0.351031
H 2.83619 1.97974 11.6077 0.225321 -0.232444 0.193368
H 10.0537 6.52273 6.44813 0.288813 -0.048647 0.136535
H 8.49017 1.38491 4.82091 -0.270985 -0.321825 0.360094
H 6.40161 0.7891 8.82763 0.022619 -0.315078 1.106073
H 5.52559 3.67893 6.67237 0.358698 -0.162118 -0.83281
H 1.38935 3.552 2.28689 -0.245076 0.9752 0.700476
H 11.9125 3.55698 9.84839 -1.215946 0.091453 -0.393415
H 2.15946 4.48753 7.11599 -0.540502 -1.319469 0.274476
H 10.4412 11.5702 9.93219 0.048045 0.870155 0.301108
H 3.11581 10.2409 11.9121 -1.513543 -0.219355 0.479582
H 5.97402 5.88033 9.65376 0.360381 -0.217935 -0.997681
H 4.25272 5.57427 11.7326 0.058769 0.748448 0.765733
H 6.29894 8.07523 0.821 0.524817 0.618842 -0.019182
H 0.62481 9.28428 1.48114 0.030836 0.125174 1.209933
H 1.15477 7.20001 10.6117 -0.270441 0.623342 -0.209656
H 7.16698 3.22578 5.20884 0.021202 0.245696 0.634118
H 11.1955 6.99966 8.11819 -0.245759 0.264323 0.469625
H 10.7342 9.40409 1.69639 2.095614 -1.228817 0.262336
H 9.15932 11.7062 3.87336 0.95307 0.952166 -0.269938
H 4.95252 8.99036 0.6594 0.550141 -0.264545 -0.177571
H 1.7853 8.60482 6.97972 -0.686647 0.254499 0.842217
H 0.95661 9.4585 11.6677 -0.435944 -1.379952 -1.938191
H 10.6191 10.0334 11.0837 -0.29542 -0.534956 -1.180463
H 4.44259 10.3705 11.1912 0.360277 -0.476288 0.536774
H 8.82763 5.81809 5.80615 0.591682 -0.049398 0.677141
H 1.88136 3.08597 11.1222 -0.402034 -0.236774 0.437792
H 3.79175 0.47913 4.62352 0.217849 -0.401794 0.324006
H 0.43793 3.64016 4.97372 0.213908 0.689815 -0.461193
H 5.14975 0.75688 10.7703 0.487519 0.358854 -0.895675
H 11.5747 7.36741 4.90762 0.399692 -0.301017 -0.178247
H 10.5407 3.99009 9.17426 -0.697159 1.62914 -1.56689
H 10.7266 11.8234 5.97144 -0.132347 -0.302056 0.917927
H 3.2925 11.8882 5.81665 0.995752 0.41663 -0.953222
H 1.53322 1.88338 7.60044 -0.892469 -0.368983 -1.022509
H 2.97147 7.79574 3.1102 0.55544 -1.321941 -0.629203
H 5.03652 10.7756 4.27154 -0.658276 0.590301 0.918428
H 9.72568 5.41058 0.91659 1.014591 -0.199918 -0.612886
H 3.31449 5.97421 1.51936 0.20103 -0.013658 -0.943784
H 1.93489 8.87624 3.30702 -0.568386 0.216665 -0.2893
O 8.10069 8.68364 10.2835 -0.42085 0.492349 -1.953924
O 3.83116 1.81106 2.70674 -0.512545 -0.23224 0.463117
O 0.86314 1.31856 7.10846 2.168902 -1.105375 0.853425
O 0.08723 11.1701 4.21182 -0.468946 1.058018 -1.098916
O 3.77041 6.2931 12.2162 0.015678 -0.554803 -0.62911
O 8.29584 5.80584 10.5269 0.904249 1.208913 -0.688931
O 5.75724 0.8968 6.99408 0.834508 0.359458 -1.033667
O 10.4302 9.71416 10.1554 -0.289282 0.701533 1.660662
O 1.19147 4.91324 3.27347 0.035995 -0.120773 0.069822
O 8.09611 8.18834 0.7816 1.350565 -0.771246 0.168829
O 6.55136 4.00753 5.18868 0.700398 -0.596847 0.010397
O 10.7242 6.83573 8.98446 0.526444 -0.13685 -0.172683
O 2.04534 2.471 11.8961 0.303877 0.197661 -1.196439
O 8.59856 1.33329 11.37 -0.005107 -0.626468 -1.108121
O 9.14623 0.30554 3.51885 1.164715 -0.327495 -0.678455
O 3.49985 6.05054 2.45494 -0.450801 0.439487 1.250835
O 9.18358 6.52333 3.77148 0.823227 -0.28853 0.058713
O 4.04602 10.3024 12.0963 1.34019 0.83868 -0.923302
O 1.82085 11.3211 6.18042 0.216824 0.98843 -1.098557
O 1.36325 6.37429 11.0622 -1.05894 -0.977158 -0.171288
O 6.3754 0.4905 9.77821 0.28838 0.035291 -0.678488
O 8.94029 5.56141 1.42702 -0.844625 0.153478 0.998392
O 1.45812 2.6328 2.01628 -0.177 -1.175167 -0.014495
O 10.6671 0.12362 10.1255 -0.521278 -0.318125 -0.025004
O 1.15362 4.01353 9.85996 -0.406141 -0.258942 0.356703
O 9.92624 10.3904 4.32919 -0.556693 -0.346829 1.458071
O 11.7671 7.0242 3.95406 -0.267887 1.386832 -0.231664
O 8.11439 1.75638 5.6635 -0.343373 -0.226698 -0.97087
O 9.93954 3.21696 6.75024 2.276804 -0.801895 0.152673
O 10.8922 3.38862 9.78734 2.280186 -1.759771 1.829263
O 5.24056 3.38671 7.54102 -0.660637 -0.399486 1.555036
O 0.4414 9.05038 2.45621 -0.317746 0.81993 -0.520332
O 4.13171 12.2838 5.3344 -1.33119 0.020742 -0.133012
O 5.34158 8.1359 0.93175 -1.154167 -0.370177 0.117493
O 6.24383 5.64 8.73321 -0.675594 -0.126043 1.017667
O 11.851 0.7443 2.18886 -0.48498 0.167894 1.133439
O 6.17434 10.7129 7.24494 -0.090268 -1.798327 -0.53166
O 5.64206 6.33896 6.17884 -0.380791 0.208746 0.439172
O 10.7741 11.9032 6.95604 -0.119758 0.762552 -0.722034
O 5.37768 12.0371 1.72143 -0.743896 -1.114447 -1.113629
O 11.4108 7.70497 6.44464 -0.01892 -0.329875 0.308788
O 0.46298 8.73821 10.1043 -0.298984 0.17012 -0.953994
O 7.69121 1.00973 1.41171 -2.488153 -1.030415 -1.122528
O 4.47455 1.04483 11.4027 -1.251373 -1.389779 1.45289
O 9.97581 9.93554 1.6818 -2.409525 0.93334 0.122654
O 2.79907 8.57559 3.62773 0.686709 0.662441 0.939107
O 1.02354 9.01559 7.49565 1.275612 0.03287 -0.281221
O 9.3518 5.84609 6.64607 -0.772844 0.202049 -0.810582
O 3.07598 7.73132 6.1705 -0.174302 0.162162 0.546679
O 6.67651 8.51311 5.23053 0.54851 -3.664438 1.695175
O 10.8527 5.47588 11.6062 -0.48927 -0.497338 0.334628
O 5.86594 10.2055 9.91828 -0.279375 -0.424052 -0.021413
O 0.22331 0.31004 11.9192 -0.233282 -1.3135 0.772675
O 5.11906 4.00494 2.7692 2.58131 2.876111 0.321897
O 8.6647 8.91306 6.8796 1.288837 -0.689746 0.557624
O 5.22623 10.1311 3.59562 0.425913 -0.693912 -0.891983
O 12.2351 3.11191 5.49512 -0.984937 0.442206 -0.403646
O 7.083 3.69527 1.01355 0.398236 -1.584676 0.863264
O 5.49979 4.07246 11.2758 -1.781637 -0.035381 -1.283469
O 1.2001 9.94372 0.03456 -0.556271 3.144706 0.95867
O 1.29725 5.87702 6.8716 0.914365 0.148556 0.186068
O 2.37529 3.5464 7.47036 0.02015 1.737189 -0.108317
Na 11.0306 1.40315 8.23449 0.091942 -0.041479 -0.207041
Na 8.50295 7.02433 8.54561 0.029642 -0.396865 0.152306
186
energy=-1002.31741708 config_type=nep2xyz pbc="T T T" virial="-11.234834591235742 -1.8291338464362725 -3.0497622987846604 -1.8291338464362725 -8.270682411062344 0.7444177049940863 -3.0497622987846604 0.7444177049940863 -5.075094925530061" Lattice="12.4 0.0 0.0 0.0 12.4 0.0 0.0 0.0 12.4" volume=1906.6240000000003 Properties=species:S:1:pos:R:3:force:R:3
H 9.28421 10.1514 10.966 -0.091985 0.9504 0.199823
H 8.73862 7.77873 0.59877 0.250897 0.388039 0.116212
H 5.77853 5.45952 6.28623 0.023617 -1.970498 -1.652984
H 6.65512 10.6672 5.48988 -0.510564 0.388426 -0.620659
H 0.32857 1.99167 3.88921 0.107897 -0.72138 -0.13132
H 0.51738 7.78782 3.08579 -0.479424 -0.012421 -0.431887
H 3.55117 5.15759 6.17958 0.128659 -0.343994 -0.028101
H 11.0428 7.73053 3.99028 -0.403342 0.029029 -0.537157
H 7.96186 3.12738 3.605 -0.066552 0.576796 -1.899358
H 11.1838 11.8668 0.35445 0.387445 -0.031399 -0.742937
H 5.31544 7.20444 10.7121 -0.569955 -0.652937 0.618546
H 2.66527 1.56533 7.64115 0.571523 -0.283817 0.612141
H 11.6864 7.73863 8.41423 -0.074859 0.908628 -0.543152
H 10.4671 8.52465 2.24446 1.176693 -0.387525 0.24876
H 11.0689 11.781 11.1994 0.103119 -0.010493 0.318819
H 3.1668 1.4303 1.48051 1.380252 1.316541 -0.002929
H 5.82577 9.70161 1.89734 0.535048 -1.131014 0.197689
H 2.72274 9.00859 1.24688 -0.4282 -0.829444 -0.436863
H 4.20426 0.73132 4.27779 -0.449916 0.444839 -0.491968
H 5.98755 9.10577 10.3493 -0.361906 -0.217708 -0.082739
H 1.08371 8.43337 11.9172 0.135703 0.285267 0.703666
H 1.89937 7.53624 3.87539 -0.18873 -0.342367 -0.738166
H 6.44675 7.21362 1.66198 -0.159141 -0.757465 -0.243634
H 1.33243 10.2794 2.58763 -0.025729 -0.192554 -0.057791
H 6.32768 4.03391 5.76745 0.631934 -0.494597 0.405125
H 11.2751 6.82419 1.69642 0.545195 0.294737 -1.700339
H 6.57947 0.33427 9.26723 0.151376 -0.032389 0.292584
H 12.175 4.91963 0.94985 0.328658 -0.361292 -0.200872
H 5.15503 2.44857 0.72997 0.380408 -0.061671 -0.297735
H 1.1273 3.33091 4.16009 -0.250625 -0.465611 0.738135
H 12.1797 9.60604 2.55791 0.873162 0.582252 0.429851
H 8.59274 3.27161 1.02092 -0.246722 1.004694 0.889867
H 1.26075 3.79748 9.25272 -0.294697 -0.343091 0.441122
H 6.32124 2.30175 8.88685 1.299649 1.496261 -1.733602
H 8.04959 2.624 7.52441 1.302334 -0.954951 -0.275202
H 6.22665 7.9409 5.36401 -0.38858 -0.640241 0.075137
H 10.7721 8.22347 6.10522 1.013041 0.726002 1.3241
H 10.8488 6.10225 9.83373 -0.24208 -0.881808 -0.088839
H 4.94293 5.49514 2.70123 0.777126 1.408291 -1.560181
H 2.52929 10.7084 9.401 0.677282 0.438681 -0.066566
H 6.20791 0.93919 12.062 0.059127 1.44627 -0.910986
H 10.8408 4.53186 10.1092 0.380675 -0.421005 0.321959
H 5.57684 10.8239 2.98658 0.460567 -0.274431 -0.513345
H 9.24814 4.98034 1.599 -0.417579 0.412695 0.211935
H 3.02934 10.5168 7.34648 0.055569 -0.479818 -1.186087
H 3.45546 10.5457 5.75046 -0.829331 -0.299767 1.147687
H 9.33835 12.0765 1.94786 0.159106 0.717215 -0.546058
H 5.83976 6.26726 0.33445 -0.849063 -0.720528 -0.204235
H 5.06544 4.79604 3.997 0.380701 -0.216744 1.200529
H 11.799 3.13062 12.2567 0.392156 0.044898 0.185425
H 9.37313 5.23317 8.61479 -0.822088 0.428875 -0.632518
H 12.014 2.88405 5.73092 0.200019 0.664741 0.518458
H 7.47973 6.77549 12.2716 0.482389 -0.471215 -0.046236
H 8.92484 5.0604 7.04451 0.401777 0.379346 -0.102612
H 2.24282 12.3945 11.9945 -0.224564 0.198489 -0.026548
H 10.1067 5.70528 5.2274 -1.035564 -1.357181 0.279595
H 12.1636 3.89125 6.97881 0.625064 0.641154 0.558184
H 4.16129 7.78462 5.11244 -0.569068 0.303065 -0.47297
H 7.87536 2.31811 0.0492 -0.393862 -0.354467 -0.144894
H 11.7336 6.82598 0.11398 0.262889 0.967753 -0.021491
H 5.50757 11.6308 5.13269 -0.90653 0.37551 -0.042045
H 1.41269 5.61882 3.21732 -0.016521 -0.882963 0.507227
H 8.29189 1.32977 4.7445 -0.170164 -0.717284 -0.178966
H 1.64105 5.09635 7.63596 0.202098 0.396061 -0.018863
H 7.87428 11.6963 7.66416 -0.64396 -0.425528 -0.121305
H 9.33224 1.24929 1.47666 -0.059703 -0.915675 0.572855
H 10.3979 2.60367 11.9171 0.133736 -0.170363 -0.155389
H 8.58545 3.47238 4.89871 0.564308 0.998448 0.401755
H 0.19868 10.6431 4.6315 0.589048 -0.024334 0.195925
H 4.98084 10.3254 9.88163 1.05029 -0.525084 0.766803
H 7.81027 11.2212 12.2774 1.572088 -0.092117 0.228685
H 8.55657 6.14947 11.3456 0.990165 -1.305241 -0.492096
H 0.73199 11.9546 11.7795 0.874962 0.131159 -0.220699
H 10.3704 4.25595 5.75473 0.268968 -0.082576 0.304476
H 6.93705 7.18394 10.5802 -0.458481 0.068748 0.07452
H 5.80803 9.1942 4.67602 -1.452986 -0.882253 -0.253217
H 11.6487 9.45738 6.39718 0.849276 1.150591 -0.367898
H 6.88133 11.2519 9.76762 -0.044961 0.295432 -0.249255
H 8.19375 11.671 6.0981 0.092786 -0.276711 0.367178
H 6.02958 2.09751 10.8902 -0.210615 -0.429734 -0.62765
H 8.91054 8.76989 10.6734 -0.313152 -1.254916 0.183936
H 12.3732 12.2691 2.66328 0.151394 -0.41819 0.249461
H 9.19632 12.3578 9.77447 -0.161185 -0.07343 0.367319
H 10.4317 2.31537 7.23784 -0.615688 -1.145991 -0.50505
H 7.52222 6.87299 7.27078 0.504772 -0.591293 -0.013307
H 9.00647 0.23596 3.8962 -0.525012 0.165588 1.011255
H 2.58578 2.1075 9.12617 0.397756 -0.414233 -0.514608
H 0.60411 5.8797 8.57907 -0.006192 -0.678744 -0.377973
H 4.628 3.15045 2.08342 0.119844 0.223422 -0.203316
H 1.96921 4.52341 0.12133 0.634972 -0.379409 -0.315359
H 4.82498 1.88093 9.15464 0.428883 -0.110899 -0.245719
H 9.98752 0.54806 8.65996 0.382026 0.413617 -0.250521
H 5.85794 10.9943 11.7931 0.408428 0.888708 0.679044
H 7.7074 4.02312 8.09593 -0.32289 -0.711326 -0.448557
H 2.01819 7.70655 1.64594 -0.719295 -0.83714 1.280725
H 3.64867 5.74616 11.5645 0.771509 1.162878 0.722683
H 7.97012 8.41838 1.8435 0.946364 0.247424 -1.259428
H 12.0747 9.14612 11.6052 -0.015737 0.783467 0.413067
H 2.98017 8.6175 5.57461 -0.662229 2.147167 1.315011
H 1.78417 3.43365 10.6772 0.464493 0.249761 0.65086
H 6.13548 7.91122 3.1323 -0.155456 0.155292 -0.901668
H 11.657 1.19299 2.32471 -0.809537 -0.090894 -0.425093
H 3.6807 7.15252 12.3344 -0.483795 0.178998 0.260409
H 12.3173 7.91233 9.91835 -0.159509 -0.046557 -0.05027
H 0.68115 4.05803 1.84344 1.00873 -0.204809 1.8399
H 8.80979 10.052 0.33049 -0.068391 0.303008 0.366922
H 5.98014 11.5053 0.94052 -0.209047 -0.441985 0.324023
H 6.67439 8.0224 7.68426 -0.80493 0.50681 0.855518
H 9.50239 1.10269 6.59252 0.336033 0.080264 -0.661691
H 1.45018 1.49893 5.66941 1.004915 -0.759598 0.76978
H 1.72687 0.91871 1.98627 1.681699 -0.555523 -1.371496
H 3.15432 12.0017 8.79107 0.252577 0.106576 0.297407
H 12.0267 7.15001 4.94851 -0.986274 -0.29577 0.502908
H 3.33189 3.73828 0.16848 0.057349 0.032376 0.050519
H 2.97031 6.47889 6.54615 -0.288951 2.366306 -1.074689
H 1.16446 0.15386 6.36428 0.403789 -9.7e-05 0.072576
H 1.13157 10.5884 5.96442 0.461113 -0.429797 -0.551399
H 2.91452 11.3983 1.74485 -0.07137 -1.396719 0.886207
H 3.20887 0.16501 5.42888 0.433683 0.804753 -0.350379
H 7.58589 5.26247 1.57029 1.544336 -0.903959 0.482499
H 2.76081 4.90221 3.36823 -0.779742 -0.914264 0.104539
H 4.01491 10.406 2.01015 1.462567 -0.271263 0.114788
O 5.78577 10.0869 10.4357 -1.083042 0.531797 -0.860287
O 7.96155 11.0927 6.87953 0.45403 0.633163 -0.489775
O 0.23663 10.7359 5.61575 -0.832147 0.330282 0.136386
O 11.3763 8.26069 2.58204 -1.498499 0.458522 0.056063
O 2.39906 8.11862 0.88403 1.304588 1.853963 -1.470584
O 6.08054 7.48945 10.1959 0.85892 1.087487 -1.360214
O 11.5421 3.34586 6.49524 -0.687146 -1.062677 -0.559001
O 8.8255 10.9625 12.3295 -1.509826 -0.019512 0.081218
O 0.70049 2.52145 4.62029 0.494144 1.052392 -0.50102
O 6.57219 6.10041 0.93748 0.766955 -0.043927 -0.640056
O 3.16036 7.79636 5.18159 -0.030469 -2.627849 -0.892235
O 1.3487 3.04229 9.91354 -0.068847 0.03011 -1.075065
O 9.77495 1.55228 7.39893 0.24804 1.016189 0.421922
O 11.3104 2.65553 11.5624 -0.748489 -0.056317 -0.128594
O 0.07173 0.84243 2.68068 0.715274 0.125631 0.116303
O 1.77455 4.69013 3.42557 0.751825 1.159695 -0.48687
O 11.349 6.29451 0.81031 -0.683205 -1.188105 1.697167
O 6.22497 11.7084 0.01992 0.452199 0.233307 -2.285071
O 11.1193 8.83104 6.88814 -1.952773 -1.647716 -0.171525
O 0.16969 8.33312 11.6063 -0.134322 -0.987305 -0.936929
O 3.17182 1.57728 8.50032 -0.855456 0.291142 0.344012
O 8.41623 4.73733 2.04373 -1.032467 0.328968 -0.916214
O 4.41203 2.53151 1.36407 -0.375395 0.397278 0.189383
O 10.1243 0.10614 9.52469 0.100673 -0.450329 0.357528
O 4.54685 4.80459 3.18823 -1.198376 -1.227324 0.140827
O 5.57105 10.6337 2.01544 -0.352048 0.525315 1.905947
O 9.62298 4.83784 5.50688 0.781845 1.565621 -0.622617
O 8.48651 0.33495 4.74653 0.760928 0.625019 -0.585611
O 8.62882 5.39275 7.92383 0.236461 -0.126726 0.673708
O 2.81561 4.35709 12.0131 -1.021623 -0.161779 0.268034
O 0.81953 4.99325 8.17038 -0.206661 0.239436 0.219752
O 8.77711 8.54493 1.21277 -0.878928 -0.082069 1.288592
O 1.89468 0.81 6.31783 -1.810444 0.780977 -1.367836
O 4.19666 6.58888 11.7378 -0.294227 -1.069366 -0.594719
O 7.30969 3.13843 7.79672 -1.041225 1.493307 0.641355
O 0.39708 10.4341 2.80493 -1.19119 -0.241587 -0.016436
O 5.92354 10.812 4.82733 1.712107 -0.925754 0.803146
O 5.68966 4.719 5.58032 -0.617821 2.469665 1.402211
O 3.05847 5.61117 6.87064 0.187294 -2.206403 0.97394
O 9.74972 0.55136 2.10731 -0.238369 0.084458 -0.274093
O 11.042 7.24816 4.90703 1.096262 -0.272549 -0.428898
O 11.7238 11.7591 11.9335 -2.294068 -0.351934 0.602807
O 10.2752 5.28015 9.91633 0.065045 1.197193 -0.087551
O 3.3165 11.0358 8.91107 -0.791216 -0.118592 -0.028044
O 6.26029 8.08205 2.15836 0.16778 1.850079 1.710309
O 3.06888 10.447 2.13108 -2.148971 1.897246 -1.017866
O 12.0314 7.30772 9.19912 0.21983 -1.086672 0.454556
O 6.99528 7.59781 6.90064 0.493496 -0.242835 -0.460819
O 2.79773 10.1705 6.40711 1.01107 1.051688 0.056906
O 5.54448 8.20763 4.70056 2.316416 1.183313 0.534229
O 8.21224 7.00105 11.5495 -0.944772 0.93077 0.706565
O 7.26548 12.0249 9.28417 0.340067 -0.147169 -0.001945
O 1.57581 12.2244 11.3091 0.582605 -0.161482 -0.270099
O 7.936 2.88715 4.51042 -0.554404 -1.008306 1.375697
O 9.3675 9.49117 10.2514 0.320857 -0.0439 -0.598725
O 4.12185 0.16739 5.03767 -0.046304 -0.672731 0.819534
O 2.58969 0.68158 1.45907 -3.211732 -1.251904 1.190811
O 8.69105 2.42065 0.58883 0.562144 -0.767834 -0.756821
O 6.26331 1.94539 11.821 0.497139 -1.12918 3.031015
O 0.34366 4.06112 0.97088 -1.156051 1.061852 -1.700621
O 1.31303 7.22378 3.11444 0.84509 0.365069 1.406411
O 5.76024 1.82625 9.47201 -2.178218 -1.279832 0.406164
Na 0.06786 1.14162 10.2689 -0.212496 0.459899 0.24892
Na 9.22819 9.65433 8.08083 0.348555 0.045583 -0.310545
186
energy=-1001.95399116 config_type=nep2xyz pbc="T T T" virial="-16.30773987792448 -0.053634251401300403 -0.5286430774350939 -0.053634251401300403 -14.792164693607772 1.9085439550674856 -0.5286430774350939 1.9085439550674856 -16.808798266043354" Lattice="12.4 0.0 0.0 0.0 12.4 0.0 0.0 0.0 12.4" volume=1906.6240000000003 Properties=species:S:1:pos:R:3:force:R:3
H 10.94 11.7949 11.3295 0.063786 -0.715856 0.561233
H 6.17148 8.20677 1.82163 -0.728222 -1.386624 -0.787603
H 5.20326 6.67988 7.27488 0.166564 -1.008566 0.005316
H 4.20272 9.64761 4.49767 0.744938 0.333242 -0.096526
H 10.05 2.41944 5.70885 1.244259 0.663607 -2.158544
H 0.18227 4.90986 2.64859 -0.094981 -0.854568 -0.423834
H 2.56583 6.61871 8.73105 1.621892 0.600332 0.096649
H 10.611 6.17618 7.88011 -0.753591 0.052705 0.919676
H 8.64222 4.67239 3.70635 0.561097 0.350206 0.378894
H 9.84427 11.3784 1.13394 -1.480798 -1.109235 0.329368
H 5.89299 8.24189 9.98228 0.643185 -0.26403 -0.533524
H 2.24895 3.77772 6.9337 0.387607 -0.065213 0.096703
H 11.9342 7.0242 6.55681 -0.023517 -0.025606 0.330934
H 0.8284 6.27255 2.22942 1.129987 0.596351 -1.111229
H 11.4029 11.3194 1.52811 -0.382083 -0.298407 0.03633
H 4.28731 11.7776 0.09228 -0.328682 -0.052379 0.116602
H 8.58102 7.84499 4.80994 0.193263 -1.234707 0.66912
H 2.75137 8.41815 1.78381 -0.341112 -1.414675 0.444082
H 5.61882 11.8981 2.87568 0.117827 -0.131009 -0.244166
H 6.05634 10.6274 9.60626 -0.278996 -0.921507 -0.319042
H 9.5286 8.68442 9.41409 -0.098958 -0.605072 0.889815
H 2.30623 7.15491 4.71101 0.142713 -0.283943 0.163735
H 7.73178 2.99099 3.00518 0.071764 1.3569 -0.576886
H 0.98295 10.0658 2.40275 -0.332245 0.052084 -0.091185
H 6.13695 5.26303 7.12897 -0.28316 1.816629 -0.077656
H 11.1096 6.93528 1.05749 0.314045 1.326617 1.952695
H 7.64924 0.49433 7.35683 -0.347254 0.679109 -0.19332
H 1.58702 0.89094 2.384 -0.03213 0.148148 0.543857
H 5.29528 3.48345 0.14776 -0.432379 0.983271 1.662914
H 1.97215 3.23935 4.62578 1.164532 1.267361 0.506162
H 11.9117 9.38137 2.61387 0.342997 0.593204 -0.201666
H 8.12148 4.19899 11.3844 1.257984 0.190701 0.606097
H 1.68003 4.12429 11.9223 -0.424541 -0.255414 0.504872
H 5.51342 2.19945 7.89576 -1.11527 0.330649 0.904949
H 7.35303 2.08827 5.91497 -0.053361 -0.386324 -1.386593
H 5.80202 7.16596 5.3034 -0.852966 -0.090928 0.322578
H 11.9436 6.45594 4.38224 1.057055 -0.399798 -0.552475
H 6.41761 5.91023 10.9014 0.193145 -0.683615 0.405855
H 4.55673 1.87956 3.27964 0.069084 -0.281989 -0.202185
H 2.94005 12.1193 9.13585 -0.494481 -0.025056 0.022304
H 5.67422 1.76299 11.5562 0.207569 -1.194482 0.440336
H 5.80432 7.01377 11.9361 0.397218 -0.893225 -0.28258
H 7.90864 11.8104 2.37252 -0.520585 -0.921337 -0.668636
H 10.0067 4.74934 0.20336 -0.382641 -1.05316 0.66939
H 2.83688 12.001 6.83655 -0.936552 0.026704 -2.034564
H 3.10099 11.4155 5.32712 -0.136779 -0.637317 0.034673
H 9.88447 8.53629 2.93026 0.734729 -0.640786 -0.131879
H 7.02488 3.8794 1.94902 -2.373967 0.338387 -1.355627
H 3.59781 3.08132 3.74053 0.815496 -0.864101 -1.438155
H 10.2854 2.46754 0.1143 0.754221 -0.116161 -0.630286
H 7.42326 4.20606 8.97353 -0.307138 -0.279969 1.80334
H 12.154 2.34366 8.31456 0.379999 -0.145411 0.396873
H 8.17982 7.26391 10.8941 -1.685992 -0.158759 0.97381
H 8.23841 4.84068 7.8551 -1.888204 -0.578256 0.248315
H 2.32521 11.5505 11.1887 0.52866 -0.417697 0.834088
H 10.0411 2.2518 7.97479 -0.272039 0.441577 -1.005269
H 1.21877 2.69902 8.66207 0.238594 0.097194 -0.414383
H 3.00656 8.96689 5.39032 0.142165 0.159825 0.04404
H 6.71823 3.66273 11.2347 0.240519 0.467668 -1.086835
H 11.8507 6.39623 12.1857 0.749459 0.004604 0.189374
H 4.46429 12.0676 3.91663 1.142234 -0.150941 -0.48488
H 2.60417 4.76097 4.46772 -0.036303 -0.636231 0.752872
H 6.81875 1.13183 3.92438 -0.779035 -0.185261 0.011499
H 3.43107 7.77957 7.17824 0.766982 0.105842 1.678633
H 6.94368 11.0341 5.33897 -1.129967 0.220859 0.05292
H 9.8926 12.1348 2.99256 0.122655 0.091987 -0.038066
H 10.6644 1.00692 0.48069 0.583299 0.195986 -0.635609
H 9.98618 4.36152 4.48024 -0.059621 -0.790823 -0.071943
H 0.32756 10.1269 4.29881 -0.183946 0.159521 -0.969501
H 4.91827 11.6297 9.03245 0.165223 -0.241393 -0.11727
H 7.34057 10.3455 1.81688 -0.471126 1.361899 -0.009426
H 9.69928 7.00694 11.4098 -0.598147 0.168801 -0.124075
H 1.05216 11.1095 10.4165 -1.693523 -1.100444 0.085645
H 9.96802 3.77925 7.75952 0.129848 1.761975 0.570794
H 6.77009 8.45932 8.6768 0.970371 -0.66986 -0.586525
H 6.04949 7.90927 3.9999 -2.618099 0.118942 1.512195
H 10.5951 6.29263 5.01166 -0.297532 -0.303543 0.303471
H 7.10882 12.045 8.57703 0.448754 0.10065 -0.61183
H 8.31779 11.411 4.58664 -0.689138 -1.668941 0.555651
H 5.06057 2.4346 10.2695 0.969732 0.470888 0.629748
H 11.1299 12.1281 9.89762 -0.178077 -1.01185 -0.355916
H 0.08144 3.01633 1.18079 -0.129636 0.110598 1.300259
H 9.22425 0.37243 8.49475 1.021799 -0.454862 -0.495455
H 11.2893 11.1071 5.71067 0.083087 0.207221 -0.167773
H 8.55566 7.15924 7.62005 0.532547 0.191672 0.013662
H 8.3869 0.9271 3.80725 -0.422521 0.378235 0.287298
H 2.33426 4.4796 8.36926 -0.194709 -1.236304 -0.882343
H 4.6107 8.19929 8.3808 -1.623629 -1.356715 -0.788044
H 4.66658 3.55948 1.66261 0.075613 -0.407882 0.232742
H 1.71525 6.02702 10.8857 -0.685653 0.151676 0.481053
H 4.11878 2.95918 8.37083 0.188758 -0.687154 -0.426692
H 10.6492 0.26886 7.7073 -0.302869 -0.517926 -0.816604
H 5.74725 12.0803 10.968 0.647261 0.041639 1.383308
H 7.48622 2.95515 7.19661 -1.184953 -1.526849 -0.290323
H 2.72447 6.941 2.71322 -0.00684 1.119567 -1.983612
H 5.26072 5.68199 1.30545 0.19077 0.275603 -0.004402
H 7.28165 8.59712 2.79112 0.477587 -0.207958 0.268465
H 10.6986 9.77658 9.66009 -1.561282 -0.89174 -1.362456
H 1.57991 8.89736 5.68444 -0.132117 0.082356 0.643392
H 2.63217 2.92114 11.9411 -1.260806 0.225761 0.307382
H 8.31426 9.28015 4.52421 -0.39791 0.338811 -0.332696
H 0.1495 2.46208 2.63423 0.339053 -0.896355 0.565503
H 4.28547 6.94007 1.5309 1.204405 -0.376747 -0.181354
H 11.7256 7.95802 7.86258 -0.047508 -0.19069 -0.13376
H 2.22321 1.56405 1.12489 -0.813509 -0.587729 0.862227
H 10.9924 7.42873 2.99672 -0.240029 0.710245 -0.379798
H 6.64172 12.0989 12.3827 0.104975 -0.398327 0.282943
H 7.24013 7.26291 6.94047 -0.29465 0.194892 0.028844
H 10.1007 12.0248 5.05939 0.720592 -0.485852 0.922347
H 9.77513 2.00561 4.18872 1.562225 0.870076 0.955235
H 2.81651 12.1424 0.71054 0.397806 -0.663382 0.015445
H 4.0469 0.7473 8.60327 -0.516181 0.512952 -0.398617
H 9.49541 6.22323 9.10986 0.447868 0.219352 0.503536
H 1.92184 6.53312 12.3236 0.888959 0.854294 1.434116
H 1.11039 6.52691 8.69213 -0.380156 -0.533583 0.361596
H 0.39151 1.41687 4.66954 0.438142 -0.459294 0.014861
H 1.16208 10.94 5.31848 0.87795 0.712981 0.554908
H 3.13276 10.176 1.25867 -0.178145 0.558225 0.06438
H 1.89873 0.80148 4.51262 -0.685631 -0.0198 0.860929
H 9.0519 3.91367 1.18406 -0.548561 0.23684 1.018605
H 3.76204 6.92711 4.44073 0.471474 -0.230542 -0.258777
H 3.27188 10.003 2.91664 -0.751933 0.247916 0.04361
O 5.81262 11.5516 9.47693 -0.025814 0.79725 0.199397
O 7.77176 10.639 5.10852 2.078301 1.592006 -0.823253
O 0.56353 10.1939 5.23113 -1.061407 -1.075031 1.025278
O 0.31746 5.83409 2.88375 -1.171051 0.468382 1.512688
O 2.69715 7.34097 1.71479 0.171579 -0.600429 1.373033
O 6.05289 8.81768 9.18994 -1.454299 0.713089 1.007724
O 0.4525 2.18456 8.97706 -0.870399 -0.102194 -0.041855
O 10.7339 8.23496 2.48865 -0.341074 -0.547434 0.664413
O 10.4546 2.505 4.74642 -2.014467 -1.314647 0.98218
O 7.791 3.88205 2.47624 2.015333 -2.096547 2.025688
O 2.41134 8.38284 5.90656 -0.423527 0.436201 -0.289805
O 1.67722 3.14672 12.1263 1.762715 0.296823 -0.948219
O 10.527 11.6795 5.93262 -0.524621 0.109647 -0.421458
O 10.8851 1.71207 12.2179 -1.194237 -0.014094 1.154426
O 12.3197 3.23025 2.13523 -0.246392 1.029683 -1.598642
O 2.68924 3.88631 4.96 -1.464437 -0.693473 -1.065793
O 11.0119 6.49817 0.24732 -1.278363 -1.511747 -2.658612
O 5.79609 12.3221 11.9724 -0.749864 0.535679 -1.443024
O 11.5136 6.52481 5.24002 -0.786755 0.178868 -0.509962
O 10.1489 9.25041 8.95906 1.679829 1.711954 0.39576
O 2.39934 3.58037 7.88502 0.238774 1.855801 0.81748
O 9.55309 3.86918 0.36627 0.661387 1.242643 -1.530224
O 5.27569 4.00305 1.03312 0.365357 -0.63925 -1.49149
O 10.2235 0.5463 8.52186 -0.128372 1.015757 1.230067
O 3.97988 2.57278 2.92171 -0.864791 1.154277 1.361734
O 7.3463 11.353 1.67819 1.003864 0.078299 0.510055
O 9.92385 2.97575 7.27688 0.252812 -2.336619 0.86872
O 7.63626 1.58361 4.15347 0.178559 0.907283 -0.267226
O 7.31934 4.39945 8.05009 2.481539 0.940785 -1.698616
O 1.35754 5.96601 11.8224 -0.348372 -1.098382 -1.776862
O 3.92682 7.47854 8.03935 0.695899 1.58867 -1.1102
O 6.60497 8.95801 2.20504 0.53299 0.922797 0.570098
O 1.20935 1.38872 4.13752 -0.029005 0.596224 -0.491809
O 5.29172 6.66216 1.4399 -1.494269 0.55138 -0.275177
O 7.026 2.10359 6.81571 0.723523 1.408867 1.642381
O 0.03749 10.2365 2.67558 0.019538 -0.420477 -0.451641
O 3.61889 10.3828 4.26975 0.291311 -0.346419 -0.2482
O 5.93159 6.19483 6.78115 0.072683 -0.453243 0.025959
O 1.87158 6.14588 9.19432 -1.125022 -0.279042 -0.634622
O 9.24933 12.3371 3.68042 0.259143 -0.929834 0.153598
O 9.72602 5.82204 8.25422 0.238496 -0.261009 -1.059164
O 10.6856 11.7652 1.01323 1.791379 0.922765 -0.14125
O 6.22687 6.84227 11.055 -0.421453 1.747292 0.301732
O 3.54897 12.3228 8.39663 0.471882 -0.626108 0.252416
O 8.55363 8.43253 4.06854 -0.057889 0.728691 -0.468305
O 2.70194 9.77612 2.0424 0.276069 -0.023151 0.286531
O 11.9977 7.07288 7.56153 0.096011 0.232167 0.67253
O 7.97972 7.85688 7.2461 -0.124008 -0.199292 0.012299
O 2.42792 11.9004 5.88323 1.012195 0.988623 1.896891
O 5.30199 7.78997 4.72343 2.949341 -0.04557 -1.751394
O 9.08239 7.17079 10.6531 2.217182 -0.119165 -0.893908
O 7.88427 12.1549 7.94158 -0.635596 -0.594378 0.815361
O 1.78734 11.6804 10.3994 1.296808 1.817183 -0.741892
O 9.29445 5.0238 4.36537 -0.3547 0.898184 -0.045582
O 11.2936 11.3714 10.5287 -0.020731 1.33443 -0.335282
O 5.26249 0.1299 3.51575 -0.872746 -0.021754 0.643486
O 3.3506 11.4571 0.2085 0.059978 0.757654 -0.304433
O 7.34739 4.34061 10.8482 -1.00573 -0.393073 -0.044938
O 5.50694 2.62388 11.1661 -1.317521 -0.064456 -0.969787
O 1.70319 0.77836 1.43258 0.751804 0.648799 -1.348156
O 2.89144 6.5376 4.2124 -0.170774 -0.183714 -0.185811
O 4.76613 2.24227 8.59828 0.991365 0.382413 -0.718306
Na 0.2527 1.57669 11.0887 0.491642 -0.189376 -0.242007
Na 8.89454 10.2519 7.18328 0.278445 -0.001832 -0.127674
186
energy=-1001.43012964 config_type=nep2xyz pbc="T T T" virial="-10.0870473309946 -2.417147077020043 4.046155073486121 -2.417147077020043 -14.634236992177405 13.811182692273224 4.046155073486121 13.811182692273224 -8.424552140509606" Lattice="12.4 0.0 0.0 0.0 12.4 0.0 0.0 0.0 12.4" volume=1906.6240000000003 Properties=species:S:1:pos:R:3:force:R:3
H 7.2933 10.6435 8.97998 -0.845978 -0.214965 -0.233211
H 9.48168 9.56615 4.70702 0.236104 -0.060157 0.36193
H 1.98455 4.653 6.2525 0.389837 0.804265 -0.091231
H 0.16037 3.81139 12.02 0.138144 0.185222 -0.435671
H 12.2462 12.0506 11.7578 0.260909 0.481288 -0.23659
H 0.56528 8.95357 7.51588 0.534262 -0.851998 0.73511
H 5.87314 7.56345 9.31634 0.128347 -0.625151 -0.421487
H 0.34099 11.1565 9.75739 -0.142616 -0.116365 0.311119
H 9.28577 7.6739 7.96956 -1.121748 -0.940832 -0.89721
H 1.27551 12.3918 8.05417 0.675778 0.24565 1.095984
H 5.83558 8.48131 11.1481 0.026817 0.139016 0.248456
H 9.65007 2.62412 5.26246 -0.178539 0.055684 0.195828
H 9.55766 2.36007 10.8113 -0.346166 -0.132836 0.080463
H 0.89981 7.90432 6.59816 0.16051 -0.486845 0.31358
H 2.65538 7.60648 2.50662 0.471314 0.980836 0.636934
H 4.18523 4.8645 1.75497 -1.128422 1.171398 0.687235
H 11.5629 0.4361 1.21313 -0.297906 0.161238 0.711928
H 4.02661 3.08785 0.44599 -0.587106 0.417818 -0.410987
H 0.73144 4.61199 3.88795 0.430349 0.737262 0.157913
H 6.70727 2.86669 0.2456 0.207938 -1.060106 0.199245
H 10.3851 1.52908 9.82045 0.276681 -0.604659 -0.249682
H 8.94078 1.97336 7.72469 -0.426219 0.118377 0.517645
H 1.55126 5.48545 2.712 -0.081041 0.239571 0.433108
H 1.4289 7.457 4.66075 0.665135 -0.401887 -0.307379
H 3.56 4.80166 5.97607 0.437957 -0.782893 -0.448799
H 2.51464 0.93093 9.55543 0.830296 0.484229 -0.206177
H 6.73596 0.42278 9.12092 0.147623 0.94775 0.170147
H 3.18366 11.844 11.3837 0.260168 0.524062 1.005754
H 8.44495 11.1221 6.0832 0.338996 -0.517821 0.576876
H 3.65877 1.03376 7.92117 0.212065 0.06801 0.617621
H 10.9245 1.4819 2.18255 0.440418 -0.050073 -0.005306
H 6.78342 7.4941 3.70379 0.332676 0.243227 -0.44543
H 10.8547 4.27412 0.96935 0.40521 0.450774 -0.421046
H 3.06803 1.33652 0.43676 0.309392 -0.791108 -0.231143
H 7.93355 4.52361 10.6433 -1.896857 0.333774 -0.924944
H 4.48231 10.0316 2.34551 0.593605 0.098154 -0.193757
H 3.30884 6.13316 10.8024 0.158517 0.13437 0.178877
H 6.65947 9.13309 2.1068 -0.077938 0.058311 0.149536
H 3.70649 8.34519 11.9467 1.514601 0.668804 0.179513
H 7.38453 6.30937 7.57774 -0.224494 0.809278 -1.020506
H 9.9383 9.35924 7.2251 0.652627 0.380093 -0.42177
H 8.0746 8.88519 2.83448 -0.162285 -0.202527 -0.23897
H 10.779 3.38652 3.26232 0.524808 -0.023727 -0.389253
H 6.69873 6.04658 4.24447 0.200617 -2.107956 -0.825716
H 2.70346 7.87152 7.83567 -0.391015 0.279759 -0.100996
H 1.3632 12.2491 3.92068 -0.325361 0.066967 -0.298342
H 11.9028 7.50671 11.3332 -0.808319 -0.064155 0.988857
H 7.62274 7.12868 1.16787 0.36368 0.229678 -0.214172
H 4.1482 9.82084 11.4911 0.220119 -1.089613 1.320887
H 4.03281 8.22998 5.8334 0.352908 0.228295 0.350493
H 12.29045 4.88911 6.52202 0.479493 -1.315763 -0.710393
H 4.82347 10.4726 5.94022 0.46088 -0.280434 -0.380117
H 8.92565 3.82207 4.60016 -1.417888 0.488725 -0.144237
H 0.5731 3.36712 6.1811 -0.921936 0.462456 -0.035499
H 0.94251 8.93736 4.4984 0.060894 -0.850271 0.731152
H 6.10654 11.4578 1.29089 -0.402999 -0.505356 0.345258
H 6.0571 11.4588 6.08046 1.315987 0.130817 -0.71693
H 3.97283 3.27275 4.3872 -0.54977 -0.121242 -1.963869
H 2.46507 0.19924 1.36768 -0.082626 -0.180001 0.948069
H 2.7326 2.40502 9.84332 0.475787 0.050599 -0.156502
H 0.3471 2.3273 11.6434 0.570857 1.180784 -0.739104
H 3.9777 0.22688 6.55683 0.494774 -0.207003 0.296082
H 9.77712 7.4044 0.35674 -0.663839 0.035643 0.174038
H 1.99845 6.8651 11.2392 0.541227 0.119733 0.160641
H 9.45408 0.09711 11.5507 -0.290006 -0.565034 0.525432
H 0.08281 0.6719 8.94423 -0.496387 1.154825 0.205533
H 5.31504 8.05071 4.96376 0.247093 -0.197369 0.080498
H 9.28474 8.95436 8.7638 -0.887074 0.821717 0.884613
H 9.64945 12.36196 2.8329 1.847504 0.398286 -0.213683
H 6.66884 1.26107 0.53535 0.049824 0.06352 0.062527
H 12.2034 3.62963 2.53976 0.971907 0.518848 0.254171
H 1.61113 1.65273 6.54952 2.331176 -0.649674 0.296011
H 0.32072 0.69966 3.18454 -1.320514 0.052841 -0.942196
H 7.46748 11.6745 0.5225 0.482818 -0.076761 -0.491384
H 7.23151 8.83065 10.3953 -1.249633 -1.158396 0.397444
H 4.96185 9.60835 0.95376 0.10174 0.474263 0.263899
H 10.791 10.533 6.51903 0.76461 0.060592 0.324645
H 7.94423 1.29317 9.67486 -0.207437 0.014219 0.123544
H 9.87818 11.1916 12.3495 1.014651 -0.581581 0.26873
H 8.19815 12.1615 5.03758 -0.51305 0.146286 -0.131561
H 8.32845 10.966 10.0121 0.461167 -0.197728 0.229697
H 10.8356 9.17935 2.93674 1.025835 0.084936 -1.239336
H 6.08916 4.26046 4.66236 0.706863 -0.354151 -0.563542
H 8.25925 12.1923 2.41354 -1.052205 0.088858 0.219415
H 11.865 3.42616 8.77055 -0.279732 0.154596 0.099058
H 11.0889 8.13099 0.99456 -0.272929 0.336963 0.531465
H 9.35063 5.77511 7.05111 -0.130058 -0.270424 -0.277947
H 3.53205 5.09601 8.62073 0.029099 -0.193203 -0.256631
H 10.0536 4.37389 9.87843 0.256678 0.093049 -0.326597
H 2.46568 3.52493 3.10237 -0.275358 -0.5036 -0.095581
H 10.0752 4.38367 7.36538 -0.113963 0.721816 -0.262228
H 6.42965 4.15107 3.18109 0.035853 -0.049061 -0.236847
H 3.72272 9.05077 4.02439 0.210572 0.109981 0.626142
H 6.9185 5.45892 9.83708 -0.164366 -0.27896 0.300255
H 5.0406 7.17517 7.95578 -0.042672 -0.004804 0.467771
H 4.85644 5.60116 9.29745 -1.323066 -0.939669 -0.280669
H 8.98359 10.489 3.54451 0.629849 0.072736 0.055939
H 0.50316 1.24917 5.49467 0.831167 0.794875 0.55627
H 4.04788 2.73269 5.74091 0.685378 0.1967 0.555931
H 11.0972 5.75431 0.36971 -0.069832 -0.440944 0.010275
H 0.53535 10.4962 3.49118 -0.43509 0.261075 -0.493627
H 12.1648 8.3584 2.78368 -0.452978 0.710698 -0.547021
H 2.69927 3.0438 11.8271 1.802718 -0.37015 0.82059
H 2.71271 11.1784 10.1511 -2.156688 0.020444 -2.167498
H 4.89605 10.9369 9.36228 -0.667582 0.197293 0.154285
H 0.46398 8.43006 10.6182 -0.049032 0.236986 -0.103677
H 2.38911 9.91246 3.46512 0.704518 -0.38346 0.385279
H 0.3441 4.2106 9.64784 -1.262336 0.315001 -0.148587
H 11.6251 1.63503 7.88557 0.023211 -0.670823 0.318366
H 1.00338 0.54184 0.0288 -1.177294 -0.430362 -0.442242
H 5.42327 4.88055 0.82041 -0.732484 -0.368892 0.529449
H 5.54843 11.1588 7.85968 -0.778856 -0.072998 1.216832
H 11.3356 10.4707 9.72257 1.363662 0.194289 1.362899
H 2.73693 6.86228 1.18529 0.022923 -0.218917 -0.577892
H 9.84775 4.71707 11.3732 0.106213 -0.563977 -0.188316
H 0.9835 11.5229 6.9976 1.012316 1.0842 0.373681
H 3.04868 6.6229 7.02235 -0.374702 -1.20447 -0.570138
H 2.60895 1.99941 3.5331 0.00251 0.888218 -0.90605
H 0.83342 10.7098 5.6486 0.230488 0.476259 -0.203105
H 7.44223 6.80346 12.0719 -0.133719 0.187986 -0.508833
H 8.9027 0.82844 6.77624 -1.697356 -2.641584 -0.664141
H 7.38056 6.77501 5.95939 0.755926 0.174803 1.756932
O 6.84895 1.96967 12.2777 -0.236262 1.269779 -0.351275
O 9.13361 11.7049 12.0872 -0.792779 1.195687 -1.177674
O 7.90445 6.75175 6.86037 -0.398016 -0.605523 -0.774605
O 0.89135 8.00062 7.59517 -1.383446 1.783268 -0.873073
O 3.63287 2.67397 12.0382 -1.422131 0.598488 0.050675
O 6.57907 8.08661 10.639 1.26452 1.401468 -0.358782
O 5.10953 11.3795 6.14621 -1.299863 -0.148455 0.77652
O 0.28158 7.48984 10.7689 0.68719 0.000766 -0.813347
O 0.01935 0.52426 12.1813 1.304576 -0.303771 0.302522
O 8.03314 6.65058 0.41372 0.146849 -0.259877 0.550174
O 4.38755 3.4921 5.2202 0.605907 -0.185085 1.634718
O 11.0784 4.78712 0.13827 -0.185823 0.229476 0.761189
O 8.79611 12.2194 3.23037 -1.145427 -0.68393 0.109572
O 4.69641 8.72697 5.29587 -0.519103 0.061894 0.216907
O 11.6356 9.03687 2.28826 -0.619496 -0.68065 1.983967
O 3.60302 1.02217 6.96351 -0.994997 0.841232 -1.176627
O 3.27605 1.62152 9.65702 -1.483602 -0.739112 -0.271495
O 3.14838 9.21258 3.26024 -0.940646 0.22657 -1.449073
O 10.0078 9.98359 6.46829 -1.131265 -0.26502 -0.484844
O 9.60116 1.46433 10.4258 -0.040266 0.317159 0.198925
O 9.75041 3.37278 4.65233 1.453062 -0.551296 -0.074905
O 6.52246 6.94574 4.46683 -0.256661 2.126573 1.127449
O 9.39295 4.31613 10.5781 0.407226 0.192877 0.88669
O 6.83173 4.43547 4.01288 -0.880533 -0.296927 0.900689
O 4.45443 9.03017 12.1031 -1.992069 0.007211 -2.555216
O 11.3285 3.27207 2.43206 -2.093678 -0.488523 -0.02115
O 6.85647 12.0621 1.15264 0.382753 0.967082 0.322734
O 10.733 7.54021 0.3029 0.733242 -0.706191 -0.948455
O 0.44698 4.33376 5.91093 -0.191486 0.405025 0.28936
O 2.69152 6.71491 2.13427 -0.30333 -0.801319 -0.138756
O 2.96836 6.80233 11.4412 -0.89741 -0.200812 -0.218636
O 9.39463 9.60024 3.73965 -0.481054 0.200373 -0.330742
O 0.52162 10.8311 6.58645 -1.610123 -2.236276 -0.844808
O 4.09093 4.90203 9.3854 0.950083 0.9714 0.595543
O 6.90966 4.68257 10.4227 1.303726 -0.043646 0.463781
O 0.70867 8.03374 4.89647 -0.363265 1.297884 -0.433552
O 0.72 3.24619 11.435 -0.429533 -1.352043 0.879731
O 2.8101 5.19224 6.4336 -0.82583 0.245251 0.769565
O 5.67608 6.84568 8.63404 0.140622 0.21739 -0.022695
O 11.6801 1.38907 8.82821 0.186765 0.245292 -0.192677
O 12.13 10.5822 10.3378 -1.002365 0.025436 -1.61775
O 11.153 0.5286 2.12647 0.06767 0.029724 -0.48171
O 7.35824 8.45986 2.30362 -0.087119 0.048912 0.493211
O 5.69335 11.0862 8.85654 1.129438 0.321305 -1.516424
O 1.31271 10.7579 3.99061 0.040068 -1.010128 0.731169
O 3.09418 2.76233 3.10082 -0.227909 -0.669427 0.57465
O 1.10256 0.81554 3.70704 1.442913 0.255362 1.300669
O 11.9382 4.36405 9.06688 1.706299 -0.726061 0.569186
O 3.37754 7.49934 7.25652 1.298441 1.052248 0.332902
O 5.27103 10.1623 1.73705 -0.747244 -0.743746 0.673436
O 0.7097 1.76629 6.33506 -2.508315 -0.146032 -1.015401
O 7.06099 1.34948 9.24848 -0.170866 -0.762158 -0.230096
O 1.27864 12.3243 9.03068 -0.053993 -0.383824 -0.323319
O 9.82633 8.20014 8.53941 1.510566 0.019733 0.28822
O 8.15012 10.3265 9.30358 0.731059 -0.097392 0.571888
O 1.17387 4.6332 3.01903 -0.105619 -0.633206 -0.133947
O 4.84352 4.31076 1.38142 2.214022 -0.421243 -1.016035
O 2.89054 0.34795 0.53034 -0.409025 0.765114 -0.795827
O 7.85392 11.8642 5.90832 0.241685 0.222244 -0.433891
O 3.40099 11.1411 10.7637 2.100805 -0.793192 1.031957
O 9.35743 1.60914 6.94822 1.957553 2.656219 -0.036024
O 10.1786 5.35336 7.37409 0.234296 -0.107448 0.240728
Na 11.738 6.73626 8.73862 -0.22353 -0.147912 -0.085329
Na 5.49009 2.87098 10.4128 -0.106364 -0.354552 -0.212692
186
energy=-1002.95921476 config_type=nep2xyz pbc="T T T" virial="-3.455273892028661 -5.025340142945451 -4.387405526821752 -5.025340142945451 -6.153373052770316 0.945519372274001 -4.387405526821752 0.945519372274001 -8.414555963190526" Lattice="12.4 0.0 0.0 0.0 12.4 0.0 0.0 0.0 12.4" volume=1906.6240000000003 Properties=species:S:1:pos:R:3:force:R:3
H 10.7583 12.1602 11.5368 -1.747046 0.754891 1.342117
H 6.13375 7.64487 1.78321 0.138557 0.31997 0.158777
H 5.75221 5.29771 6.00181 0.08127 -0.448035 0.078088
H 5.23209 10.6941 4.80015 -0.159257 0.688181 -0.286546
H 11.1813 1.85239 5.49105 -0.356204 0.448229 0.773405
H 11.9902 5.42078 3.43052 -0.045923 -0.228263 -0.138085
H 2.00776 6.27928 8.28847 1.29821 -0.155037 -0.300633
H 10.4256 5.9958 9.25767 -1.270592 -0.273516 -0.592139
H 8.41575 4.33156 4.24902 -0.306905 -0.302218 1.111523
H 8.6034 11.6259 1.36917 0.011496 0.41971 -0.204182
H 5.98067 7.26231 10.0684 -0.430378 0.220085 0.597149
H 3.8839 3.78483 6.16453 -0.566919 0.169666 -0.569409
H 11.9187 8.45024 7.12986 -0.317458 -0.200535 0.482229
H 0.23493 6.85599 3.22678 0.272633 0.151843 0.168574
H 10.0686 11.2712 1.36234 -0.306708 0.263964 -0.584197
H 4.25854 11.5863 12.1571 -0.462842 0.168281 0.408207
H 9.19117 8.13251 4.23289 1.408698 -1.758159 1.466865
H 3.02689 8.8732 0.62682 0.013004 0.842451 -0.197438
H 5.91489 0.5355 2.12705 0.334001 -1.007864 -1.471682
H 5.24985 9.51706 9.44631 0.128175 0.342149 -0.261797
H 10.088 8.76683 10.6781 0.032291 -0.466371 -0.183275
H 1.91771 7.69541 2.72869 1.058742 -1.022426 0.076918
H 7.97166 3.14897 2.88606 0.339436 -0.932799 0.441496
H 1.33547 9.72128 2.65873 0.449191 0.97051 -0.574583
H 7.16458 5.67128 5.38249 0.872921 -1.075537 -0.560069
H 11.5779 6.23592 1.36724 -0.038312 0.166385 1.439942
H 7.23731 12.0883 7.24256 -0.290967 0.315852 0.419105
H 1.9281 0.83643 2.76919 0.501887 -0.097574 -1.016547
H 4.45728 3.56785 11.9828 -0.098307 0.156029 -0.477744
H 2.46039 2.45275 4.37661 -0.66241 -1.065017 0.241914
H 12.1329 9.32071 2.42581 0.667062 0.167503 -0.039274
H 8.43616 4.21577 11.1627 0.077219 -0.359525 -0.014403
H 1.19904 4.65745 0.1602 -1.179395 0.304945 -0.443293
H 5.6877 1.77132 7.71934 -0.38011 0.656673 -0.141395
H 7.15076 1.24235 5.79576 -0.013364 0.415367 0.664816
H 5.21847 7.3801 4.75935 -0.493809 -0.2886 0.57407
H 10.8825 6.62611 4.64659 0.565122 0.10474 -0.524727
H 7.4601 5.9837 10.9673 0.429048 -0.61117 -0.617483
H 5.27053 2.21809 2.68208 0.309631 0.149057 0.321164
H 2.45945 0.40289 9.41974 1.297762 0.656738 -0.314267
H 5.89256 1.90686 11.3578 0.157823 -0.344841 0.550119
H 6.77179 6.46621 12.2081 -1.101868 0.206252 0.556882
H 7.22625 11.0867 2.92957 -0.304671 0.28793 2.202128
H 9.90948 4.75761 0.24963 -0.970039 -1.518914 0.037491
H 3.17886 12.0471 7.25328 0.192558 0.776388 1.007133
H 3.467 11.803 5.73076 0.898614 -0.277779 -0.309734
H 9.67185 9.39191 2.31057 -0.024025 -0.081127 0.270078
H 6.67642 3.70182 2.38466 0.839336 0.95347 0.529578
H 4.35401 3.32889 3.26623 -0.191867 0.397147 0.452817
H 10.4355 2.59645 0.20597 -1.354933 0.964735 0.230719
H 7.5382 3.90854 8.21192 0.720682 -0.352906 -0.286217
H 11.6444 3.47312 8.82765 -0.569153 -0.378026 -0.394913
H 8.71458 7.59833 11.6568 -0.057023 -0.605454 0.378865
H 8.28252 3.95689 6.7514 -0.50909 -1.013256 1.141289
H 1.7319 12.35632 11.3181 -1.112327 0.386484 -0.54035
H 10.5422 1.72433 7.64675 0.096119 1.283701 -0.108637
H 0.09605 4.5582 9.44593 -1.098856 -0.567702 0.431964
H 3.66713 8.72981 5.49029 -0.001437 0.404464 1.350286
H 7.01795 3.86371 10.676 -0.495018 -0.677834 -0.004114
H 12.0277 6.22302 12.2876 -0.449469 -0.499227 0.072518
H 5.09206 12.0934 4.04786 0.512009 0.511493 -0.574305
H 2.40467 3.96575 4.25557 -1.357789 1.511229 -0.565205
H 6.89694 1.25531 3.48954 0.678387 0.626622 0.399068
H 3.49946 7.51208 7.12774 -0.197028 -0.524975 0.564491
H 7.29089 11.0454 5.81244 -0.027568 -0.30867 -0.315431
H 9.79906 11.7925 3.1883 -0.145383 0.138199 0.558316
H 10.4531 1.04791 0.46705 -0.310395 0.560048 0.44526
H 9.31347 5.18716 5.13908 0.423455 0.602299 0.552689
H 0.31006 8.95594 4.62167 0.328684 0.113502 0.544966
H 4.75835 10.9672 8.96408 -1.232182 0.552801 -0.239107
H 6.93161 10.0226 1.83139 0.20229 1.189079 0.491674
H 10.0746 6.97721 12.3095 0.122816 -0.159117 0.014902
H 0.09902 0.0629 10.7526 2.201159 0.079666 0.051716
H 10.0397 3.18985 7.41953 -1.942077 0.825538 0.249954
H 6.3348 7.63436 8.69339 0.373521 0.362854 -1.088803
H 5.11695 8.07691 3.48659 -0.054167 0.848227 -0.414678
H 10.6761 6.88986 6.18947 -0.656622 -0.020324 -0.754414
H 6.6136 10.7927 8.01197 0.311376 0.414509 0.086937
H 8.27124 11.2896 4.59952 1.014336 0.847841 -0.440952
H 5.59407 2.35426 9.95088 -0.272352 0.917252 0.02746
H 10.6452 11.9171 9.87122 0.067112 0.789988 0.701894
H 12.3369 3.6043 2.35151 -0.062474 -0.16545 0.18635
H 9.19419 12.3103 8.32999 -0.275051 -0.091035 -0.118901
H 11.3024 10.046 5.83045 0.101476 0.097531 -0.162537
H 8.08529 6.83885 8.071 1.133883 -0.393777 0.840491
H 8.41615 0.88342 3.94896 -0.066549 0.994319 -0.036731
H 4.10195 5.23198 6.93259 -0.553537 -0.432823 0.222215
H 4.13643 7.0138 8.44362 -0.204391 -0.607481 -0.682126
H 4.38195 3.60318 1.10084 -0.10294 0.416395 0.445666
H 1.28711 6.41684 10.3905 -0.458887 -0.343705 1.057822
H 4.98722 3.24967 7.86233 0.014637 -0.267434 -0.408047
H 10.4067 11.8448 7.45828 0.02951 -0.330471 0.417037
H 5.73115 11.3021 10.942 -0.39186 -1.360114 -2.307721
H 7.38139 2.00006 7.17814 1.004863 1.136184 0.131116
H 2.76004 7.50801 1.27925 0.70997 0.386666 -1.837333
H 4.59818 5.6878 0.50732 0.248269 0.069229 -0.137638
H 7.19695 8.31847 2.81516 0.017071 -0.223869 0.083787
H 10.5483 10.161 10.3191 0.510669 0.515869 0.019645
H 3.24106 9.86137 6.55438 -0.116067 0.445701 -0.007785
H 2.20664 3.79754 0.43984 1.521332 -1.208831 0.199888
H 8.22643 9.38406 4.50307 0.561464 -0.65277 -1.220688
H 11.7224 2.9288 3.61812 -0.51486 -1.400655 0.703908
H 4.38858 7.22575 0.19874 0.637581 -0.83799 0.255723
H 11.1515 8.30249 8.58098 0.230216 0.568118 0.119218
H 2.93751 1.64243 1.91776 0.29908 0.429912 0.094362
H 10.1261 9.10721 0.83129 0.128132 0.285982 0.795298
H 6.71668 11.6083 12.0232 -0.04037 0.156347 0.41491
H 7.29689 7.0811 6.84001 -0.165511 0.790122 0.712735
H 10.1366 11.1256 5.39291 0.730092 -0.563413 -0.150344
H 10.7476 0.73509 4.42781 -0.055244 0.432934 0.083783
H 3.1321 12.3196 0.56003 -0.412972 1.372534 0.786432
H 3.7438 1.40426 8.98164 -0.569095 -1.116015 -0.065489
H 9.32116 4.92255 9.22346 -0.258254 -0.244586 0.147039
H 1.57525 7.10159 11.7999 0.440451 0.152221 0.026151
H 0.55561 6.67396 8.20448 -0.08091 -0.691393 0.498498
H 0.6312 0.98156 4.70538 0.206025 -0.021668 -0.052418
H 1.04658 9.56056 5.92284 -0.896263 -1.086055 -0.71437
H 3.04264 10.8783 1.46325 0.201547 0.264 -0.839177
H 1.94167 0.33035 5.36242 -0.054395 -0.202464 0.348996
H 8.66664 4.00943 0.90873 -0.610512 0.013368 1.026469
H 3.31163 7.20785 3.22643 1.378878 0.373838 1.185483
H 3.29322 10.8772 3.003 -0.097006 -0.217363 -0.152158
O 5.44981 10.4888 9.39692 0.955125 -1.081563 0.348341
O 7.39593 10.9126 4.84164 -0.728755 -1.053779 0.461329
O 0.33103 8.9235 5.62507 0.836121 1.258275 -0.040236
O 11.8037 6.38678 3.31605 -0.099774 -0.190996 -0.330913
O 2.90368 7.97744 0.31305 -0.477932 -0.914852 1.371011
O 5.57497 7.69996 9.28967 -0.334527 -0.178642 0.769791
O 11.7175 3.95377 9.66718 1.882742 0.928024 -0.081388
O 10.3545 9.63101 1.65418 0.242705 -0.874083 -0.645612
O 11.4085 1.4865 4.63905 0.159864 -0.813393 -0.778428
O 7.64547 3.98158 2.50559 -0.814611 -0.064784 -0.773946
O 3.45454 8.92057 6.46415 0.18511 -0.373326 -1.614445
O 1.25116 3.70963 0.36943 -0.328137 1.058166 0.079469
O 10.5436 10.5611 6.15788 -1.044011 0.855526 -0.029734
O 10.9785 1.82126 0.18113 0.962842 -1.596926 -0.137082
O 12.0076 3.75849 3.25503 0.842278 1.594247 -1.060096
O 2.95774 3.26279 4.5068 1.895623 -0.535377 0.545999
O 11.2858 5.95084 0.50901 0.322175 0.050477 -1.629446
O 5.89375 11.9174 11.6252 0.531066 1.426826 1.797702
O 10.2024 6.76574 5.32367 -0.170816 0.164307 1.384511
O 10.3147 9.32956 9.89732 -0.442148 -0.527716 -0.265667
O 4.44181 4.3178 6.73918 0.886616 0.669638 0.333068
O 9.2614 3.96786 0.15149 1.877165 1.735874 -0.492408
O 3.97472 4.02586 0.29691 0.205425 -0.446936 0.271424
O 10.1572 12.2548 8.32847 0.143902 0.192931 -0.474146
O 5.06822 3.25157 2.61698 -0.260487 -0.761318 -0.777728
O 7.2496 10.9597 2.00706 -0.253883 -1.399264 -2.854151
O 10.7969 2.64769 7.36041 2.008938 -2.421379 0.022528
O 7.80287 1.68304 3.92734 0.091008 -1.199316 0.339385
O 8.14278 3.40858 7.61891 -0.221624 1.36802 -1.085024
O 1.11679 6.34913 11.3854 -0.113562 0.162424 -0.910588
O 3.55266 6.67524 7.69698 0.588494 0.917613 0.290244
O 6.31901 8.41171 2.37938 -0.083288 -0.525551 -0.513001
O 1.60521 0.80995 4.59065 -0.409747 0.631841 -0.744388
O 5.09916 6.53192 0.41258 -0.765117 0.62347 0.436081
O 6.99787 1.20496 6.79273 -0.417547 -1.539526 -1.553435
O 0.59996 9.11888 2.85725 -1.175222 -1.361018 0.675639
O 4.63223 11.4442 4.62347 -0.495826 -0.882878 0.248288
O 6.39928 6.006 5.83558 -0.886886 1.612079 0.291743
O 1.14664 5.99575 8.62265 -1.428502 0.832828 0.057145
O 9.58086 12.01 4.11386 0.522916 -0.146865 0.279622
O 9.49719 5.82671 8.94514 1.364956 0.703803 0.21705
O 9.47172 12.0085 1.06447 0.563067 -0.355985 0.091042
O 7.20076 6.79929 11.4188 0.889525 0.476081 -0.838465
O 3.38196 0.47184 9.01622 -0.661367 0.060197 0.126096
O 8.65887 8.76378 3.81037 -2.116738 2.280027 -0.524382
O 2.79575 10.4375 2.28525 -0.161364 -0.813498 1.821625
O 11.3978 7.87772 7.7419 0.204747 -0.362458 -0.554534
O 7.68616 7.58924 7.62689 -0.624137 -0.374758 -1.386148
O 2.8101 11.6979 6.444 -0.891673 -0.759126 -0.281067
O 4.546 7.90147 4.27162 0.678126 -0.62522 0.015757
O 9.63754 7.7722 11.9481 -0.069202 1.204814 -0.142691
O 7.37455 11.1332 7.48313 0.26402 -0.600391 0.191086
O 1.09317 0.47079 10.7516 -0.542373 -0.775451 0.230575
O 8.61159 4.52259 5.21432 -0.226367 -0.001587 -1.534945
O 11.1387 11.8667 10.7423 1.327269 -1.342405 -2.20791
O 5.73362 0.86643 2.98177 -1.290692 0.391933 1.094926
O 3.32282 11.5221 0.08251 0.65453 -0.847348 -1.461224
O 7.84991 4.24248 10.3657 0.132809 0.834539 -0.003602
O 5.67693 2.71277 10.8821 -0.13484 -0.532443 -0.41304
O 2.25952 0.97296 1.82737 -0.539999 -0.265714 0.943262
O 2.63879 6.98531 2.59629 -3.19403 0.751663 -0.540978
O 5.20397 2.39747 8.31016 -0.028885 -0.596706 0.763244
Na 0.16217 2.43415 11.2912 0.297162 0.222424 -0.040647
Na 9.13185 9.4267 7.54847 -0.064644 -0.089517 0.196432
186
energy=-1002.23310677 config_type=nep2xyz pbc="T T T" virial="-16.594844370781765 -0.001071018998472828 1.710560143094236 -0.001071018998472828 -8.777167295440144 -1.5862862386381056 1.710560143094236 -1.5862862386381056 -17.799681243008223" Lattice="12.4 0.0 0.0 0.0 12.4 0.0 0.0 0.0 12.4" volume=1906.6240000000003 Properties=species:S:1:pos:R:3:force:R:3
H 9.28658 9.6166 7.23524 0.443044 -0.709855 -0.654061
H 0.92928 10.3473 2.77936 0.372542 0.090669 0.239487
H 6.02228 5.34574 6.8665 0.081382 -0.607025 0.206302
H 7.66515 10.5393 5.92635 0.894512 0.535643 1.789924
H 1.58565 4.51337 3.4509 -0.432099 0.317462 0.416882
H 1.65683 7.44901 5.63498 0.027952 -0.081244 0.140899
H 9.59635 11.5397 6.32915 -1.028099 -0.723068 0.754653
H 12.1508 8.69036 6.69845 -1.265981 0.936481 1.108986
H 6.08524 2.97895 3.29758 0.017537 0.001753 0.335176
H 11.6037 8.90873 10.1714 0.1884 -0.257884 0.2762
H 8.39882 5.66251 10.3101 -0.53314 -0.057104 0.073225
H 5.03937 1.59413 8.61857 -1.255573 0.653639 0.090291
H 1.45852 8.59709 7.45713 0.280337 0.444912 0.326274
H 11.5891 11.0173 5.24995 0.724485 0.001607 -1.060968
H 0.65594 8.797 9.52087 -0.132623 -0.289195 -0.084946
H 0.27725 1.78292 4.52528 -0.182596 0.594067 -0.370697
H 8.36817 10.4898 1.31695 -0.282772 0.430527 0.775659
H 3.57872 6.83437 0.10449 0.516506 1.124915 0.318105
H 4.54805 8.8118 4.23236 -1.085416 -0.26946 -1.130487
H 7.15159 9.54392 9.78117 -1.294018 1.004059 0.18889
H 1.5985 6.15407 11.7079 -0.58024 -0.005081 0.052163
H 3.05558 6.65369 5.71777 0.100192 0.418126 0.470419
H 7.97678 8.68846 0.43469 -0.76262 -0.542933 -0.068694
H 12.002 0.45822 2.32931 0.921498 0.876312 -0.160365
H 6.38049 5.62557 8.40758 -0.17145 -0.84888 0.127518
H 10.1738 7.49328 3.68475 -0.025157 -0.023809 0.141442
H 5.08253 10.7912 10.4281 -1.176774 0.09353 0.836399
H 0.45076 10.6921 12.3711 -1.401721 1.317384 -0.372327
H 2.92924 2.0169 0.97352 -0.458872 -0.643712 -0.292906
H 1.51132 5.34263 4.80752 -0.603223 -0.704775 -0.782148
H 0.60939 1.71247 2.20971 0.286687 -0.486407 -0.439957
H 7.3321 4.38898 1.66416 -0.242353 -0.393475 0.197623
H 1.02415 6.02584 8.35587 1.224093 -0.576845 1.332999
H 2.74132 4.6784 8.14227 -0.140415 1.038626 0.571943
H 6.97653 3.84508 9.66213 -0.156768 0.200903 -0.006536
H 8.09818 9.0048 4.09089 0.093506 0.842705 0.287539
H 2.08372 10.57 7.23296 -0.372549 1.218634 -0.693787
H 6.81136 1.08669 0.33398 -0.168116 0.271445 -0.138847
H 0.81053 4.65572 10.8195 0.916732 -0.651569 -0.356462
H 4.5885 1.42636 12.197 0.80717 -0.928249 0.273138
H 5.8002 4.44065 0.28711 -1.595259 -0.99611 -1.386166
H 8.22951 1.34294 0.78514 0.164482 0.373289 0.158321
H 7.59898 10.4696 2.70943 -0.00054 0.659998 -0.56909
H 8.78412 6.2978 2.45368 0.248723 0.299837 0.236747
H 4.71647 8.0636 6.52153 -1.125301 -0.059525 0.959111
H 4.97535 6.95423 7.49318 0.828074 -0.725053 0.629768
H 6.35768 11.7413 1.15533 -0.851068 1.688706 -0.0396
H 7.81682 7.27931 0.8865 0.012159 -1.193225 0.391131
H 1.94699 4.1495 9.81263 -0.479657 0.053966 0.541881
H 9.27423 2.73769 10.077 -0.182609 -0.350725 0.025917
H 10.2176 3.69253 6.99908 -0.388008 0.613765 0.036072
H 5.28547 0.08433 6.8322 0.698748 0.260149 0.68201
H 11.4774 6.66955 12.2878 1.905485 0.019161 0.020872
H 11.1658 2.8032 6.16248 -0.637931 -0.105961 -0.214749
H 0.14556 0.43661 12.1535 0.312611 0.064262 0.157937
H 12.3322 9.7042 5.11396 0.608341 -0.749087 -0.1177
H 6.63493 0.98473 6.98304 -0.516043 -0.454485 0.505909
H 5.29309 2.97648 5.30332 -0.033842 0.854388 0.024853
H 6.9593 2.92456 1.27676 0.644777 -1.075015 -0.865814
H 9.69215 8.44055 2.49233 -0.036373 0.188699 -0.130275
H 7.60397 11.3972 7.39704 -0.05469 -0.423784 -0.733424
H 3.51484 5.21777 2.72913 -0.644609 -0.443498 -0.460887
H 8.65129 1.88362 6.04142 -0.120155 0.176133 0.360488
H 1.94012 2.6236 6.26328 0.31041 0.64948 1.482659
H 4.5839 0.30955 2.36674 0.845762 -0.694826 0.403079
H 5.092 11.7225 0.37209 -1.830603 -1.004097 -1.152561
H 7.91969 2.30882 10.7962 0.713638 -0.234329 -0.172611
H 5.10762 1.80592 3.66821 0.409152 -0.350125 0.277906
H 1.3601 0.41949 7.63318 -1.380105 1.08744 0.941402
H 7.89559 8.29713 10.3378 -0.065159 -0.520474 0.23585
H 9.47636 9.59237 10.1039 0.104831 -0.232949 0.29094
H 10.2736 7.77528 0.32464 1.012835 0.118398 -0.200612
H 11.1104 0.26738 0.38403 1.073374 -0.597442 -0.03294
H 11.9162 5.63887 4.26284 -1.077795 0.81063 0.752618
H 9.60201 6.48231 10.959 -1.189082 0.38139 -0.935293
H 6.66329 9.35674 4.52472 -1.157304 -0.274671 0.198847
H 1.34309 11.2715 6.00404 -1.217741 -0.569664 -1.303652
H 6.02054 11.6596 9.57031 -0.111933 0.38717 -0.299154
H 3.48178 1.00243 2.98314 -0.026361 -0.373984 0.755868
H 4.80204 3.39503 11.8769 -0.278096 -0.24461 0.291238
H 10.1961 8.78553 6.17433 -0.519317 0.194518 0.491614
H 9.77153 1.27618 2.98307 0.387676 0.155477 0.162584
H 9.14113 0.47388 9.53518 -1.77579 1.775458 0.922441
H 1.0424 0.83289 10.287 0.534109 0.414445 0.711644
H 10.7784 5.91419 7.5795 0.466973 0.011111 0.345479
H 7.31602 1.73858 5.27119 -0.466689 0.298717 -0.739002
H 3.54141 2.2421 8.53118 0.631082 -0.272143 0.152617
H 3.31856 3.25114 6.60967 0.278716 -0.06094 0.214226
H 2.67007 3.0813 1.95019 -0.334509 -0.718773 0.680888
H 12.0734 3.35556 9.81333 -0.991715 0.311385 -0.275839
H 2.86449 6.23901 8.2545 0.480437 -0.377671 0.211476
H 9.89367 11.5428 9.89146 0.237063 1.597239 -1.616553
H 2.97331 11.0783 0.14609 1.05303 -0.428307 -0.758384
H 5.93109 4.6093 10.6787 1.180946 -0.024431 -1.453662
H 3.76796 5.38888 11.949 -0.397623 0.446754 0.134814
H 5.48598 8.14804 0.41016 -1.746621 0.207537 0.89549
H 1.42807 9.91058 1.35775 0.311631 -0.020151 0.367452
H 0.41759 6.80829 10.8677 -0.03495 0.177277 -0.146303
H 5.28484 2.88871 6.85747 -0.218575 0.880432 -0.472923
H 0.28835 6.78605 7.31956 -0.362107 0.742311 -0.841669
H 10.6101 9.84391 0.9807 -0.954648 -0.772692 0.026757
H 9.08262 12.2875 2.67067 -0.399237 -0.421841 -0.017423
H 4.36184 8.21632 1.58857 -0.158174 0.000834 1.11087
H 2.72152 8.60729 8.4383 -0.197748 0.463607 -0.506543
H 0.81791 9.3866 11.4788 -0.452201 0.3104 0.415806
H 10.0679 9.80152 11.5315 -0.329219 -0.471158 1.361978
H 3.86708 9.84151 0.08682 0.327675 -2.001933 0.568115
H 10.4811 5.81991 6.10095 -0.448834 -0.002718 0.237062
H 1.31178 2.15876 11.0478 0.323675 -0.744129 0.059229
H 4.57887 12.073 4.91163 -0.017716 -0.271005 -0.111016
H 0.49462 3.37334 4.88669 0.24433 0.050856 -0.728249
H 4.26859 2.04516 10.7727 -0.628018 -0.466433 -0.177664
H 11.9217 6.92279 5.1625 -0.659809 0.005086 0.044966
H 10.8576 4.2042 9.25399 0.222255 0.641197 -0.195889
H 9.73772 12.3565 5.10859 -0.15207 0.338444 -0.523329
H 3.59209 11.5187 5.94349 -0.455659 -0.205004 0.421736
H 1.16141 1.96011 7.94607 -0.194739 -0.501628 0.227245
H 2.83831 7.82065 3.71837 0.842316 1.042977 -0.952996
H 4.95315 9.9792 5.19534 -0.397793 -0.293664 0.246552
H 9.40734 6.08916 1.0457 0.854107 -0.026285 -0.35237
H 2.74681 5.09712 1.35106 0.045747 0.32749 0.641929
H 2.80754 9.19936 2.86822 -0.65906 0.208955 -0.197413
O 7.88383 8.9604 9.63973 1.384821 -0.679781 -0.613357
O 4.26578 0.45584 3.29207 -1.077463 1.056225 -1.465835
O 0.73704 1.09552 8.12518 1.550723 -1.003895 -0.924217
O 12.3623 10.5996 4.74984 -0.859614 0.674164 0.875393
O 3.08102 6.04588 12.2677 0.122944 -1.687105 -0.188473
O 8.84669 6.51783 10.2599 1.651877 -0.242761 0.848439
O 5.87047 0.5769 7.49735 0.04309 0.066814 -0.425309
O 10.3045 9.80869 10.6035 -0.22301 0.705128 -1.813395
O 1.02404 4.62282 4.26402 0.860979 1.309535 0.233579
O 7.29823 7.95918 0.4548 0.426424 1.756982 -0.470985
O 5.046 3.51714 6.12673 -0.060709 -0.890239 1.372036
O 0.24055 5.97627 7.84484 -1.559698 -0.410704 -0.577632
O 1.39048 1.16678 11.1566 -1.265395 0.139591 -0.978435
O 8.44297 2.22515 9.96743 -0.366202 0.42736 0.290958
O 9.28367 0.76422 2.33851 0.145357 0.553729 -0.567203
O 2.75909 4.75878 2.29872 0.839199 0.439427 -0.602465
O 9.41829 8.0124 3.34343 -0.053228 -0.118424 -0.035108
O 3.84916 10.7407 12.2084 -1.164836 2.367696 -0.195616
O 1.9788 11.4351 6.68429 1.586236 -0.691594 1.963876
O 0.62056 6.07214 11.4817 0.271839 0.049434 0.001741
O 4.36802 2.22184 9.06213 0.754696 -0.55717 -0.184898
O 8.69258 5.79943 1.63318 -1.133056 -0.491079 0.145807
O 2.48565 2.10164 1.84049 0.820366 1.208446 -0.417597
O 9.82645 12.3322 9.22272 1.767726 -3.348362 0.580896
O 1.27283 3.81095 10.4333 -0.728584 0.3594 0.190318
O 7.76003 11.0489 1.89996 0.244734 -1.30616 -0.183911
O 11.2752 6.29204 4.71934 1.663034 -0.415034 -0.775764
O 7.8208 1.36626 5.99485 0.830179 0.014588 -0.066878
O 10.269 2.80836 6.61777 0.735824 -0.082705 -0.810425
O 11.0935 3.33638 9.57039 0.66505 -0.91814 0.399916
O 2.49099 2.95335 7.06352 -0.51251 -0.285735 -1.901634
O 1.74241 10.1869 2.26862 -0.579241 0.125572 -0.072854
O 4.54654 11.5142 5.71988 0.173779 0.685873 -0.554449
O 4.48146 8.25044 0.64082 2.027371 -0.4057 -1.893917
O 6.61036 4.72641 9.85527 -0.521628 -0.099028 0.966638
O 12.3795 1.2488 2.77245 -0.991824 -0.403492 0.931295
O 8.12434 10.7908 6.8295 -0.807296 -0.161045 -1.070263
O 6.39933 5.97788 7.49082 0.320268 0.903414 -0.142943
O 10.2741 11.9031 5.75503 1.042226 0.673901 0.077044
O 5.60148 0.00069 0.80214 2.772472 -0.752189 1.674894
O 0.3076 8.12595 6.2066 1.305229 -1.005761 -0.903129
O 0.05699 8.38951 10.1834 0.333259 0.546838 -0.196305
O 7.50113 1.79588 0.31346 0.208709 -0.948981 -0.156368
O 3.97263 1.96766 11.7211 0.150658 1.096308 -0.182505
O 9.81238 9.26223 0.87537 0.490433 0.689885 0.087227
O 3.38429 8.43756 3.11881 -0.159588 -1.698356 1.112692
O 1.92711 9.12654 8.18532 -0.06464 -0.728364 -0.270296
O 10.0317 5.73318 6.99345 0.038877 -0.361516 -0.349005
O 4.28804 7.603 7.32519 -0.195484 0.94382 -1.65413
O 7.51162 9.78348 4.33948 1.286408 -0.650611 -0.472928
O 10.5658 6.85535 0.01011 -3.021985 0.102237 0.156654
O 5.85884 10.7734 9.89204 1.136397 -0.414357 -0.52204
O 12.0216 12.2752 0.38457 -1.339477 0.443209 -0.249035
O 5.77672 2.42916 4.06136 0.344302 -0.090419 -1.187386
O 9.86848 8.81121 7.09364 -0.094706 0.363765 0.091609
O 5.05712 9.01032 5.01826 1.473448 0.387775 1.338148
O 0.25292 2.47699 5.21552 -0.202337 -1.192762 1.529231
O 6.5963 3.72283 1.66999 -0.174185 2.327023 1.012326
O 5.14071 4.3197 11.8786 1.345542 1.324596 1.484757
O 1.02044 9.95096 12.2653 1.320947 -1.543192 -0.318477
O 2.25848 6.79065 5.19248 0.013841 -0.183877 -0.573573
O 2.69913 5.43984 8.79458 0.446678 -0.569996 -1.228634
Na 10.9686 1.1139 7.6526 0.127539 -0.620635 0.621415
Na 8.52823 7.13623 7.95724 -0.072869 0.068781 0.158898
186
energy=-1001.87111963 config_type=nep2xyz pbc="T T T" virial="-11.294454648817398 3.7731285303532087 5.017593105523163 3.7731285303532087 -12.380896320868235 -0.7350641390740902 5.017593105523163 -0.7350641390740902 -12.648365465420182" Lattice="12.4 0.0 0.0 0.0 12.4 0.0 0.0 0.0 12.4" volume=1906.6240000000003 Properties=species:S:1:pos:R:3:force:R:3
H 10.4537 11.7765 11.2521 0.228716 0.261756 -1.17883
H 10.1795 8.32651 0.90294 0.885639 -1.2269 -3.061388
H 5.36791 5.53535 5.95561 -0.001412 -0.375465 0.491241
H 6.09002 11.4153 4.73795 0.899815 -0.823614 0.993735
H 0.77558 1.26253 4.98871 0.457908 1.540384 0.545727
H 0.73134 6.81627 3.43205 0.107291 -0.161275 -0.042127
H 1.07903 5.67378 5.70311 0.086913 0.255093 -0.926184
H 11.1869 7.16806 4.77274 -0.319555 0.094455 -0.005501
H 8.48283 4.30387 3.48849 0.123452 -0.497473 0.935022
H 9.08145 0.99574 12.0513 0.153497 -0.476561 1.03024
H 5.43803 6.93099 10.2812 -0.614969 0.276502 0.312847
H 2.94558 3.023 7.77811 0.272924 -0.535523 0.03151
H 0.51516 9.40388 6.85609 -0.20127 -1.017178 0.025887
H 11.4857 7.45846 2.9717 -0.044423 0.449883 -0.492164
H 9.27572 12.1845 0.74967 -0.54649 0.090374 0.172404
H 3.43026 11.5717 12.2059 -0.06291 -0.072156 0.224466
H 4.31532 8.79855 3.23676 0.888054 -1.03948 0.827081
H 1.7629 8.16532 0.8405 -0.014661 1.116143 0.06524
H 5.05117 3.15204 3.71685 -0.097482 0.3994 -0.267529
H 5.58988 9.03116 9.82447 -0.739938 0.001541 -0.236685
H 10.5831 8.39247 10.0635 -0.115804 -0.926867 1.35825
H 2.19113 6.95348 4.35969 -0.338285 -0.25009 -0.839873
H 7.30802 6.87755 2.09966 -0.145795 -0.866367 -0.704261
H 0.42552 10.3053 2.40539 -1.056479 0.120042 0.786737
H 6.67425 5.16852 5.16713 1.202401 -1.684526 -1.625569
H 11.6565 5.58003 2.12264 -0.482128 -0.994733 -0.427924
H 8.1539 11.4254 8.54198 -1.116847 -1.638647 -0.32546
H 2.59631 2.17742 1.19496 0.799844 1.144841 0.064481
H 4.58517 2.85099 0.40135 -1.748126 0.639254 0.440807
H 1.13064 2.76132 4.6618 -0.506344 0.559218 -0.002824
H 11.3129 9.84502 2.5386 0.069655 0.074437 0.097599
H 8.20616 3.01618 0.51416 0.076175 0.377942 0.32203
H 2.44438 2.84065 11.1771 -0.07059 0.913302 -0.618854
H 6.16002 2.12912 9.10993 -0.992281 -0.572125 0.189113
H 7.50417 2.37574 7.23597 -0.489137 -0.032828 -0.361822
H 5.83587 7.22849 5.02475 0.476991 1.343435 -0.625542
H 9.73466 9.4038 4.78322 0.250102 -0.509613 0.243651
H 11.0724 3.167 11.5543 0.835662 -0.285813 0.833693
H 5.50097 5.17531 2.26447 0.739145 0.424845 0.25629
H 2.80954 11.8601 9.38679 0.105206 0.182276 -0.416626
H 5.27034 0.57244 12.1255 0.019797 -1.289176 0.072326
H 9.617 3.40124 11.1397 1.223597 -0.172071 -0.586556
H 4.63357 10.382 3.22697 -0.782866 -1.502912 -0.178299
H 9.68028 4.34259 1.41785 -0.474603 -0.061431 0.754891
H 3.63703 11.4352 7.15077 -1.261554 -0.25722 -1.461762
H 3.94054 11.3798 5.55158 -0.868515 0.001748 0.857604
H 8.59656 12.0391 3.6833 -0.489986 -0.072769 -1.545829
H 6.20022 5.87539 0.70661 -0.122303 0.171881 -0.608728
H 4.12068 5.38598 3.22973 0.262576 -0.263007 -0.480742
H 0.41259 1.76783 0.32398 0.640129 0.16191 0.666556
H 9.66838 4.41387 9.44554 0.024127 0.262839 0.203089
H 0.29637 2.64399 7.10677 -0.454233 -0.022748 0.18463
H 9.97564 6.16655 11.8773 -2.074475 -2.189004 0.756565
H 9.41422 4.6621 7.93194 -0.487788 0.755774 1.214836
H 1.31945 0.07753 10.7995 0.360805 0.024764 0.040675
H 10.1182 5.89668 5.93843 0.202916 -0.062749 0.367044
H 0.4044 4.05607 7.55762 -0.201151 0.272707 0.357797
H 3.70888 7.89396 5.08167 1.45588 0.41047 -0.975527
H 7.06144 2.20319 12.1481 1.667421 0.697473 -0.336093
H 12.0702 4.81425 0.75869 -0.697746 0.060536 1.043236
H 5.3694 0.10383 3.93896 -0.277398 0.515259 -0.130455
H 0.07701 4.14946 2.91122 1.079697 -0.120446 1.033764
H 7.81966 2.77586 5.10696 0.422464 0.499209 -0.441095
H 3.70849 6.44324 7.02437 0.060374 0.627426 0.685865
H 7.04097 10.3377 6.89718 0.026808 0.354911 -1.602517
H 8.11829 0.72767 4.82478 -0.619886 0.353576 -0.139391
H 11.3361 1.32501 0.07542 0.0556 0.114172 -0.048868
H 8.98234 4.39919 5.05259 1.130849 0.540307 0.366891
H 0.61187 10.1728 4.56855 -0.713981 0.315046 -1.26298
H 4.84928 10.4508 9.43526 0.718014 -0.54803 0.754965
H 7.41884 11.1465 2.0872 -0.541617 -0.507139 -0.171452
H 11.3247 6.40383 11.3393 -0.033911 0.438516 0.606074
H 0.08704 12.139 10.0342 -0.688794 -0.39521 -0.194616
H 10.9891 4.64672 6.27277 -0.42244 0.103272 0.019161
H 6.14671 7.32897 8.92836 -0.467628 0.46469 0.348399
H 6.15823 8.79044 5.24804 0.227546 0.429813 0.087325
H 9.4774 10.9029 5.09175 0.018466 0.782938 -0.040997
H 7.00302 10.3259 9.06391 -0.935084 0.149669 0.899642
H 7.89525 10.3512 5.59076 1.140665 -0.342921 -0.36237
H 5.1736 1.73529 10.9928 0.312797 -0.632874 0.567693
H 10.2521 12.0313 9.68902 -0.384485 0.425752 0.120895
H 11.7311 11.989 3.52593 0.417712 -0.907092 -0.54019
H 8.50147 1.18771 8.49439 -0.159532 -0.205097 0.699417
H 11.4525 0.44487 6.05982 -0.582962 0.515582 0.661894
H 8.05539 6.49628 8.29097 -0.78698 1.29468 -0.586667
H 6.41261 2.21376 5.19532 0.992271 -0.613099 -0.024406
H 3.64791 4.34762 7.97332 0.563486 0.015031 0.689013
H 4.68968 6.35726 8.36948 -0.864273 0.526233 -0.59898
H 4.21936 4.00815 1.40581 -0.829367 -0.313276 0.087474
H 1.21762 4.86473 11.4816 0.710457 -0.366203 -0.210614
H 4.59707 2.40446 9.00396 0.322428 0.08449 0.314649
H 9.62235 0.4869 7.81069 1.111773 -0.269148 -0.826167
H 5.57782 10.1693 11.5795 -1.152683 -0.052956 1.985278
H 7.79991 3.33091 8.4621 0.532658 0.768058 0.289857
H 2.18445 7.04072 1.78941 -0.165826 -0.09724 0.257664
H 4.44522 5.24468 11.6223 0.936092 2.593298 0.773831
H 9.29092 8.23981 2.06654 -0.056243 0.129299 0.499711
H 10.5355 9.99121 9.83552 0.555698 -1.25595 -0.221825
H 2.51804 8.63582 5.73134 0.550284 -1.388553 0.02427
H 2.53259 3.71754 9.8056 0.093416 -0.680926 0.347917
H 7.08608 7.82931 3.22821 0.158029 0.503364 0.45255
H 11.1848 0.98639 3.76942 0.951031 -0.108431 -0.172505
H 4.07369 6.56939 0.0055 0.52665 -0.071688 -0.675628
H 12.2521 8.53292 8.07794 0.349967 0.449621 -0.723585
H 1.65263 1.44031 2.19056 -0.418491 0.016091 1.540344
H 8.67052 10.1317 1.99797 -0.45984 0.557156 -0.15867
H 5.03333 10.0185 0.91596 0.432427 -0.674037 -0.796271
H 7.13775 6.80765 7.06217 0.234745 0.383576 0.492817
H 10.0927 1.06789 5.87833 -0.081865 0.040561 -0.005225
H 2.69935 2.01542 5.70679 -0.285841 -0.206436 0.318499
H 2.40422 0.14816 0.57561 0.10413 0.69632 0.194717
H 4.17106 0.26554 9.14924 -0.365588 -0.678798 -0.219457
H 11.3068 7.80622 6.15305 1.238833 0.681909 1.099155
H 1.24079 6.16721 0.017 1.507408 1.256262 1.007739
H 0.92573 6.69473 6.92108 0.005683 -1.096053 -0.750042
H 3.58235 0.94273 6.45982 -0.167046 2.043939 -0.8243
H 1.99229 10.4858 5.34362 -0.55359 0.29993 0.043957
H 2.09803 10.624 0.88386 -0.275393 -0.478552 -0.02616
H 4.5395 2.26978 4.94454 -0.35427 -0.12549 0.016244
H 8.15716 4.91518 1.53943 -0.577544 -0.436188 -0.090638
H 1.24782 4.92524 3.59414 1.131906 1.791055 -0.162728
H 2.79681 9.72063 1.9321 0.020826 -0.11591 0.515823
O 5.60793 10.0169 9.92883 -0.198674 0.728275 -0.254126
O 6.98547 10.3216 5.86262 -2.303515 -0.076564 1.970872
O 1.21958 9.8919 5.23554 1.176314 -0.369772 1.377557
O 11.9544 6.7059 3.33374 -1.481834 -0.098073 0.140567
O 2.10858 7.27324 0.83789 0.675864 -1.200044 0.067194
O 5.31647 7.49125 9.48129 1.527723 -0.868609 -0.529619
O 12.3991 3.21423 7.85394 0.764073 0.19123 -1.133166
O 8.36826 11.0722 2.01938 1.104596 -0.001128 0.185325
O 1.13428 2.11652 5.41538 -0.439522 -1.649347 -0.941812
O 6.62823 5.62956 1.5245 0.26878 -0.150151 0.470046
O 3.09736 7.81112 5.78923 -1.839947 0.839198 1.07236
O 1.95558 3.43642 10.565 -0.108435 -0.304794 0.509274
O 10.7863 0.98707 6.55397 0.409656 -0.74372 -0.830555
O 12.0332 1.95277 12.1914 -0.674567 -0.475918 -0.41992
O 12.037 0.49386 3.69937 -1.096251 1.349641 0.736473
O 0.7803 4.10797 3.65276 -1.905325 -2.289347 -0.744039
O 11.4692 4.70949 1.57418 1.012797 1.225588 -0.356982
O 5.12498 10.4793 0.06412 0.142318 1.234965 -1.119631
O 9.45086 10.0168 5.47046 0.660614 -0.258261 0.229663
O 10.6026 9.06375 9.40383 -0.120136 1.925443 -0.916805
O 3.49169 3.47399 8.44511 -0.643297 0.931305 -0.716033
O 8.74855 4.12147 1.71092 0.87147 0.489159 -0.301855
O 3.79069 3.43322 0.70405 2.058165 -0.722664 -0.418058
O 9.06952 0.3701 8.58604 -0.812311 0.235721 0.322002
O 4.75448 4.73907 2.86367 -0.676108 -0.237442 0.445791
O 4.10221 9.60909 2.81431 0.604928 2.603965 -0.599358
O 10.0604 4.9562 6.27107 0.366049 0.143983 -0.092326
O 7.36394 2.02117 5.54708 -1.16195 -0.173577 0.435113
O 9.01703 4.84206 8.86014 0.433223 -0.683815 -1.855933
O 0.72209 5.56433 11.9087 -2.569591 -1.194825 -1.096886
O 4.25982 5.89163 7.61026 -0.028495 -1.064696 -0.456277
O 10.0978 8.72344 1.72572 -1.135898 0.931609 2.86655
O 3.57544 1.93095 6.1718 0.136929 -2.04699 0.82847
O 4.7923 6.21408 11.8148 -1.741536 -2.567441 -0.10738
O 7.45991 2.46454 8.22287 0.112844 -0.57749 -0.101126
O 11.9612 10.4543 2.95266 1.244312 -0.73928 -1.004834
O 5.30798 11.5795 4.21012 -0.818073 0.49535 -0.708637
O 6.26531 5.79615 5.71872 -0.816774 1.853453 1.442117
O 0.9294 5.73351 6.63949 -0.266306 0.603162 1.604717
O 8.7003 12.3894 4.55318 1.358852 0.006563 1.387549
O 10.6384 7.56075 5.53171 -0.877717 -1.19408 -1.442511
O 9.70603 0.34078 0.08311 0.365716 0.386176 -0.976386
O 10.5651 3.47234 10.8005 -2.587143 0.559892 -0.342064
O 3.64968 11.8567 8.88178 0.631218 0.501006 0.520877
O 7.761 7.63774 2.55811 0.37492 0.773875 0.289263
O 1.93226 9.85075 1.489 -0.959919 0.558009 -0.2722
O 0.25482 8.49765 7.17676 -0.347709 0.199431 1.010858
O 7.52905 7.26664 7.86174 0.738754 -2.186007 0.162829
O 3.1857 11.3796 6.22487 2.447072 0.426228 0.469909
O 5.7983 8.15711 4.60411 -0.607263 -1.56322 0.134619
O 10.5246 6.8722 11.6795 2.290091 1.967548 -1.296856
O 7.65989 10.4995 8.38616 2.057002 1.921037 -0.540181
O 0.94112 0.18025 9.90697 0.606702 0.178096 0.328057
O 8.29037 4.10904 4.4615 -1.167029 0.092692 -1.566668
O 10.8341 11.5808 10.3258 -0.192875 -0.451402 1.011862
O 5.15111 2.29399 4.171 0.445524 -0.337167 0.103618
O 2.49277 11.8313 12.3267 0.212928 -0.405463 -0.9602
O 8.01769 2.56664 12.0607 -1.676034 -1.224856 -0.196735
O 5.27169 1.50586 11.991 0.252452 1.684458 -0.437738
O 1.84895 1.57289 1.28342 -0.225757 -0.728837 -1.330965
O 1.847 6.55914 3.52016 1.605199 0.266192 0.783371
O 5.25977 1.84497 9.5011 0.267643 0.351624 -0.876329
Na 0.08076 2.35424 9.82786 -0.138202 -0.048537 0.390657
Na 9.12139 9.01853 7.75572 0.078338 -0.299533 -0.582656
186
energy=-1002.01717706 config_type=nep2xyz pbc="T T T" virial="-16.484101006339674 -3.9197748316663272 -3.0289726300031936 -3.9197748316663272 -9.358397405700254 0.5704485190088165 -3.0289726300031936 0.5704485190088165 -7.61782493022659" Lattice="12.4 0.0 0.0 0.0 12.4 0.0 0.0 0.0 12.4" volume=1906.6240000000003 Properties=species:S:1:pos:R:3:force:R:3
H 10.8367 12.0752 11.3183 -0.558864 -0.067285 1.256032
H 8.50716 8.8366 0.92364 -0.269525 0.131774 0.68943
H 5.81107 5.26217 6.85565 0.839906 0.602408 -0.092223
H 5.26031 11.2512 4.23231 -0.632352 0.012815 0.013964
H 9.56071 2.84351 5.12176 -1.281407 1.088032 -0.411289
H 12.2358 5.43911 3.47814 0.73973 -0.780963 -0.190939
H 1.87212 6.14465 8.89754 -0.716616 -0.07292 1.080046
H 11.3335 5.42679 7.43335 0.630831 -0.538497 -0.35599
H 7.8562 4.19669 3.95252 0.135132 0.222863 0.348955
H 9.32591 12.0112 0.68287 -2.538826 0.178165 0.239296
H 5.54058 7.24648 9.33555 -0.118432 0.86065 -0.74469
H 3.60772 4.46098 6.05119 0.069377 -0.171466 0.345061
H 11.9404 8.60558 7.37508 -0.025006 -0.08456 0.771779
H 12.3011 7.04037 3.11249 -1.511239 -2.080401 0.784269
H 10.3657 11.0948 1.32072 0.069304 -0.826054 0.925827
H 4.26838 11.7535 12.0591 0.552028 0.454152 0.24353
H 8.65456 8.0661 4.88519 -0.712766 0.793945 -0.862868
H 2.28469 8.25225 1.23184 0.190187 -0.53182 0.114376
H 4.95779 0.32143 1.17743 0.03145 0.017892 -0.223934
H 5.11622 9.74262 9.35985 -0.215743 -1.445967 -0.128088
H 9.62553 9.19317 10.7357 -0.598141 -1.186097 1.178
H 2.22075 6.54822 4.11752 0.517533 0.087881 0.873264
H 6.68916 3.8432 2.24298 0.212889 -0.037207 -0.333654
H 0.737 9.19608 3.26202 -0.205409 0.122123 -0.294589
H 7.04097 5.24224 5.9538 0.960633 -0.654185 -0.962348
H 11.1926 6.06267 1.67232 -0.364975 -0.076175 0.015779
H 7.3576 12.3143 7.64685 -0.786978 -0.378183 0.262307
H 2.01011 0.69846 2.72995 0.154777 1.011931 -1.310444
H 5.16927 3.47344 11.7102 -0.627669 0.540019 1.529661
H 3.04007 2.41587 4.5342 -0.640272 0.91552 -0.065912
H 11.5004 9.21936 3.38613 1.295245 0.032828 0.273341
H 8.40954 4.16573 11.284 -0.321114 -0.645497 -0.15263
H 1.44009 4.32952 12.2998 0.137705 -0.805595 0.117854
H 5.07637 1.7407 7.60057 -0.409337 0.262324 0.134249
H 7.24447 1.45897 6.20351 -0.497282 0.109016 -0.374561
H 5.77195 7.03861 5.76096 0.067889 0.166425 -0.511514
H 10.6723 6.68806 4.5636 0.025398 -0.471508 0.256704
H 7.01824 5.82428 11.0467 0.52956 -0.288933 0.101329
H 5.16062 1.92784 2.32329 -0.026051 -1.769362 -0.368788
H 2.53508 12.038 9.14681 -1.021023 0.359266 1.125137
H 6.16559 1.11835 10.9927 -0.904549 0.709597 -0.183399
H 6.56601 6.95015 12.0597 0.710399 -0.384884 -1.205415
H 6.91496 12.2787 1.48234 -0.60083 -0.193459 0.080928
H 10.1313 4.64371 0.33951 -0.556617 -0.698024 -0.406774
H 2.76294 11.0376 7.13203 0.102413 -0.17668 -1.78714
H 3.16415 10.7691 5.5099 1.142636 0.446758 -0.356295
H 10.0484 11.1589 3.44121 -0.733935 1.009072 0.800521
H 7.0216 5.24199 1.83039 -0.668857 1.663256 -0.378146
H 4.12596 3.10976 2.78524 1.203322 -0.571206 -0.303933
H 10.7376 2.51495 0.59239 -1.008487 0.467732 -0.429176
H 8.52812 4.0009 8.92478 0.29262 -0.569301 -0.762324
H 11.4976 3.74793 9.66646 0.925651 -0.048793 -0.490257
H 8.61535 7.3955 11.7626 0.426839 1.481006 0.49877
H 9.3715 4.08618 7.54867 -0.523004 -0.483323 0.979352
H 2.16561 12.138 11.2405 0.329443 -0.425568 0.453015
H 11.6689 2.88549 5.94506 0.310094 0.376413 0.483415
H 0.48768 4.4143 9.32924 0.058924 0.365977 0.181472
H 3.71657 7.83881 5.38803 0.752686 0.600871 -0.348052
H 7.14208 3.34281 10.6461 -0.429952 -1.13963 0.377065
H 11.8551 5.9026 0.30877 0.793905 0.136973 -0.78694
H 4.91802 12.1002 2.96075 -0.57837 0.202371 -0.278514
H 1.85013 3.16663 3.93397 -0.448924 0.145819 0.142373
H 6.36291 1.17198 3.81395 1.065244 0.480151 0.548716
H 2.56392 7.32937 7.07986 -0.75208 1.180846 -2.059783
H 7.17491 11.2793 5.85037 0.039745 0.703772 3.208956
H 8.938 0.15658 3.03368 0.309038 0.168766 0.734757
H 11.3079 1.07195 0.80525 -0.283366 0.155829 0.297295
H 8.62146 5.39673 4.58568 0.519489 0.158494 0.065055
H 0.04878 9.10944 5.09961 -0.362277 -0.459523 0.921253
H 4.45868 11.1391 8.95862 1.157442 -0.5109 0.701838
H 7.47923 10.7369 1.282 0.412891 0.791885 -0.119954
H 9.91742 7.47003 0.2047 -0.24314 0.885114 -0.478934
H 0.73931 12.0099 10.5213 -0.576808 -0.465793 -0.00187
H 12.2329 3.10492 7.4118 0.222254 0.591586 -1.337559
H 6.2676 7.97009 8.10724 -2.237791 -0.176212 1.485765
H 6.03624 8.27342 4.82855 0.313735 -0.180324 -0.117318
H 9.98805 6.46009 6.06297 0.66107 -0.291745 -0.320518
H 6.54031 10.9162 8.03736 -1.646988 0.008607 1.551717
H 7.66356 11.6685 4.43668 0.800508 0.097063 0.108762
H 5.42864 2.03473 9.88751 -0.148861 -0.1819 -0.156441
H 10.6937 0.13127 9.76266 0.633757 -0.778985 0.67584
H 11.9826 3.42462 2.08245 0.365006 -0.174481 0.250507
H 9.52643 1.6694 8.64911 0.306422 0.165561 -0.548561
H 11.204 10.6311 6.07277 -0.275898 0.409001 -0.116961
H 8.6566 7.50472 8.24028 -0.779404 0.052369 -0.501878
H 7.87166 1.1997 4.36501 0.597547 -0.774057 -0.669212
H 3.71076 5.36434 7.3216 -0.443724 -0.133725 -0.244934
H 3.96353 7.27877 7.88785 -2.136216 -0.587648 -0.04065
H 4.83474 3.59267 0.89575 0.362412 -0.840067 0.762148
H 0.81601 5.98213 11.1222 0.529061 0.237415 -1.334707
H 4.06226 2.91155 7.66745 -0.220054 0.63844 -0.332327
H 10.3855 0.7291 7.68719 0.055611 0.02786 -0.912955
H 5.88842 11.4144 10.7996 -0.363236 0.642289 0.032179
H 7.74957 2.27783 7.37195 0.883996 1.258394 0.699547
H 2.3307 6.91155 2.03305 -0.02623 -0.598492 0.102557
H 4.76577 5.65529 0.31052 0.434381 1.088186 0.380376
H 7.72843 8.80422 2.40455 0.302531 -0.047081 -0.260992
H 10.4097 10.3692 10.2006 -0.879038 -0.973944 -0.964083
H 2.44273 8.82607 5.40591 0.48131 0.532983 0.105028
H 2.79471 3.62866 12.2955 0.547117 -0.220253 0.063139
H 7.78595 9.47827 4.61575 0.214191 0.692722 0.633995
H 11.5625 3.33695 3.53196 -0.857703 -0.604848 0.917551
H 3.97756 6.94203 0.71787 0.345274 0.130807 0.086023
H 11.4355 8.64295 9.02123 0.082806 -0.103281 -1.220179
H 1.82319 1.89147 1.56904 0.087529 -0.238736 0.404093
H 9.53901 9.71946 2.98487 0.049278 0.649011 -0.0527
H 6.59033 11.807 12.1761 -0.070075 0.312188 0.153621
H 7.66041 7.47278 7.0113 -0.186514 -1.451329 -0.893919
H 10.1504 11.6842 5.41944 0.191669 -0.516416 0.495016
H 9.96895 1.35976 4.64029 -0.533267 0.445596 0.126943
H 3.20738 12.3682 0.80205 0.020377 0.019972 -0.644772
H 3.30741 0.52162 8.07114 0.078931 -0.606537 0.520217
H 10.5688 6.60699 8.01806 0.566716 0.289263 0.077404
H 1.41334 6.54471 0.11457 -0.056343 -0.289857 -0.027668
H 0.42088 6.56388 9.18583 0.067997 0.087547 -5e-05
H 1.80948 0.1413 5.05904 0.008616 -0.030929 0.218268
H 0.93675 9.63039 6.28028 -0.000368 0.383608 0.246464
H 2.68619 10.4497 1.45898 -0.927752 -0.504755 0.583275
H 3.27666 12.3705 4.44646 -0.562642 0.594775 -0.391631
H 8.83434 3.86267 0.65813 -1.177102 -0.004301 1.122559
H 2.61137 5.04357 3.54129 -0.810287 1.881695 0.253936
H 3.29735 10.2852 2.79124 -2.012471 -0.7445 -0.208696
O 5.28868 10.6719 9.36747 -0.962077 1.715309 -0.822285
O 7.14713 11.0312 4.96424 -0.980068 -1.337076 -3.618469
O 0.04111 9.28117 6.12212 0.236315 0.44418 -1.068779
O 11.6988 6.18589 3.22577 0.450665 3.410979 -0.481116
O 2.36234 7.27542 1.11454 -0.211913 1.374356 0.133028
O 5.33885 7.88665 8.59983 2.386196 -0.653985 -0.34463
O 0.01702 3.55974 9.362 -1.218261 -0.901822 0.566832
O 10.3297 10.2734 3.17984 0.656899 -2.01363 -0.921479
O 10.1743 2.14195 5.23869 1.675939 -1.189831 0.197735
O 7.44053 4.413 1.94752 0.210883 -1.879472 0.655221
O 2.74673 7.9211 5.4326 -1.299425 -1.132554 -0.348983
O 1.85225 3.40655 12.3716 -0.29157 0.979578 0.023853
O 10.4681 11.2638 6.25844 -0.108255 0.065598 -0.15525
O 11.5465 2.01425 0.71477 1.022108 -0.738032 -0.211195
O 12.2563 3.67371 2.98558 0.871452 -0.017018 -0.75087
O 2.71277 3.34237 4.33559 0.868486 -0.934195 -0.170522
O 10.9711 6.03098 0.69739 -1.389115 -0.094764 0.926979
O 5.87577 12.1072 11.5148 0.269089 -1.229036 -0.624799
O 9.8631 6.68942 5.12398 -0.95073 0.738121 -0.096903
O 9.85055 9.5477 9.88283 1.740463 2.318901 -0.368726
O 4.04028 4.51925 6.92693 0.248014 0.137113 -0.301846
O 9.57365 3.81239 0.06448 1.772485 1.058271 -0.153124
O 4.72268 4.02626 0.03847 -0.009354 -0.041281 -2.592198
O 10.1034 0.88673 8.5818 -0.39003 -0.036323 1.161848
O 4.9888 2.88111 2.33877 -1.214952 2.869714 0.821713
O 7.50149 11.6921 0.92706 0.667223 -0.437634 0.296891
O 12.3134 3.4344 6.46544 -0.659662 -0.734938 1.044265
O 7.02837 1.6736 4.35028 -1.484606 0.425856 0.024976
O 8.904 3.46548 8.16557 -0.060707 0.640817 0.186478
O 0.83336 5.86269 12.065 0.152102 -0.348272 1.624629
O 3.00941 6.83893 7.73687 3.086911 -0.837811 2.868263
O 8.12363 9.36808 1.71179 -0.065644 -0.449123 -0.1729
O 2.46077 0.58225 4.50532 0.510141 -0.158792 -0.269226
O 4.89841 6.62006 0.6128 0.095628 -1.257814 -0.642611
O 7.19569 1.53273 7.1734 -0.8088 -1.128451 -0.274721
O 12.3756 8.71328 3.63928 -0.545211 0.641192 -0.537243
O 4.43281 11.5502 3.77091 1.236776 -0.707576 0.373466
O 6.65564 5.77233 6.65319 -1.837882 0.016374 1.006533
O 1.0963 5.94954 9.54557 0.711262 0.812084 -2.102645
O 9.14961 0.08582 3.99291 0.018183 0.022692 -0.971212
O 10.4497 5.70848 7.66625 -0.742471 0.350661 0.101334
O 10.2207 11.7506 0.65068 2.553288 0.749867 -1.153013
O 7.24923 6.73234 11.334 -1.518915 0.554174 1.105254
O 3.1352 11.9853 8.40584 1.18017 0.13734 -1.818198
O 7.95477 8.56136 4.35266 0.47394 -1.507795 0.169625
O 2.41208 9.99426 2.31574 2.908198 1.300805 -0.403921
O 11.7529 8.11295 8.24457 -0.412984 -0.414686 0.893598
O 8.07525 8.02828 7.65277 0.851609 1.290351 1.329963
O 2.53179 10.6312 6.19773 -1.295043 -0.182139 2.119761
O 5.33924 7.68445 5.14972 -0.275144 -0.277201 0.632602
O 9.27005 8.11613 12.1677 -0.098053 -2.513501 -0.08934
O 7.20488 11.3369 7.52926 2.447532 0.66159 -1.330746
O 1.6155 0.011 10.4793 0.110037 0.442363 -0.106229
O 8.20602 4.5456 4.79905 -0.409197 -0.545653 -0.301629
O 11.168 11.9003 10.4449 0.262138 0.502081 -1.731529
O 5.48038 0.46997 1.96447 0.501404 -0.096129 0.980252
O 3.39162 11.7037 0.08484 -1.333181 -0.275212 0.32852
O 7.63314 4.16357 10.6748 0.700213 1.730903 -0.770356
O 5.91632 2.07701 10.719 0.618008 0.153677 0.01316
O 2.0964 0.97462 1.75271 -0.038084 -0.707469 0.87214
O 2.12177 5.92163 3.39628 0.526425 -1.53525 -0.842523
O 4.18649 1.99212 7.94049 0.950319 -1.008873 0.14749
Na 0.69594 1.86919 11.3324 -0.153273 0.498927 -0.115123
Na 9.12071 10.1714 7.81763 -0.026163 0.035955 -0.093896
186
energy=-1003.08536645 config_type=nep2xyz pbc="T T T" virial="-14.631202438348398 -2.598851400216506 5.108034709838647 -2.598851400216506 -10.186687798485858 -0.6544283087001804 5.108034709838647 -0.6544283087001804 -4.404875036707953" Lattice="12.4 0.0 0.0 0.0 12.4 0.0 0.0 0.0 12.4" volume=1906.6240000000003 Properties=species:S:1:pos:R:3:force:R:3
H 9.58553 0.0578 10.1436 -0.152961 -0.019393 -0.575445
H 9.09826 10.8685 4.64387 0.594006 0.554302 0.438832
H 7.40399 6.1395 5.91872 0.716739 0.608141 0.145953
H 6.43642 0.13515 5.87492 -0.176527 0.235244 -0.892421
H 10.066 2.27892 2.83584 -0.287261 0.390849 -0.012037
H 1.50717 8.25824 9.17802 0.658325 -1.263308 -1.219207
H 3.542 6.02039 10.184 -0.319003 -0.960533 -0.100127
H 1.55201 9.34665 10.8482 -0.531907 -0.169077 1.010576
H 10.8064 9.13179 10.9071 0.250362 0.176368 -0.720529
H 12.1038 9.44802 4.60846 0.279212 0.423706 0.474011
H 4.90896 9.95485 11.725 0.107276 -1.721061 0.643433
H 2.68994 0.95651 5.23722 -0.292212 -0.629263 0.222966
H 11.7563 11.4987 5.50204 -1.584922 1.235467 -0.760005
H 2.25051 6.84821 8.6512 -0.276303 0.373998 -0.00357
H 12.0886 8.15393 11.9609 0.620084 0.6899 0.247051
H 7.0297 6.11918 3.84359 0.316719 0.188487 0.947028
H 4.04435 7.11263 5.87428 0.927646 -1.183273 0.448353
H 3.49248 8.074 1.04457 -0.028588 0.026336 0.403521
H 7.39222 8.3993 2.82141 0.11288 -0.744074 -0.648503
H 6.57292 11.3698 12.1428 -0.301756 0.001452 0.144078
H 0.95405 0.94928 9.41438 0.248773 0.284362 0.438384
H 0.78328 8.14321 2.88937 -0.118419 -0.24681 -0.130074
H 7.25773 9.85192 2.02366 0.383976 -0.329974 -0.550754
H 12.1517 10.1846 2.46665 0.572191 0.058249 -0.71274
H 5.94755 5.54689 5.89032 0.400329 -0.126646 -0.738969
H 0.81005 5.58901 11.3757 0.2842 -0.252728 -0.074276
H 6.9501 1.223 10.8962 -0.43703 -0.011476 -0.679004
H 1.96909 4.91932 0.9921 -0.287636 -0.06101 -0.764647
H 0.39743 1.08122 0.69595 -0.894159 -0.614864 0.300408
H 0.48678 4.74622 4.37507 0.185842 -0.870241 0.068839
H 11.3362 8.36562 3.85997 -0.821795 -0.9633 -0.071032
H 5.62303 4.11076 11.1917 -0.101941 -0.212887 0.049925
H 11.0556 1.27819 10.3615 -0.393522 0.268141 0.019878
H 6.09596 3.61301 9.1507 -2.288891 0.598334 0.938084
H 8.15874 3.19102 8.32306 0.060096 -0.004267 0.553369
H 4.09868 2.56478 1.74509 0.109139 0.647302 0.290124
H 1.07036 7.74398 6.78386 0.187445 -0.012059 0.83432
H 7.1473 5.87665 11.7154 0.211305 0.24211 -0.494547
H 4.47588 0.04 0.33491 -0.102479 -0.658145 -0.045436
H 2.83117 0.39514 9.32063 0.208869 -0.668262 -0.191171
H 11.4296 10.4998 8.92509 1.617327 0.123025 -0.468152
H 8.66503 6.17968 11.5632 -1.065231 0.366968 -0.417828
H 9.87592 6.18564 2.45005 0.097121 0.331427 0.92554
H 5.55997 4.58354 0.34119 0.084538 0.178746 -0.027137
H 4.30895 9.53227 6.04594 -0.154871 -0.823211 -0.049128
H 5.3122 10.7436 6.27002 -0.751337 0.203396 0.202098
H 9.76067 5.39789 0.42935 0.75388 0.37599 0.840993
H 4.48188 6.29221 1.34914 -1.785307 1.284347 -0.552204
H 3.54079 0.045 1.66967 0.267005 -0.607503 -0.302972
H 9.77473 1.85797 7.36708 -1.545636 0.943004 -0.392465
H 7.20634 3.95081 5.1381 -0.262674 1.276637 0.844417
H 0.31033 2.39504 3.53609 0.406815 0.133929 0.133539
H 2.53637 2.15008 6.2468 -0.552414 0.38202 0.967962
H 7.82297 3.15773 4.07936 0.884845 -0.397684 -1.581046
H 1.13595 10.7718 1.77408 -1.288465 -0.295018 0.41874
H 10.016 5.99278 9.17802 -0.872532 0.696708 -1.074298
H 1.75163 2.51965 4.29613 -0.581421 0.033177 -0.364749
H 3.9917 5.40523 7.45649 0.436064 0.397698 -0.121379
H 4.50947 4.33882 9.19769 0.457194 -0.316492 -0.08001
H 0.6395 6.64318 10.1579 -0.156925 -1.008118 0.025734
H 7.36877 11.1353 5.876 -0.460735 1.148832 0.001968
H 0.51355 6.06574 3.63284 0.447584 0.904007 -1.18166
H 9.05224 4.04352 1.99813 0.252376 0.475697 0.02121
H 2.70245 4.82448 8.32015 -0.037447 -0.049068 0.574133
H 8.44939 8.48281 6.02661 -0.153384 1.164213 -0.449833
H 7.26268 1.13785 0.05668 0.656235 0.352948 0.520255
H 8.54364 2.33477 6.34112 -0.171791 0.603871 -1.162295
H 10.346 8.4574 9.53002 -0.142848 -0.227081 0.057683
H 10.4158 0.68809 4.1611 -0.768673 -0.414641 1.465394
H 8.05222 11.3714 11.9093 0.588597 -0.002873 -0.204446
H 8.30121 5.9971 2.09778 1.459875 0.143491 0.50175
H 2.32378 2.56865 8.28732 0.291668 -0.409883 0.781639
H 12.2376 11.8872 8.81955 0.458024 -1.370156 -0.180176
H 8.89232 6.92052 9.74969 0.042754 -0.173061 -1.179699
H 4.71817 11.0213 10.7401 -0.38266 0.851604 -1.706946
H 2.90637 3.02564 2.56582 -0.115878 0.557719 0.226067
H 0.7141 7.00091 5.47173 0.623534 0.410235 0.08163
H 5.70821 1.75039 10.2089 -1.047168 1.826944 -0.401076
H 9.09108 7.52376 7.02277 0.414563 -0.318063 1.115283
H 12.0703 12.0913 1.13015 0.131162 0.437587 0.066993
H 9.70383 10.9369 9.83067 -0.331836 -0.22103 -0.37605
H 10.9877 6.27349 4.53645 0.95817 -0.915507 0.416568
H 0.92892 3.16667 7.92799 1.223341 -0.366475 -0.795256
H 9.47579 0.50642 5.62557 1.517016 -0.712967 -1.594457
H 11.5435 4.93293 9.60599 1.704766 0.705792 1.041725
H 8.58671 2.59954 1.4635 0.046005 0.516985 0.435416
H 4.82461 1.40456 5.05021 -0.476222 -0.201898 0.208076
H 4.82546 7.42533 11.4535 0.182845 -0.00884 0.215194
H 1.98171 1.54263 11.5462 0.315703 0.436647 2.158328
H 2.54808 11.4084 3.50517 -0.346402 -0.007151 0.462008
H 6.18916 2.00641 4.8221 0.645199 -0.159691 0.103709
H 11.5801 1.84999 6.61809 0.129233 0.513847 1.43304
H 5.38386 9.04819 2.71012 -0.431097 -0.053046 -0.062001
H 8.06721 4.69482 8.75139 -0.225813 -1.319451 0.819261
H 3.22848 5.32692 11.6891 0.474371 1.137767 -1.529452
H 6.22968 8.04789 11.4517 0.515432 -0.132814 -0.03952
H 7.90514 10.0369 4.11213 0.383131 -0.006894 1.071401
H 11.9994 1.56898 8.4861 -0.253444 -0.67409 -0.16768
H 3.79632 4.9325 5.89969 0.413952 0.105353 0.104904
H 10.4777 1.08439 11.7076 0.282707 -0.35252 1.774341
H 2.89834 7.97718 5.54947 0.373011 0.273375 -0.298351
H 9.65142 7.0384 4.72741 -1.407446 0.501787 1.595014
H 3.10439 7.12672 12.256 -0.251712 -0.157337 -0.013296
H 12.2619 10.6881 6.72206 0.44523 0.620866 -0.43198
H 1.76445 3.62979 0.19263 -0.024207 -0.522212 -0.340773
H 10.9955 5.46049 11.7484 1.422925 0.751345 -0.093456
H 4.20113 8.46288 3.49546 -0.258287 -0.333021 0.682413
H 11.2482 3.87423 8.50957 -0.811725 0.392722 0.233892
H 6.99348 2.72832 12.2228 -0.127354 -0.133118 0.353606
H 11.2364 1.37768 2.3156 -0.001913 -0.348049 -0.021601
H 6.39333 6.25333 2.53782 -2.237348 -0.43989 -1.619948
H 3.60153 1.42374 10.1148 -2.328552 0.095939 -0.949953
H 1.17364 10.2061 9.61021 0.284778 -0.485318 0.089505
H 0.06336 9.55688 0.19397 -0.051272 0.589212 1.619402
H 2.73552 1.5746 0.62017 0.39416 -0.712395 -0.669096
H 1.56148 11.025 5.48479 0.839836 2.057166 -1.88711
H 3.19051 10.5483 9.27498 -0.080335 0.362957 0.517992
H 3.33513 10.5431 2.43866 -1.174529 1.077477 0.183462
H 3.12976 11.2437 5.43572 0.333707 0.084233 -0.295778
H 4.57505 4.7775 1.93104 -0.578144 0.676146 0.119098
H 1.59749 7.38425 1.76177 -0.040813 -0.098417 0.211848
H 3.95079 11.0806 8.09748 0.393326 0.191008 -0.347261
O 7.41724 11.649 0.17125 -0.33793 0.02324 0.069614
O 8.68841 7.57325 6.16375 -0.375864 -0.898661 -0.570434
O 3.73678 11.329 9.01959 -0.286662 -0.617208 -0.204797
O 1.43732 7.41857 8.58158 -0.198098 0.847768 1.155671
O 2.86053 7.383 0.77764 0.414944 0.395908 -0.1484
O 5.08214 10.8777 11.5981 0.277142 0.951708 0.943115
O 1.16069 2.8849 3.58045 0.281038 0.031221 0.319279
O 10.1454 5.12395 11.9649 -1.933655 -0.91453 -0.706736
O 10.7967 1.69887 3.14462 1.118538 -0.465402 0.192858
O 5.03299 5.6205 1.68199 2.056789 -2.060472 0.653707
O 4.42276 5.43521 6.44858 -0.261826 -0.121063 -0.337567
O 10.1894 1.41215 10.869 0.951316 0.042882 -1.433432
O 10.1475 0.06543 4.99867 -0.624586 0.994711 0.177086
O 8.72899 1.9662 7.19898 1.770881 -1.203092 1.960442
O 10.3377 6.83215 4.12741 0.532662 0.596755 -2.301494
O 0.1974 5.6561 4.43769 -0.374371 -0.324407 1.086324
O 0.24162 5.86018 10.6314 -0.267494 1.094246 -0.074054
O 4.42035 8.84594 2.64063 0.406675 0.551995 -0.5363
O 1.1742 7.80562 5.82788 -0.475167 -0.335057 -0.772359
O 0.0009 0.85263 9.41612 -1.319921 0.814099 -1.379119
O 2.97984 1.85739 5.45429 0.575277 0.047566 -1.367837
O 6.04703 4.04098 12.0897 0.280403 0.147261 -0.355016
O 1.92838 1.82867 0.13304 -1.104005 0.263352 -2.00203
O 11.4175 2.23214 7.52591 0.233371 -0.732199 -0.219738
O 4.08686 0.57473 1.03255 -0.100258 1.35794 0.590723
O 9.26856 5.71905 1.86662 -1.540509 -0.433091 -1.066584
O 9.38421 6.74026 8.9026 0.467675 -0.428988 1.65755
O 8.93396 3.10794 2.2405 -0.944499 -0.854525 -0.473597
O 7.57165 3.0765 4.9856 -0.135385 -0.859102 0.50698
O 12.3634 9.07744 11.7706 -0.526461 -1.637422 -1.150023
O 3.4134 5.39976 8.66217 -0.23435 0.00492 -0.221489
O 8.39066 10.2952 4.97007 -0.939239 -0.780951 -1.067102
O 2.33384 11.556 4.93432 -0.50719 -1.267623 2.325391
O 5.3677 8.135 11.8626 -0.570745 0.071479 -0.115791
O 7.89518 3.76734 9.10729 0.162269 1.172388 -1.617253
O 0.15226 10.5418 1.61019 0.95344 0.138087 0.278177
O 6.75713 11.771 6.39333 0.706336 -1.799495 0.8524
O 6.84616 5.56947 5.38544 -1.478249 -0.420147 0.661199
O 3.69296 6.07479 11.1634 -0.300254 -0.502411 1.136244
O 7.68979 2.01117 12.2565 -0.189699 -0.0481 0.141253
O 1.91659 9.65292 10.0232 -0.265945 0.700369 -1.386968
O 11.7002 9.24524 3.75943 0.402282 0.687475 -0.322718
O 7.76027 6.49382 11.2528 0.840647 -0.684473 0.86885
O 2.65667 1.27194 9.72501 2.743718 0.579594 1.12695
O 3.89847 7.96115 5.45495 -1.422141 0.954555 -0.463848
O 2.65252 11.2995 2.51525 1.537609 -1.560913 -1.397642
O 0.10968 11.0312 5.81531 0.52261 -2.110483 1.889592
O 10.8329 4.50233 9.1633 -0.777175 -1.524101 -1.152284
O 4.35712 10.4483 6.36285 0.851528 0.905732 0.212844
O 3.73385 3.37624 2.1792 0.015624 -1.449001 -0.421181
O 1.88792 3.1191 7.63407 -1.487018 0.611049 0.019701
O 6.23606 0.98057 10.2569 1.463482 -1.679877 0.018016
O 12.3135 10.8351 8.56503 -1.729027 0.912895 0.886614
O 10.3299 9.26949 10.0575 -0.25898 0.301687 0.261174
O 9.29851 11.7594 9.49286 -0.008044 0.044555 0.74257
O 7.17439 9.33788 2.82958 -0.640679 1.035595 0.849536
O 7.14326 6.58699 2.99004 1.562652 0.664052 0.447693
O 5.14614 3.6418 9.59179 1.82616 -0.269716 -0.571309
O 11.9172 0.66179 0.95803 0.646658 0.412898 -0.49349
O 1.75197 4.60337 0.08442 0.507405 0.511721 1.220831
O 0.92245 7.27309 2.47336 -0.155315 0.205458 -0.009485
O 5.74491 1.1422 4.90925 -0.435874 0.513644 -0.291183
Na 9.22849 3.41457 10.8944 0.101902 -0.096733 -0.201046
Na 7.52599 0.06042 8.32184 0.043321 0.290479 0.152564
186
energy=-1002.39154837 config_type=nep2xyz pbc="T T T" virial="-1.7969437754266169 1.2889356640287664 -9.586714855752472 1.2889356640287664 -17.07019830293729 1.8147226908012657 -9.586714855752472 1.8147226908012657 -9.573505621437974" Lattice="12.4 0.0 0.0 0.0 12.4 0.0 0.0 0.0 12.4" volume=1906.6240000000003 Properties=species:S:1:pos:R:3:force:R:3
H 9.69645 12.3082 10.14 -0.023845 1.213773 -0.282483
H 7.62546 9.70338 7.82612 -1.825412 -0.14961 0.74197
H 3.12124 5.77963 7.45447 -0.439229 -2.090731 1.127039
H 5.98261 0.51631 5.98705 -0.749444 0.380957 -0.648346
H 2.0384 5.32722 1.78307 0.907919 0.007068 0.019175
H 2.52589 7.89878 8.57672 0.665829 -0.363138 0.305489
H 4.2905 4.88379 9.05581 0.270744 0.043337 0.603829
H 1.12408 9.04706 10.2647 -0.379484 -0.079545 0.997643
H 10.0169 8.37827 0.51424 -0.706996 -1.244556 1.286689
H 11.2687 10.2732 6.74706 -0.58967 0.364432 -0.019929
H 6.32276 10.4576 11.5072 -0.252818 0.218473 -0.271961
H 12.0842 1.64307 4.187 0.098124 0.368461 -0.623279
H 10.8627 0.82202 7.37597 -1.098249 -0.536403 -0.708602
H 2.67072 7.88001 7.15928 0.393548 -0.081907 -1.194235
H 0.93646 9.22468 0.23228 0.082238 -0.654793 -0.698456
H 6.49566 3.57075 1.0753 0.067783 0.695118 1.455788
H 0.99954 8.23334 5.60879 0.894588 -0.213858 0.078745
H 0.87852 7.31598 1.05622 -0.348349 -0.180286 -0.261245
H 6.98309 5.72111 1.7823 -0.290185 0.367496 -0.289707
H 6.02015 0.20966 9.38777 -0.350217 0.267961 0.094017
H 10.2917 12.2575 6.16963 0.230553 -0.229909 0.370032
H 9.90301 4.24605 1.75341 0.801707 0.680741 0.376316
H 6.58347 6.96519 0.84016 -0.074068 -0.29724 -0.320014
H 2.29025 9.52658 2.19541 0.196442 -0.993921 0.651252
H 2.33343 4.46977 8.13672 -1.108371 -0.060154 0.586624
H 0.37154 3.42979 11.8854 0.59629 0.244715 0.550127
H 2.78421 1.69634 6.34278 0.393437 0.045092 -0.100003
H 3.28993 0.45191 11.6958 0.095144 0.649821 0.27151
H 10.1581 9.52492 4.4277 0.09572 0.455142 0.643545
H 3.18469 3.04013 5.0376 0.795007 -0.121308 -0.031649
H 9.73491 10.3617 6.60627 -1.954237 -0.310644 1.479651
H 7.71639 7.72981 9.10655 1.019655 -0.546294 0.140208
H 10.2942 3.69574 7.19339 -0.083639 0.018845 0.95135
H 3.57521 4.06797 0.29966 -0.789272 1.507307 1.836677
H 7.20897 3.86702 8.31893 0.106765 0.052151 0.213662
H 4.35748 0.37702 2.3038 -0.749773 -1.329326 -0.570056
H 0.39185 4.50527 9.16426 -1.018059 0.82442 0.273533
H 8.50151 7.16774 1.98121 0.79285 0.482232 0.251861
H 4.80388 10.8503 0.52229 -0.42148 0.04419 -0.181839
H 4.02503 11.92 8.96392 -0.340015 -0.675055 0.122723
H 11.6135 8.12839 4.69805 -0.24536 -0.674947 1.047249
H 10.0058 6.65611 2.20026 -0.469519 0.541145 -0.247971
H 0.25734 11.9586 3.21518 0.231076 -0.839123 1.052167
H 7.65516 7.18306 10.449 0.01182 -0.27662 0.682127
H 5.39606 7.90198 7.80042 0.173652 0.963536 0.334863
H 6.17004 8.77258 6.83675 0.152144 -0.022102 -0.560999
H 9.06313 3.37021 0.13312 -0.179255 -0.594965 1.060246
H 5.39845 2.58314 11.8882 0.1771 -0.468722 0.567303
H 3.34116 11.0019 1.04017 -1.647647 -1.405111 0.284898
H 7.15374 4.71746 6.2094 0.305889 0.84439 -0.284718
H 9.02243 5.85776 5.49593 1.551471 -1.186963 -1.62917
H 2.4434 3.43911 2.76818 0.349456 -0.190256 0.398213
H 12.0969 1.62882 2.52362 -0.294313 -0.093745 0.534525
H 8.66138 6.54447 6.70021 -0.337568 0.075297 0.61849
H 1.40306 10.7672 1.99175 -0.353945 -0.227322 0.438377
H 7.17483 0.45199 12.3398 -0.309656 -0.848513 -0.636751
H 1.72857 2.21489 3.51039 0.696554 0.262676 -0.349795
H 7.47903 7.60052 5.22161 -0.497805 1.051502 -0.151597
H 3.66311 2.78605 11.9284 0.495033 0.951891 -0.697281
H 1.38338 4.52504 11.5622 -0.971002 -0.480729 1.573896
H 6.29287 12.2961 7.32214 -0.373636 -0.470362 0.874734
H 3.44405 3.65643 6.43494 0.047443 0.477892 0.709074
H 11.5318 1.4423 0.09929 0.12141 -0.012746 0.500678
H 0.50281 2.98537 8.85219 0.249075 0.300868 0.140638
H 10.7672 10.5544 9.3342 1.599578 0.108323 -1.126537
H 8.28718 3.42436 10.5519 0.163553 -0.066485 -0.377906
H 5.78687 3.94992 6.23697 -1.958103 0.197171 -0.339448
H 10.2843 9.87601 0.20179 0.160107 -0.942804 -0.207088
H 9.98753 11.314 1.89361 -0.139131 -0.265699 0.313396
H 7.16724 12.2277 10.3865 -0.073263 0.125958 -0.941288
H 11.8123 10.6833 3.52493 0.291572 -0.624346 0.133348
H 0.27301 2.56876 6.26288 -0.758782 -0.066245 -0.534768
H 0.08727 11.4546 8.66786 0.058188 1.441964 0.338868
H 8.22259 11.6714 0.02873 -0.540147 0.178195 -0.3064
H 4.97865 10.0555 10.6935 -0.547931 0.455702 -1.057619
H 4.00137 1.92789 2.62107 0.041362 -1.107238 0.093884
H 11.4739 6.64163 5.22868 0.096658 -0.019723 -0.194731
H 2.08929 0.23386 6.35795 -0.226554 -1.090025 -0.779469
H 10.4303 9.75779 10.6105 -0.317487 -0.193301 0.086431
H 10.1181 8.82825 3.04003 -0.344896 -0.631958 -0.637956
H 10.5596 1.01966 9.48391 0.954008 -0.053282 -0.5153
H 10.5857 7.3937 6.88729 -1.034081 -0.043658 2.150808
H 11.054 4.25931 5.06409 -0.565242 0.918378 0.042407
H 10.2955 0.04993 0.84811 -0.179599 -1.360801 0.273867
H 11.7874 6.53762 10.5359 0.47349 0.828095 0.382282
H 10.2254 1.96136 0.97379 1.391162 -0.668585 0.391068
H 6.09197 1.74927 3.33233 0.303047 0.450581 0.375989
H 5.41397 6.77636 10.9442 -0.430525 -0.110149 -0.344582
H 12.3319 1.67028 10.2706 -0.174527 -0.337187 -0.520131
H 5.39865 6.65524 2.72086 0.743217 -0.001473 -0.682976
H 6.61931 2.54433 4.62423 -0.010529 0.214765 0.274039
H 10.5618 5.01335 3.80161 -0.179655 0.242209 0.328659
H 3.52685 7.54816 3.22685 -0.544282 0.309956 -0.459663
H 6.43186 4.60954 9.39954 -0.037838 -0.237669 0.420846
H 4.62408 4.61696 10.6483 0.080753 0.266739 -1.323003
H 5.6858 8.30735 11.5402 0.21746 -1.120923 -0.349333
H 8.92226 10.2435 8.61835 -0.485404 -0.093938 0.777428
H 11.2346 2.00683 5.97269 -0.71153 -0.739162 0.49256
H 7.11631 9.18663 4.72678 0.089146 -1.629646 0.57094
H 11.0169 2.82784 8.25665 -0.687223 0.417805 0.128901
H 1.86584 9.39584 6.11805 0.224468 0.4084 -0.657336
H 9.75605 8.13176 8.03722 -0.111242 -0.124905 -0.043577
H 1.29621 6.97405 2.47404 0.159222 0.508069 0.311159
H 0.12856 1.03389 8.02418 0.746025 -0.114652 -0.037151
H 3.29873 1.13423 10.3007 0.061354 0.308241 1.353903
H 8.22186 3.38952 1.54722 0.101699 -0.156931 0.025086
H 2.56378 8.36614 4.04926 -0.683072 0.049994 0.298897
H 11.5524 5.31061 11.4554 0.64901 -0.294539 1.340239
H 9.5958 2.57612 10.8213 0.183016 -1.492212 -0.725775
H 3.44956 5.299 2.61836 -0.862898 -0.294294 -0.97439
H 6.63123 3.44445 2.72421 0.336544 0.247697 -0.44598
H 3.40137 0.71871 8.15722 0.013009 -0.096516 -0.035526
H 0.73197 9.96405 8.9302 -0.11269 -1.205263 0.155591
H 11.9065 8.79004 12.1355 1.519953 -0.768753 -0.267636
H 1.19247 1.47573 11.1441 -0.25614 0.029398 0.453804
H 1.11975 11.0118 4.97058 -1.278007 -0.135608 0.21383
H 3.19849 9.74467 9.06194 -1.571223 -0.133481 0.647493
H 5.47121 7.49452 3.95856 0.966781 0.905269 0.994858
H 0.82659 10.9283 6.69639 -0.514515 0.160121 -0.8866
H 5.4678 1.61752 0.74348 -0.807343 -0.043781 0.556439
H 11.3945 4.80285 1.74526 0.904225 0.216124 -0.282356
H 4.60248 9.77795 8.5629 0.38734 0.137878 0.367633
O 6.95316 12.3687 9.40832 0.217379 -0.132966 0.478508
O 10.1065 10.4506 10.018 -1.25411 0.307563 0.605007
O 4.03129 10.1785 9.2581 1.189952 0.185494 -0.841517
O 3.19187 7.55221 7.91579 -1.140939 0.254302 0.588375
O 0.72071 6.65537 1.76045 0.126817 -0.378453 -0.039118
O 5.55083 9.86762 11.4368 0.765576 -0.540908 1.494431
O 2.60347 2.70129 3.4196 -1.071368 -0.1029 -0.204365
O 9.09517 3.10144 1.15719 0.308266 0.649333 -1.151124
O 2.92473 4.85894 1.89697 -0.3001 0.533134 0.736514
O 5.82626 1.79059 12.2686 1.438619 0.166892 -0.695346
O 6.80439 8.34917 5.16522 0.339134 0.449859 -0.365609
O 10.3015 3.55319 8.1704 0.608151 -0.510866 -1.253337
O 9.85765 11.5 0.95916 0.282833 0.942102 -0.590566
O 6.70281 3.89341 6.40245 1.572568 -1.430962 0.661106
O 10.0141 7.23472 7.75842 1.352146 0.19498 -2.463011
O 3.75984 2.95037 5.84561 -0.428933 -0.185466 -1.007124
O 0.81883 4.19761 12.3374 0.311903 -0.09923 -2.118694
O 2.62578 8.00788 3.14329 0.887374 -0.129004 0.134018
O 11.7131 7.5533 5.51543 -0.111808 0.489438 -1.120882
O 10.1244 0.68141 6.66691 1.160089 0.822389 0.577857
O 0.1562 1.38964 3.36445 0.375962 -0.293844 -0.369586
O 8.29258 7.19713 9.7157 -1.436002 0.876725 -0.446648
O 0.21229 1.60835 11.202 0.502401 0.242126 0.27972
O 10.5365 5.07887 4.80681 1.043337 -1.017208 -0.368507
O 4.13844 11.4697 0.87247 1.866952 1.455794 -0.248005
O 0.33809 11.013 3.56986 -0.360678 1.804246 -1.257027
O 7.36855 11.9381 11.9872 0.963448 0.569275 1.026494
O 11.0801 1.36452 0.98958 -1.356453 0.974192 -0.716817
O 8.23402 6.04349 5.97036 -1.137058 1.355528 0.993477
O 0.52382 8.58268 11.9849 -0.645048 1.072008 1.019092
O 1.01754 3.80063 9.09983 0.726476 -1.086858 -0.386688
O 8.53759 9.88905 7.80442 2.2541 0.103669 -0.977027
O 1.4149 11.0698 5.90492 1.32719 0.324567 1.63882
O 5.92598 7.30713 11.5578 0.626494 1.002601 0.641745
O 7.29986 4.14029 9.25627 0.266548 -0.063909 -0.622845
O 1.94339 10.1205 1.52592 -0.058968 0.678008 -1.217125
O 6.69676 0.30264 6.56687 1.153358 0.111639 -0.096845
O 3.11861 4.75695 7.66845 1.520865 2.324845 -1.234097
O 4.95032 5.04372 9.78519 -0.723723 -0.043315 0.783513
O 9.13601 3.37016 11.0475 -0.422906 1.722495 0.607059
O 1.38575 9.26937 9.37308 1.183007 -0.048624 -1.174307
O 10.5172 10.3453 6.0994 2.285648 0.12794 -1.468021
O 9.45149 7.48768 2.15962 -0.318242 -0.739148 -0.24941
O 4.0046 0.48851 8.9064 0.030806 0.723236 -0.087353
O 1.95135 8.53133 5.66026 -0.95838 -0.509113 0.665573
O 4.90841 6.88105 3.5139 -1.360466 -1.043961 -0.084734
O 11.8989 1.4774 8.59344 -0.29659 0.683168 -0.125236
O 11.418 5.66574 10.5941 -0.557622 -0.198971 -1.57688
O 5.9054 8.75331 7.77214 -0.43706 -1.028639 0.082665
O 4.69436 1.25504 2.36657 0.931588 2.472343 0.547796
O 11.8786 2.65793 5.67947 1.138222 0.66492 0.030343
O 2.2477 1.04352 6.83924 -0.27772 0.965666 1.253533
O 12.142 10.6844 8.24626 -0.212292 -0.516021 -0.919255
O 10.4668 8.92774 12.2917 -0.161203 2.669055 -0.614035
O 9.67925 0.87474 9.84971 -0.716591 -1.341925 0.947824
O 6.91933 6.71496 1.726 0.20766 -0.314654 0.173996
O 6.81648 4.0498 1.9051 -0.608799 -0.649053 -1.423578
O 4.09691 3.71415 12.0082 -0.179177 -2.092594 -1.426711
O 10.5359 9.54302 3.542 0.166762 0.201672 -0.078675
O 3.07052 1.32571 11.296 -0.208675 -1.050522 -1.459686
O 10.5419 4.99859 2.1236 -1.277995 -0.826267 0.069978
O 6.79122 2.37494 3.68984 -0.624926 -0.947705 -0.179675
Na 9.6951 5.41038 9.34407 -0.677372 -0.051796 -0.229878
Na 8.39801 1.17194 7.97389 -0.376468 -0.058145 0.124925
186
energy=-1002.25790974 config_type=nep2xyz pbc="T T T" virial="-15.263186948925025 4.774126686748102 3.325323586880625 4.774126686748102 -5.336911469812291 0.7726926065537689 3.325323586880625 0.7726926065537689 -14.192774861217998" Lattice="12.4 0.0 0.0 0.0 12.4 0.0 0.0 0.0 12.4" volume=1906.6240000000003 Properties=species:S:1:pos:R:3:force:R:3
H 6.81368 10.5986 10.9956 0.407776 -0.24006 0.088652
H 8.81716 7.67366 6.62009 0.386379 -0.060523 0.726406
H 0.95765 7.27935 8.15752 -0.506354 -1.400893 -0.341674
H 8.89843 1.07407 8.59724 1.186162 -0.980816 0.36582
H 0.26721 2.16205 10.9501 0.000506 -0.522541 -0.454592
H 1.65351 10.664 9.88318 0.484479 -0.517176 0.113238
H 2.93881 7.49825 9.17878 -0.419004 0.669691 0.187467
H 0.48625 9.04442 11.7016 0.267043 -1.272781 0.652432
H 6.03978 7.02718 10.8592 -0.194614 0.380044 1.652861
H 0.34438 0.32891 10.611 -0.213597 0.087987 -0.353262
H 5.0364 8.45692 0.14456 -0.368531 0.251696 0.024754
H 11.8052 2.15562 5.95839 0.422034 1.246502 -1.095593
H 10.9749 0.15304 9.28861 0.385033 0.443726 0.181071
H 2.53262 11.5885 8.99322 0.20015 0.317552 0.197589
H 1.49978 6.81768 0.89494 0.125109 -0.093582 0.842605
H 6.4892 3.92624 1.39264 -1.398506 -0.538405 -0.750248
H 1.25266 10.6127 3.21306 0.705473 0.719054 0.246046
H 2.93729 3.72706 0.49471 0.131509 0.069512 -0.397301
H 4.1919 5.96968 2.8072 0.336099 -0.141933 -0.01206
H 7.07691 1.05718 11.7195 0.877641 0.569509 -0.406451
H 10.2951 11.5619 8.23011 -0.485983 1.253086 0.675095
H 9.26496 2.00899 2.83539 1.160401 0.312741 2.093847
H 2.68259 6.20693 3.07379 0.050407 -0.126139 -0.772493
H 0.46046 6.39876 4.46847 0.240928 0.974598 -0.501101
H 11.9135 6.62201 8.38499 0.823873 -0.317772 -0.418445
H 4.95063 2.10311 11.6244 -2.62136 -3.317711 -0.183473
H 4.44598 1.19526 8.89357 -0.015322 0.223282 0.152415
H 3.11058 0.10233 12.0532 -0.131421 0.999106 -0.404308
H 8.88248 11.8895 6.009 0.202885 -0.627824 0.413843
H 5.24357 3.01026 6.26029 -1.07453 1.730004 0.64732
H 1.19646 12.3182 3.45855 0.316101 -0.892234 -0.088767
H 10.2682 6.02897 5.41601 0.238479 0.248887 -0.293458
H 11.099 2.23001 11.9599 -0.550063 0.533774 0.398341
H 1.69308 11.603 1.26009 -0.166783 0.187287 0.592478
H 5.84906 4.46359 7.61503 -0.317606 -0.098531 0.363216
H 6.92932 8.70461 2.84403 0.272661 0.050554 0.012542
H 12.1498 5.39471 10.8333 0.98229 0.331181 0.984576
H 8.77071 7.7589 1.34817 0.54357 -0.296659 -0.065773
H 2.68744 8.40904 0.31758 0.004945 -0.385538 -0.506212
H 5.98988 9.56722 9.04887 -0.065625 0.155281 -0.299693
H 9.56484 9.74911 7.00606 -0.069169 0.11096 0.057241
H 9.63746 8.69556 0.59772 0.451131 0.796309 -0.677696
H 1.28943 2.10537 4.17779 0.389775 -0.92093 -0.556126
H 9.38951 7.05195 4.55642 0.557361 -0.551352 0.529729
H 3.46998 8.19858 7.39942 1.628981 -0.178777 -0.801039
H 4.30296 9.78623 5.9103 -0.359537 -0.930735 0.073749
H 9.93748 5.6846 8.6043 -0.166625 -0.360073 -0.425797
H 7.76133 4.74777 12.0864 -0.29727 0.143303 0.11764
H 3.32 8.77497 1.60685 0.226617 0.15782 0.858418
H 5.53705 10.4066 4.26276 1.126363 0.615912 -0.363194
H 12.0926 4.55811 5.48206 0.375955 -0.798474 0.595805
H 4.89532 1.05441 6.16816 -2.424213 -1.58991 -0.45521
H 11.1931 2.6481 4.53423 1.542489 -0.030913 1.274415
H 12.3761 5.96211 6.35431 0.41974 -0.676279 0.874175
H 12.36094 7.72626 3.78972 0.326809 -0.50357 -0.007703
H 7.45685 11.1468 2.4688 0.520029 -0.097487 -0.021714
H 6.42198 0.87214 5.78799 0.140031 -0.268778 -0.041322
H 6.01647 6.59139 2.73355 0.056702 -0.690868 1.018804
H 2.78856 10.6376 0.70503 -0.409366 0.332711 -0.340551
H 4.85666 3.5648 12.031 0.005891 -0.502737 -0.330435
H 8.17804 1.4211 7.30917 -0.358033 -1.081876 -2.043791
H 3.89764 3.57118 7.04612 0.616721 0.190894 -0.339364
H 9.82998 4.98943 11.5179 -0.711265 -0.283169 -0.125767
H 0.91063 5.75153 9.92215 0.292619 -0.111296 0.122016
H 9.83575 11.0136 10.1953 0.527498 -1.050937 0.221117
H 12.127 2.12595 8.55897 0.502239 1.631037 -1.379677
H 7.04298 10.8798 4.60037 -0.405777 -0.076823 -0.337029
H 6.03671 7.47426 9.44717 0.388151 0.802014 -0.846659
H 11.5862 11.2886 3.62519 -1.915807 -0.309699 -0.80651
H 7.05451 0.64366 10.3128 -0.441915 -0.434517 -1.026413
H 1.88673 1.69033 2.76684 0.502707 0.278843 0.160558
H 2.6043 3.87651 8.5766 -0.040136 -0.406771 -0.613209
H 1.61912 0.84784 9.05544 1.068924 -0.302321 -0.157524
H 7.77756 10.8592 1.00269 0.820957 0.427691 0.389613
H 6.55412 8.85285 12.0695 -0.094175 0.346374 -0.170208
H 6.60114 7.93122 1.52396 0.270515 0.299688 -0.280255
H 10.4886 10.3991 5.92213 -0.781971 0.539833 0.982848
H 5.62386 1.25305 7.83844 -0.175587 0.564104 1.51702
H 10.9681 10.129 10.8311 -0.083819 -0.150932 0.095065
H 8.68808 0.69985 5.08447 0.015333 0.238494 -0.293056
H 8.31698 10.0661 11.1366 1.034526 -0.036451 -0.35617
H 10.2074 8.1919 2.65763 0.125135 0.358155 -0.270737
H 6.21118 2.93817 4.42952 0.75614 0.641862 0.22233
H 10.0315 11.3518 2.95486 0.576566 -0.126536 0.213009
H 10.4707 3.93382 7.29863 -0.730394 -0.01006 0.460508
H 10.3658 6.18417 12.3565 0.137806 -0.116434 -0.793492
H 5.25178 5.45241 6.06292 -0.557704 -1.34291 0.106978
H 2.93638 5.63948 10.8269 0.543463 0.130905 -0.175687
H 9.29261 1.33237 0.4044 0.373273 -0.192679 -0.320058
H 2.62745 1.78175 0.60157 0.6389 -0.689118 -0.897597
H 5.1 6.93749 6.00157 -0.050238 0.726936 0.233489
H 6.82009 3.99184 3.45749 0.429914 -0.226805 1.364431
H 1.96073 8.58211 3.59261 -0.457183 -1.03124 0.343202
H 6.32412 5.51125 8.74626 0.207256 -0.680123 -0.214329
H 2.65445 9.14087 8.75715 -0.101203 0.263417 1.088568
H 4.18467 6.15615 10.0271 1.922957 -0.176446 0.335664
H 9.23756 7.70747 8.18523 0.236061 -0.266829 -0.365285
H 2.55782 2.29437 8.26607 0.452936 0.836062 -0.386066
H 5.78025 6.02425 4.19889 0.207415 0.387547 1.322859
H 10.6844 1.28637 10.9889 -0.139018 -0.684892 -0.80791
H 3.59491 11.1157 5.4687 0.170395 0.117215 -0.170022
H 10.5148 9.43332 3.68924 -0.387284 -0.641384 -0.734587
H 3.42 5.06496 0.99699 0.091951 -0.361109 -1.21649
H 3.04749 0.89844 10.6455 0.212106 0.226497 1.389136
H 4.45147 10.8651 9.61629 -0.184415 0.281243 0.218536
H 10.2372 6.34821 9.95066 0.087593 0.257336 0.142334
H 3.05996 9.59469 4.13179 -0.36217 -0.352715 -0.980349
H 9.02946 3.46795 7.72203 0.196612 -0.870391 0.450614
H 0.70565 2.92037 7.59506 2.54869 0.311992 -0.468009
H 0.62589 3.68777 11.1485 -0.229838 -1.084116 1.124177
H 7.70294 3.00263 1.73125 0.95047 -3.224537 -0.834185
H 5.5676 11.8684 9.06993 -0.420938 -0.319001 0.647301
H 0.82105 10.5158 11.8595 0.596406 0.522846 0.686061
H 1.2624 6.78181 11.8507 -0.56625 -1.744904 -2.251033
H 8.3678 0.59418 1.62727 0.586239 -0.504786 -0.971776
H 2.70019 1.08186 5.65464 -0.113047 -0.142756 -0.333572
H 5.14938 8.42333 7.34347 -1.887875 -0.362052 -0.647796
H 1.35376 2.47989 0.82923 -1.173858 0.417013 -0.79828
H 2.97304 0.57915 7.12581 -0.733945 -0.070466 1.004646
H 7.66216 5.71716 10.768 0.47301 -1.436802 1.012064
H 8.76851 2.99554 3.92437 0.339772 -0.291978 0.55938
H 7.06175 8.78774 8.14421 -0.136615 -0.337624 0.303129
O 7.6207 1.13193 10.8989 -0.526605 -0.359639 1.392894
O 10.0173 10.1057 10.5984 -0.494681 1.204707 -0.328947
O 6.17231 8.71816 8.57153 0.748643 0.751107 -0.564025
O 2.5332 10.6866 9.45431 -0.223309 -0.39527 -0.240996
O 3.44294 4.49805 0.13626 -0.201868 0.630366 1.571441
O 5.94135 8.13956 12.3433 0.15884 -1.117263 0.177372
O 5.72053 1.47798 6.07867 2.247269 1.016529 -0.010966
O 10.21 6.5377 8.98299 0.093574 0.00268 0.402022
O 0.40392 2.84099 11.6528 0.386371 1.641029 -0.363824
O 8.08978 4.89956 11.1918 -0.721339 0.745351 -1.24446
O 5.59038 5.87252 3.2717 0.45191 0.258007 -2.381939
O 10.253 1.81635 11.6684 0.723968 0.479984 0.250062
O 10.581 11.0016 3.68546 1.630185 0.710293 0.459085
O 6.45709 10.5997 3.86764 -0.644866 -0.417047 0.643891
O 10.4074 8.43529 3.57396 0.316587 -0.218668 0.935628
O 4.75236 3.86166 6.56814 0.484715 -1.515112 -0.351797
O 5.4521 2.85434 11.6691 2.484709 4.010073 0.412395
O 2.54483 9.28561 3.30884 0.493588 0.950912 0.304382
O 9.92131 10.6289 6.71101 0.730984 -0.771599 -1.079199
O 10.0952 12.2952 8.89997 0.18959 -1.56604 -0.753242
O 12.026 2.72598 5.1566 -2.148525 -0.905892 -0.567417
O 9.35974 6.35413 5.26258 -0.752351 0.528507 -0.161095
O 8.86668 1.36335 1.29252 -1.027082 1.183976 2.022059
O 6.90868 3.63667 4.41183 -0.704388 -0.322004 -1.148384
O 3.48039 8.87677 0.65868 -0.008798 0.560385 -0.124612
O 1.88831 1.43985 3.73009 -1.009575 0.646304 0.732969
O 8.1942 11.2597 1.81389 -1.535091 -0.630842 -0.24105
O 10.5418 5.63326 11.5533 0.876852 0.799157 0.568507
O 12.0899 5.51968 5.53814 -0.889089 0.899175 -0.983527
O 1.38096 7.39335 0.14123 0.184897 2.022338 1.620015
O 0.75671 5.49604 10.8598 -1.5135 -0.257653 -1.486049
O 8.81819 8.21187 7.44957 -0.649432 0.562196 -0.466292
O 3.08923 0.37198 6.18303 0.906298 -0.03029 -0.661616
O 3.2499 6.0869 10.009 -1.868778 -0.271418 -0.05259
O 6.6068 4.74122 8.19274 0.163419 0.084023 0.490718
O 0.78366 7.19522 3.9215 -0.603618 -0.116194 0.098321
O 8.38886 1.74991 8.15192 -0.751165 2.303323 1.354754
O 0.42836 6.42226 8.0075 -0.325653 1.825811 0.856986
O 2.5668 8.18553 8.55933 -0.378126 -0.830522 -0.836814
O 12.2157 2.87427 7.84311 -3.319754 -2.025901 2.189776
O 0.39349 9.8857 11.2823 -0.822627 0.829632 -1.229054
O 0.8389 11.4858 3.01339 -0.876342 0.29934 -0.07647
O 9.66748 7.79643 0.90935 -1.114027 -0.519283 0.839818
O 5.41145 11.0522 9.6139 0.428104 0.04736 -0.330822
O 4.03863 10.3085 5.12384 0.17481 0.915023 0.234552
O 2.18197 2.31069 1.26876 0.235927 0.317072 1.277244
O 2.59085 0.68548 8.82526 -0.894905 1.288994 -0.115092
O 9.56195 4.25038 7.53898 0.916862 0.532456 -0.636402
O 4.32333 8.23789 6.74501 0.462967 0.614957 1.220303
O 7.21914 7.94927 2.30075 -0.449967 -0.067984 -0.126913
O 2.61097 3.23932 7.82457 -0.378887 -0.791922 1.368854
O 5.41649 1.34024 8.82737 0.204389 -0.743328 -1.490779
O 12.2649 0.91663 10.0005 0.175482 -0.364149 -0.148899
O 6.15755 6.67522 9.9812 -0.164501 -1.456732 -0.079207
O 7.44231 10.0728 11.5348 -1.205698 0.561406 0.400861
O 3.31195 6.01459 2.34481 -1.253464 0.337877 0.462769
O 7.34946 3.8476 1.75284 0.378226 3.684964 0.948106
O 2.25412 11.4513 0.48402 0.300595 -1.341117 0.083751
O 8.20961 0.11898 5.70004 -0.413807 0.605352 -0.311957
O 3.28522 1.00438 11.635 0.155471 -0.92422 -1.454238
O 9.47666 2.31403 3.85258 -1.214278 -0.419133 -2.68834
O 5.74935 6.22825 5.81499 0.678599 0.654407 -0.258097
Na 7.74448 5.02025 6.31978 0.16139 0.382239 -0.669323
Na 7.22532 2.99723 9.68974 -0.384245 0.247328 0.394244
186
energy=-1002.97086834 config_type=nep2xyz pbc="T T T" virial="-4.87845583741045 0.9206955319316197 -0.053955557100842245 0.9206955319316197 -16.70114895648574 3.107180817313898 -0.053955557100842245 3.107180817313898 -9.645216293491277" Lattice="12.4 0.0 0.0 0.0 12.4 0.0 0.0 0.0 12.4" volume=1906.6240000000003 Properties=species:S:1:pos:R:3:force:R:3
H 9.57411 9.1746 9.73258 0.067216 -0.432523 -0.588393
H 11.2939 8.3451 2.32032 -0.352438 0.644107 -0.430964
H 6.36185 4.86256 5.18009 -0.414691 0.3319 1.539609
H 9.12588 10.5319 6.30071 -0.809404 -0.08191 -0.614895
H 0.0911 2.47323 3.62073 -2.279498 0.303989 0.030395
H 1.3731 6.91131 3.62748 -0.311906 0.127275 0.252098
H 10.466 3.38029 3.67296 0.171583 -0.476704 0.330257
H 10.1432 7.71281 8.10837 -0.006292 0.069082 1.203995
H 7.20611 3.36652 3.5198 1.224589 0.123729 -2.605387
H 0.25644 10.4623 10.6942 0.378221 -0.249992 0.344643
H 6.58176 7.69837 10.549 1.040499 -0.928248 -0.614691
H 3.87507 1.39689 8.18315 -0.078735 -0.691886 -2.382438
H 12.311 7.95094 7.94334 0.19097 0.78612 0.910111
H 11.9084 8.40031 4.42054 0.246226 0.05148 -0.109464
H 0.77754 9.32694 9.83278 0.413557 0.281823 0.179741
H 2.40911 0.32707 1.63981 -0.513234 -0.589963 0.673246
H 7.89886 10.5247 2.26642 0.203767 -0.359526 -0.39559
H 3.72049 9.39578 2.25076 -0.096915 -1.343619 -0.388943
H 4.30422 10.3492 5.27241 -0.54121 0.325141 -0.698602
H 5.3116 9.85614 9.1381 0.284185 0.252822 0.274307
H 2.55386 7.8394 0.51868 0.247683 0.01054 -0.193569
H 2.75663 6.66025 4.40099 -0.191125 0.079834 0.881032
H 6.84989 9.19169 0.43653 0.452328 -0.260523 0.206641
H 11.5875 10.4998 1.44456 0.154141 -0.311938 -0.035348
H 6.1156 5.02129 6.79698 0.239918 -0.610635 0.601359
H 9.99866 5.36846 3.9948 0.589346 0.583457 -0.448618
H 7.13236 12.1992 10.0784 -0.615222 -1.507232 0.483139
H 1.26339 6.00038 0.41636 -0.455809 0.306562 0.420916
H 2.80699 0.16672 12.0016 0.570239 0.619743 0.357822
H 1.54164 3.01534 3.56418 -0.256723 -0.746378 -0.205934
H 0.38258 11.5283 1.74635 -0.281945 0.192789 -0.160123
H 6.94962 4.17574 1.6366 -0.770054 1.786907 0.004221
H 0.73762 4.54739 7.73037 0.323752 -0.253831 -1.178291
H 6.06595 3.52027 9.89501 -0.382711 -0.829015 -0.028386
H 7.34415 4.30645 8.53331 0.361442 0.407378 0.143287
H 7.48495 9.02585 5.31601 -0.353163 0.170434 0.424165
H 0.38261 9.60334 6.92634 0.054926 0.323122 -0.871354
H 9.68102 2.29289 12.214 -0.734033 0.462635 0.161366
H 3.78057 5.01424 11.9197 -0.287366 -1.056104 1.333146
H 2.14286 11.1001 10.4655 -0.873557 -1.232232 -0.372629
H 6.00335 2.48758 1.02406 -0.559887 -0.063724 -0.686995
H 9.69849 2.0566 1.26883 0.248636 -0.243423 0.952808
H 7.48076 10.7148 3.76696 0.421577 0.273695 0.033101
H 9.05811 5.77656 1.78548 0.199563 -0.082749 0.515667
H 3.8899 8.45 8.06421 0.065858 0.108692 0.348968
H 3.34384 7.35388 8.97528 0.261836 -1.11842 1.109236
H 6.41213 12.0551 2.63022 0.518352 -0.027432 -0.139706
H 5.35077 8.79912 0.58272 -0.293226 -0.128011 0.150962
H 4.19707 3.66063 0.27373 0.372065 -0.380315 -0.081134
H 12.205 4.46114 11.7705 1.740902 1.56319 1.607078
H 9.72028 5.30443 8.24185 0.03184 0.854093 -0.510173
H 9.1225 0.65188 8.4229 -1.359043 -0.098479 0.62544
H 8.83198 6.05011 12.1423 0.176952 -0.489245 1.082085
H 9.13174 4.12104 7.23645 0.511001 0.032496 0.082511
H 12.273 0.16617 10.6995 -1.318549 -0.850572 0.611491
H 11.1167 7.11376 4.35579 -0.859164 -1.119076 0.690003
H 9.81072 1.63426 7.43467 -0.358956 -0.99216 0.526709
H 4.09249 6.00894 5.93449 2.125308 -0.934229 -0.214286
H 8.09892 3.31208 1.29896 -0.179209 -0.93733 0.050895
H 11.0657 5.30695 2.71721 0.656529 0.286507 -0.001256
H 9.85952 11.4869 7.28935 0.204777 0.055375 -0.32076
H 2.7442 4.84463 3.0336 -0.336996 2.32218 0.937719
H 9.83137 2.69363 5.59903 -0.293436 0.104073 -0.706755
H 1.75653 3.0032 5.77019 0.405247 1.428191 0.134315
H 5.17966 1.51749 3.73254 -0.634699 0.086275 0.196309
H 5.53685 0.67908 1.66757 0.178194 -1.024897 1.815154
H 10.8965 3.72163 12.0024 0.615498 0.388161 -0.352939
H 6.04561 2.98288 4.35158 1.022076 0.595148 0.735794
H 0.91776 0.67183 5.12303 0.089541 -0.889979 1.866575
H 5.23726 9.81472 7.56608 -0.197713 0.053865 0.028404
H 9.83713 7.80136 11.4281 -0.326821 -0.944633 0.176487
H 10.0904 5.6307 11.1282 -0.254352 -0.096786 0.595196
H 11.8477 11.8726 12.1009 -0.03814 -0.210143 0.187884
H 10.0854 5.10791 5.76193 0.085395 0.829859 -0.356611
H 7.99391 6.88394 10.2948 -1.181615 0.238988 -0.036188
H 6.50044 10.2965 5.71056 -0.09328 -0.372687 -0.079152
H 11.6414 10.4039 6.38987 -0.323288 0.172108 -0.531707
H 7.08437 1.2341 9.76519 -0.134237 0.700074 -0.087261
H 3.97714 2.55299 3.70923 0.481396 0.312837 0.279027
H 5.42723 2.247 11.923 0.233611 0.126224 0.534267
H 9.60223 9.67554 8.16719 -0.107178 -0.073412 0.376759
H 10.4376 12.3312 1.93114 1.507769 -1.100909 -0.736522
H 8.91279 1.19159 10.4713 -0.216828 -0.328818 0.066524
H 0.32987 1.29892 8.03927 0.297885 -0.571867 -0.975095
H 8.52731 6.79051 5.82938 0.012623 0.481949 -0.667497
H 8.26893 2.94188 5.5135 -0.264355 -0.009578 -0.473244
H 3.22457 2.34327 9.20511 -0.090609 0.744949 0.304534
H 2.42663 4.52461 6.04633 0.388727 0.109224 -0.750681
H 3.77132 1.23962 0.38134 -0.309412 -0.200177 -0.334941
H 2.0784 3.43218 11.0531 -0.10645 -0.250167 0.908782
H 5.31195 2.07027 9.77856 0.177768 1.415897 0.751084
H 10.2563 0.578 11.0996 -0.397476 1.282209 -0.414246
H 4.5089 11.2263 10.4254 0.842682 -0.781745 0.316949
H 6.35666 5.37383 9.09226 0.336218 1.81995 0.909948
H 3.43617 7.79032 2.38823 0.258735 1.519998 -0.726125
H 3.05561 5.25102 9.96305 0.633657 0.510736 0.179172
H 10.0146 8.92446 1.52414 -1.33342 0.025989 0.052321
H 1.50526 8.24918 11.87 0.213728 -0.499093 -0.11889
H 3.16924 6.99965 6.55567 -0.48641 -0.852839 -0.65927
H 11.8989 5.46985 8.2096 1.833851 -1.031457 0.627023
H 8.19312 8.72219 2.29536 -0.203311 -0.141396 0.201945
H 9.03908 0.08804 2.58308 1.461386 0.658259 -0.142619
H 2.89943 6.46133 10.8882 0.26889 0.553438 0.019369
H 1.40917 8.30999 8.18093 0.108466 0.308685 0.19482
H 1.25373 4.54582 0.18893 0.571453 -0.520556 0.570947
H 10.7807 8.90162 11.9891 -0.497865 -0.494476 -0.847161
H 5.4818 10.1548 11.1004 0.2909 -0.49991 1.22792
H 6.95117 6.75024 5.82373 1.083687 0.86963 0.060208
H 1.39837 1.5802 9.12546 2.294517 0.204014 0.018217
H 3.97187 1.28959 5.87826 0.644988 1.138216 -1.426636
H 1.72521 0.91802 2.85425 -0.586581 0.021799 0.651998
H 2.97114 0.0056 10.0144 0.005297 -0.118096 -0.210172
H 10.4858 6.90583 6.88224 0.472967 -0.966687 0.953172
H 1.38022 3.97288 9.69783 0.762505 -0.32089 0.704804
H 10.2843 1.82436 3.61926 -0.039612 -0.70157 -0.414241
H 2.63587 0.51362 6.24742 0.450207 0.186594 0.301605
H 1.01033 11.6529 5.96033 -0.671222 0.622972 -0.043046
H 3.02881 11.4322 3.25171 -0.22701 -0.521226 0.171575
H 4.36833 11.6234 6.25456 -0.011507 -0.904123 -0.365157
H 8.4855 7.17827 1.39007 -0.070408 1.638073 -0.082243
H 2.96946 3.98938 1.85601 -0.368343 -0.294647 1.633616
H 4.51874 11.4432 3.31104 -0.866313 -1.19233 0.085156
O 5.4198 9.25324 8.35452 -0.404661 0.167617 -0.765876
O 4.72119 2.23438 4.2728 -0.122056 -0.810703 -0.683361
O 1.02898 0.25282 6.05383 0.366981 0.465267 -1.882655
O 11.7741 7.6086 3.8712 0.88885 0.938274 -0.327845
O 3.74289 8.51708 1.73777 -0.404446 -0.155737 1.286618
O 7.10086 7.13903 9.89532 0.033793 0.274706 0.87011
O 9.97507 0.91801 8.11208 1.36411 1.103211 -1.482752
O 10.3976 8.5261 11.1522 1.112446 1.815056 0.511273
O 0.97512 2.2141 3.78183 2.74542 0.237232 0.372659
O 5.99962 9.12846 12.3442 -0.074802 -0.146492 -0.306204
O 3.21603 6.31891 5.80401 -1.053208 1.22938 1.843769
O 0.29667 4.89658 8.50293 -1.929373 0.988626 0.479617
O 0.49414 1.51941 8.94804 -2.73499 0.162095 0.917943
O 11.4941 4.1089 11.3008 -3.09508 -1.764707 -0.992059
O 9.91599 0.5721 2.38194 -3.058403 0.433077 1.007738
O 2.8022 3.9258 2.87131 0.662448 -1.748455 -2.303929
O 10.2103 5.01432 3.01516 -1.068359 -0.951061 -0.055854
O 5.44458 10.8476 10.4343 -0.530084 1.244531 -1.382394
O 0.10889 10.0874 6.08262 0.397771 -0.422276 0.908013
O 2.03361 7.47038 12.162 -0.261606 0.594666 0.215936
O 3.79992 1.57858 9.09858 -0.017949 -0.262683 2.050333
O 8.33605 6.23454 1.32064 -0.383673 -1.852604 -0.455082
O 2.84301 0.94165 0.22652 -0.20983 -0.419456 -0.103102
O 9.72009 1.44915 10.9497 1.210851 -0.915725 0.229695
O 3.54802 4.3805 0.28417 0.035066 1.176051 -1.396932
O 7.70073 11.2143 2.9405 -0.077201 -0.143173 0.160622
O 10.0025 5.95488 5.26756 -0.381779 -0.319927 1.218445
O 9.0213 2.87771 6.12789 0.303276 -0.075876 1.028949
O 9.46797 4.38826 8.12799 -0.462619 -1.192314 0.887141
O 2.22483 3.64251 10.1405 -0.821558 0.532813 -2.009029
O 1.82934 3.8246 6.3142 -1.038779 -1.293741 0.811612
O 10.9834 8.99777 1.63332 1.452305 -0.298984 0.204616
O 3.60762 0.68239 6.49634 -0.924073 -1.087183 1.14501
O 3.54775 6.06477 10.262 -0.86217 -0.751711 0.163672
O 6.41069 4.55694 8.62692 -0.173054 -1.566877 -0.990238
O 11.9634 11.3962 1.21789 0.19562 0.185508 0.399951
O 9.90892 10.6116 6.84881 0.52107 0.593232 0.745371
O 5.9824 5.43818 5.94434 -0.008779 0.073016 -2.063856
O 10.6788 2.51798 4.16108 0.155766 1.416026 -0.371833
O 5.6189 0.24337 2.59249 -0.863211 1.476741 -1.527076
O 10.672 6.90731 7.88992 -0.35805 0.503818 -2.287421
O 1.07697 9.92007 10.5768 -1.443643 -0.146233 -0.198512
O 9.59711 2.82245 0.68467 0.227799 -0.103322 -0.880959
O 2.9822 11.5701 10.5139 0.944391 1.808884 0.283778
O 8.36766 8.92822 1.36972 0.004123 0.362413 0.211229
O 3.75757 10.7979 3.51943 1.094992 1.306738 -0.540382
O 0.49786 8.68692 8.29535 -0.014767 -1.520429 -0.861773
O 7.73927 7.41965 5.86355 -0.807359 -1.39888 0.463763
O 3.12869 7.84038 8.18723 -0.486981 0.785862 -1.625026
O 7.3965 10.0074 5.4323 0.393312 0.315752 -0.261271
O 9.29412 6.16234 11.2922 -0.176068 0.395665 -1.676968
O 7.63154 0.45188 9.60432 0.33337 0.818036 -0.435399
O 11.5798 11.9838 11.1442 1.321346 0.991731 -0.930492
O 6.99964 3.39828 4.42478 -2.144058 -0.266835 2.232774
O 9.21875 9.02108 8.80789 0.504589 0.364386 0.247194
O 4.68209 10.6737 6.09568 0.817314 0.513894 1.130452
O 1.97848 0.0336 2.5312 0.541216 0.442197 -1.417875
O 7.17966 3.26785 1.72033 1.230892 -0.58672 -0.227034
O 5.19513 2.14633 0.49553 0.635786 0.100021 0.001052
O 0.80973 5.18603 0.75301 0.166732 0.37171 -0.701992
O 2.3323 6.88426 3.56153 0.269154 -0.084918 -1.989272
O 5.87764 2.66575 10.3799 -0.11774 -1.050453 -0.6992
Na 11.0169 2.92485 9.4625 -0.099163 -0.085771 -0.180507
Na 7.33767 8.36055 8.00461 0.102083 -0.307942 -0.116877
186
energy=-1001.23692542 config_type=nep2xyz pbc="T T T" virial="-8.974877402558228 3.233751462511198 1.1858441353202094 3.233751462511198 -7.086849411417044 -2.360264067990042 1.1858441353202094 -2.360264067990042 -7.773658194504387" Lattice="12.4 0.0 0.0 0.0 12.4 0.0 0.0 0.0 12.4" volume=1906.6240000000003 Properties=species:S:1:pos:R:3:force:R:3
H 10.108 1.34055 7.87931 -0.600553 -0.503879 -0.262617
H 9.05244 8.07213 3.08486 0.611474 -0.447712 -0.601431
H 5.97952 6.68104 4.92135 -0.112661 -0.79172 -0.203
H 8.29037 10.6731 4.47249 -0.359429 -0.601064 -0.111187
H 10.292 2.72209 3.22081 -0.517937 0.231097 -0.082152
H 1.68669 5.8696 9.7753 0.185511 -1.352457 0.76161
H 8.44684 6.37403 9.81507 -0.068367 0.987228 0.332203
H 1.68042 8.41451 8.90646 -0.561921 -0.412628 0.097044
H 10.7573 11.4087 9.96029 0.306071 -0.692052 0.697611
H 12.0957 9.43228 5.97337 0.32308 -0.521047 -0.329227
H 5.12515 11.122 10.7947 0.076415 -0.011127 0.232756
H 1.96315 0.50209 5.80407 0.376356 -0.183068 -0.147506
H 10.0856 9.81577 6.43109 0.317277 -0.188471 0.834235
H 3.91365 3.53946 8.13052 0.683798 0.179224 0.441046
H 12.2847 10.45 12.0865 -1.044256 1.471833 -1.041914
H 5.56342 6.5605 3.42632 -0.555669 -0.388285 0.251178
H 4.50136 7.09482 7.42534 -0.870656 -0.553313 -1.185702
H 5.82079 8.65111 11.9211 1.085992 0.068071 -1.011136
H 5.36945 9.42794 2.89298 -1.147344 -1.413437 -1.374552
H 6.17712 0.76994 11.8461 -1.024211 -1.096121 0.540386
H 11.2969 3.63865 0.36552 2.13192 -0.906613 1.333994
H 0.47867 8.27213 1.12912 0.868954 -0.177122 -2.444892
H 6.32912 10.4511 3.07064 1.169407 0.777698 -0.465411
H 0.87107 9.79649 3.74738 -0.019476 0.062847 -0.88764
H 3.93198 6.52306 5.37506 -0.161533 -0.521776 -0.603021
H 2.45773 6.17974 0.72847 -0.019639 -0.258642 0.022989
H 7.46888 9.77354 8.05048 -0.134771 -0.842754 -0.152181
H 2.67092 4.69246 1.1469 1.334452 -0.961958 0.433043
H 10.094 10.7878 1.72257 0.154737 0.145061 0.522655
H 0.95864 4.42435 5.38234 -0.787542 0.921043 0.124787
H 0.5718 8.27224 5.44285 0.41576 -3.470611 0.551947
H 5.50277 4.98563 11.534 -0.691306 0.462653 -0.256604
H 6.49673 3.16733 11.5847 -0.007616 0.441684 0.468636
H 5.56146 11.9615 9.11036 0.198389 -0.171072 0.185342
H 5.83308 2.47446 7.11145 -0.717669 0.532511 -0.523411
H 3.64054 2.67938 1.38554 0.562699 1.007086 0.338156
H 7.80343 5.22028 5.87345 0.320596 0.381131 0.253602
H 7.79946 6.17364 1.35421 0.278569 -0.617353 0.041232
H 4.16805 0.79743 0.7102 1.685641 -0.691586 -0.98303
H 3.59344 10.046 9.20772 -0.837751 -0.334459 -0.613028
H 0.03551 7.31928 7.8062 -0.285186 -1.058724 -1.071833
H 9.34774 6.17228 1.51652 -0.315746 -0.152945 -0.25755
H 5.47327 7.6976 1.37744 -0.729643 1.318233 -0.387532
H 3.94033 5.67031 9.98777 -0.019134 -0.163013 0.183757
H 6.5347 8.00134 7.95423 -3.838714 -1.05986 0.97976
H 7.92953 7.88181 8.60416 0.22699 -0.301535 0.537278
H 10.382 8.48194 1.59366 -0.069315 -0.160202 -0.397629
H 4.42395 9.85661 0.91232 0.300043 -0.205297 -0.036981
H 3.23952 0.49588 1.88769 0.332133 1.01481 -1.32716
H 11.1356 3.85404 7.84982 0.4222 -0.74254 -0.326827
H 5.69846 3.83612 4.05604 -0.049405 0.870501 0.384418
H 12.1333 2.82222 4.67957 -1.108469 -0.145763 -1.283309
H 2.97111 1.6816 5.4216 0.311107 -0.782163 -0.482636
H 6.76172 3.38127 3.08474 2.017101 0.167687 -0.423312
H 1.70581 10.6784 2.72316 -0.489015 -0.691178 -0.074701
H 10.4061 7.67808 10.3129 -0.102042 -0.033922 0.587834
H 1.06835 2.09812 5.15649 -1.331059 1.074902 0.501701
H 3.89704 4.53373 7.04035 1.566026 0.362876 0.847512
H 4.63225 0.39485 8.3401 0.183271 0.500196 -0.101901
H 3.61348 6.97655 11.3931 0.2965 0.088254 -0.091213
H 9.66633 11.2482 4.57662 -0.73388 0.407674 0.577134
H 0.36637 5.879 5.99609 0.3261 -0.929909 -0.829241
H 8.52316 3.84419 4.30531 -0.06011 0.380119 0.893619
H 0.65243 1.86702 10.7405 -0.176433 0.329434 -0.770576
H 7.86187 7.38849 5.09032 0.021151 -0.100874 0.040485
H 8.36178 4.20114 9.73732 -0.511126 -0.248444 0.207429
H 10.9963 5.4362 7.84742 1.062342 1.835421 -0.265159
H 10.2839 9.91257 9.77297 0.827439 -1.542467 1.206515
H 11.7728 10.9759 3.05595 0.015336 1.091448 0.149344
H 6.315 11.9532 0.4442 0.293485 -0.735392 0.594085
H 5.53674 6.14131 1.14924 0.499399 0.851291 0.82926
H 0.43898 3.21342 9.97381 0.257848 1.90401 0.449955
H 11.1925 7.71087 7.06614 -0.924508 0.532014 -0.500086
H 11.6928 8.20192 11.2612 -0.812828 -0.194961 -0.478297
H 5.49715 9.86219 9.9219 0.077733 0.140195 0.504491
H 4.63976 3.68265 2.1823 -0.239928 -0.348722 -0.06261
H 9.14532 4.51204 6.4848 -1.472893 -0.039354 -0.437832
H 8.59285 10.6093 8.5591 2.15874 0.037975 1.084055
H 7.22407 7.3527 6.52734 0.649294 0.274506 0.504151
H 10.2563 10.593 0.24561 1.065836 0.898224 -1.856362
H 9.64943 12.2832 8.29968 -0.382339 1.022054 -0.418172
H 1.10391 5.89846 2.48099 -0.161446 0.059087 -0.523891
H 12.1454 2.50716 6.8954 -0.344841 -0.35052 -0.324936
H 11.0759 0.09633 3.2075 0.628966 0.070727 -0.259938
H 9.01023 4.03605 0.27859 0.811382 -0.109304 -0.900225
H 8.68855 4.34837 2.79619 -0.139338 -0.857012 0.745941
H 4.84938 0.9622 5.65138 -0.089447 -0.214112 -0.028014
H 6.32754 10.0445 1.21615 0.470829 1.26421 -0.528275
H 0.45221 1.73499 0.498 0.554522 0.048111 -0.298654
H 2.89239 11.8214 3.75356 -0.092305 0.554781 1.41592
H 5.17903 2.10166 4.68797 0.552367 0.375165 -0.790865
H 12.1559 2.18042 8.48776 -0.322938 -0.133767 -0.308377
H 5.33699 11.2953 4.84594 -0.315105 0.226772 1.258359
H 7.28567 3.01676 6.67279 -0.885077 -0.491001 0.511871
H 7.9037 7.57321 10.665 0.267933 0.049665 -0.217171
H 7.86618 10.6784 0.92838 -0.557428 -0.026286 0.633449
H 7.51774 8.45899 3.28693 2.114484 0.001537 1.079686
H 0.29148 4.34918 0.72212 0.549341 -0.034758 0.403553
H 2.47473 6.03832 5.95676 0.477159 0.259756 -0.574109
H 7.83278 2.38869 11.7746 1.281602 0.309376 0.983839
H 4.8218 6.95007 8.90631 0.068869 -0.220309 1.070698
H 0.45559 5.99878 3.8802 -0.19572 0.1727 -0.944786
H 5.54626 7.65095 10.818 0.592634 -0.181605 -0.460925
H 10.8995 10.0272 7.81363 -0.608291 -0.415608 -0.623699
H 1.71668 5.07255 11.1591 0.376089 -0.014918 -1.11998
H 11.227 7.36653 2.36315 -0.774441 -0.363491 -0.774978
H 4.27683 11.018 6.00197 0.952969 1.405435 -0.652235
H 9.58144 3.36128 11.1782 -0.398745 0.856912 2.170547
H 9.65859 3.85312 9.06506 0.381899 0.101758 -0.360607
H 11.582 2.96995 2.34643 -0.212802 -0.412594 0.291682
H 3.80511 8.25772 12.2691 -0.131608 -0.123847 0.343837
H 3.9333 8.82201 8.38271 -1.396841 0.324801 -0.404109
H 0.13569 8.0269 9.43055 0.668455 0.029109 0.328852
H 12.303 12.0179 11.7937 -0.011631 0.063422 0.387057
H 1.74469 0.90527 0.0175 1.295711 0.240992 0.778188
H 2.71896 10.581 7.15101 0.552896 -0.058631 0.772182
H 6.87805 4.83863 8.42406 -0.833271 -1.15489 -2.351129
H 4.07901 10.8746 3.30739 -0.173818 0.121951 0.214493
H 2.09263 10.0778 5.98383 -1.116447 -1.05306 -1.193813
H 4.90701 3.97804 0.27034 0.358238 0.810204 -0.006683
H 1.36541 7.97224 12.0775 -0.145242 0.319319 1.404097
H 6.11457 5.5085 9.62685 -1.659086 0.352006 0.323057
O 5.67532 12.3707 12.2341 -0.070166 2.257898 -1.729174
O 7.33817 6.83317 5.71777 0.246609 -0.11586 -0.856862
O 6.95139 5.25929 9.2394 2.547704 0.735466 2.000675
O 1.90627 4.96751 10.184 -0.766945 1.609282 0.397931
O 6.24478 8.32235 11.0348 -1.488661 0.130493 1.322663
O 4.9268 10.6595 9.95207 0.313229 -0.155721 0.277617
O 0.30883 2.7835 5.43667 2.723953 -0.889131 0.258328
O 10.4045 7.52276 1.80614 0.953703 0.377131 1.188865
O 11.1875 2.39513 3.05712 0.734287 0.002091 0.077374
O 5.71192 4.4848 12.339 0.500884 -0.515617 -0.110018
O 3.38162 6.35982 6.16432 -0.203172 0.044943 0.917997
O 7.02702 2.39546 11.2902 -1.277819 -1.036173 -0.99031
O 11.0299 11.5491 3.39606 -0.612562 -0.921827 0.060655
O 10.5372 4.61979 7.83722 -1.937979 -0.844669 0.175376
O 0.31509 6.26127 2.91857 -0.15355 0.22401 0.90418
O 0.92053 5.4269 5.28055 0.003182 0.088513 1.509682
O 3.15665 7.56111 12.072 -0.299393 -0.231078 -0.187374
O 5.04781 11.6582 5.73208 -0.11392 -1.719654 -0.653226
O 8.23835 4.35677 6.05507 1.394412 -0.376939 0.388446
O 12.2792 3.47942 0.84955 -3.202281 0.672714 -1.742507
O 2.26982 1.06263 5.07202 -0.591235 0.507333 0.2739
O 4.64526 6.21835 10.3682 0.289344 -0.223244 -0.275369
O 0.81449 1.03775 12.3031 -1.762901 0.03839 -0.691883
O 11.5723 2.32606 7.68505 0.353372 -0.216446 0.722145
O 3.36097 1.11672 1.08696 -1.700443 -0.617998 1.990172
O 5.80188 6.89165 1.76647 0.596041 -2.7645 -0.432183
O 11.1824 8.26349 10.3943 0.842786 0.48978 0.104493
O 8.59957 3.54182 3.39656 0.376859 0.737198 -1.89724
O 5.9586 3.10981 3.49082 -2.227311 -0.575033 0.077119
O 11.7547 11.2168 11.6584 1.239962 -1.523625 0.754463
O 4.52281 4.21431 7.76937 -2.183685 -0.289598 -1.154366
O 8.43622 8.39052 3.74722 -2.715458 0.415466 -0.375253
O 2.63524 10.8205 6.20872 0.344748 0.723564 0.589896
O 6.99443 10.9067 1.33289 0.490491 -1.471229 0.095787
O 6.76729 2.3342 7.19939 2.296292 0.137805 -0.027506
O 0.92775 10.075 2.78644 0.046598 0.290358 0.885275
O 8.79974 11.1995 5.09153 1.214922 0.020507 -0.393648
O 5.32583 6.21398 4.32846 0.090065 0.60056 -0.408512
O 8.67413 7.30098 10.0994 -0.449203 -0.940616 -0.197737
O 9.00418 3.46359 9.68111 0.260397 0.346024 0.065598
O 0.98261 7.70298 8.99772 0.077111 0.38979 -0.047871
O 0.39575 9.15644 5.32734 -0.384052 3.910124 -0.296454
O 8.57736 5.56741 1.35469 -0.089211 0.570276 0.325317
O 3.14413 9.48477 8.496 1.548074 -0.192619 0.875643
O 4.96567 7.54062 8.12818 0.267325 0.925745 0.180716
O 3.38944 11.4904 3.01693 0.140294 -0.250529 -1.299237
O 10.7185 9.39319 7.07082 -0.214153 1.165401 -0.332992
O 9.67991 3.4481 12.2305 -0.013702 -0.325142 -1.084297
O 7.41806 8.2247 7.85482 3.32006 1.145497 -0.964549
O 3.96661 3.65309 1.46774 -0.660977 -1.49066 0.143322
O 0.53648 2.2942 9.8374 0.281456 -2.159062 0.717176
O 7.71801 10.6848 8.26468 -1.962066 0.993268 -0.359484
O 11.7673 6.94621 7.09058 1.711703 -0.078488 1.383258
O 10.1704 10.803 9.49217 -0.66115 1.852159 -1.80056
O 9.30035 0.74522 7.95044 1.023066 -0.560813 0.605521
O 5.91804 9.75739 3.58749 0.027965 0.706254 1.665122
O 5.15486 9.22045 1.00219 -0.249877 0.469013 -0.1751
O 5.54012 0.43858 8.67393 -0.183302 -0.205817 -0.23282
O 9.95949 10.1495 1.01116 -1.288542 -1.033634 1.655504
O 2.00376 5.34904 0.99789 -1.260901 1.539299 -0.740694
O 0.54253 8.32729 0.11124 -0.659379 0.244439 0.839834
O 4.70217 1.91581 5.49532 -0.914708 -0.171493 0.919955
Na 7.66001 1.76775 9.21093 -0.449456 -0.169584 -0.366377
Na 7.20488 12.0678 6.78113 -0.004307 0.880524 -0.362983
186
energy=-1002.66272082 config_type=nep2xyz pbc="T T T" virial="-21.31066002316857 1.2101800670077307 -0.8509602949199444 1.2101800670077307 -25.221116989548182 5.301425040329558 -0.8509602949199444 5.301425040329558 0.7545566848462957" Lattice="12.4 0.0 0.0 0.0 12.4 0.0 0.0 0.0 12.4" volume=1906.6240000000003 Properties=species:S:1:pos:R:3:force:R:3
H 10.8051 11.3366 10.0804 0.454675 -0.322721 -0.129991
H 10.6478 10.8057 4.38456 -0.171579 0.630387 -0.206081
H 5.39598 6.19134 5.60448 0.554881 0.018633 -0.338321
H 6.20935 0.15401 5.08997 -0.068277 -0.013914 -0.567102
H 11.7222 1.35333 3.12691 1.35787 -0.793252 -0.118135
H 2.26322 7.0914 3.88468 0.179887 -1.099327 1.167964
H 2.78298 2.6825 11.7304 -0.114634 -0.795372 0.022947
H 0.67857 8.74695 11.5869 0.601916 0.416894 -0.075401
H 9.11515 11.3096 6.1761 0.274727 -0.601531 -0.31444
H 11.2718 11.7473 12.0101 -0.08105 -0.327115 0.243939
H 4.36157 7.61372 10.3239 0.346305 0.806451 -0.818735
H 2.3138 2.59309 5.82172 0.56872 -0.936155 -2.269544
H 12.0284 10.6191 7.8219 0.074127 -0.31905 -0.661024
H 2.26969 6.0287 5.21513 -0.657595 0.249347 0.128866
H 0.64057 8.53922 2.66142 0.805262 -0.143182 0.019812
H 6.19256 7.22424 3.61285 -0.052652 0.269743 -0.017936
H 4.65601 8.10284 5.44673 -0.064892 0.342474 -0.186367
H 3.90627 4.99453 1.124 -0.563446 0.026828 0.484303
H 6.88258 0.13708 2.98096 0.737198 0.366262 -0.93214
H 5.32793 9.49328 10.767 0.473885 0.348581 0.133178
H 1.23976 1.285 7.37947 0.886803 0.165726 -0.005774
H 3.21424 3.55314 2.46558 0.357921 -0.45135 0.128055
H 5.96709 11.2535 3.12614 0.814237 1.173821 0.468837
H 2.32395 10.373 0.27775 0.162306 -0.39065 0.332042
H 4.10978 6.22604 4.57421 1.554693 1.124056 0.056384
H 11.4027 7.22572 0.90796 -0.050381 0.288745 0.577721
H 7.23324 10.6729 10.6346 1.186353 0.758216 -0.702525
H 0.63113 4.02617 1.8052 -0.299936 -0.384151 -0.631532
H 3.12618 1.06721 1.05789 -0.467966 -0.285341 0.095081
H 9.85148 6.15028 5.99346 -1.004217 1.680588 -0.520376
H 0.2473 11.1598 0.11334 0.489049 -0.133246 -0.315261
H 7.59867 2.60825 10.4427 -0.640655 0.076183 -0.071684
H 0.53209 2.14147 11.6585 -1.127751 0.175417 0.48206
H 5.34042 2.79389 8.28632 -0.943326 -0.755257 -0.616839
H 8.01026 2.17913 7.14645 -0.366476 0.716393 -1.209886
H 6.11534 2.42241 3.28927 0.312853 0.610507 0.197032
H 11.8057 9.15846 9.89072 -0.841401 0.105216 -0.049398
H 6.83753 4.2644 9.46406 0.432893 0.12443 0.208967
H 4.61601 2.02968 2.04481 -0.731451 0.112904 -0.195261
H 4.3352 0.05626 9.6271 0.186856 0.183145 -0.344406
H 2.81691 0.91173 10.7216 -0.052595 -1.197282 -0.847964
H 7.91416 5.17817 10.2284 -0.733053 -0.038033 -0.12915
H 11.4901 9.81566 1.33785 0.333905 -1.778735 0.427859
H 8.44109 3.37178 11.5005 0.168569 0.223795 -0.044784
H 3.46155 10.7034 5.86888 -0.222362 0.780149 -0.285216
H 4.13137 12.0047 6.27808 0.309635 0.173337 -0.053541
H 8.12527 5.18153 0.38748 0.265502 0.148609 0.361141
H 6.82041 4.48774 2.51303 0.361533 0.300651 -1.08655
H 3.79651 1.85151 3.43376 -0.93968 -0.733772 0.472608
H 9.99847 0.23064 8.11128 0.916067 0.703433 -0.565299
H 7.47918 4.37063 5.76056 -0.655517 0.014104 0.412448
H 11.985 5.15519 6.58282 2.678687 0.287652 -0.150072
H 9.36013 3.16437 8.17164 0.552112 1.54584 0.591938
H 8.71732 3.48097 5.52828 -1.473775 -0.684147 0.264099
H 2.1389 11.1964 11.3839 -0.637545 -1.679449 0.331163
H 9.0105 8.09422 7.08466 0.13455 -1.262549 -1.433881
H 10.7521 4.9044 7.4716 -0.476114 -0.398886 0.616929
H 1.744 5.69574 7.54312 -0.270366 -0.004801 0.486191
H 5.45475 2.93833 10.3951 -0.184501 0.1698 0.152468
H 11.8097 5.66233 0.83011 -0.256545 0.332145 -0.297752
H 6.22719 1.32918 6.19078 -0.251833 -0.412744 -0.466764
H 8.96714 7.19028 4.9522 0.706775 -0.042025 -0.112966
H 11.0528 3.17488 2.51933 -0.302278 0.230934 -0.454155
H 0.79119 6.96506 9.87486 1.724953 -0.341393 -1.213374
H 5.66841 9.4857 6.93506 0.840101 0.226532 0.660505
H 8.39957 1.36763 0.71888 0.412518 -0.313024 -0.541859
H 10.7465 1.37558 7.22987 -0.605683 -0.525629 0.255803
H 9.2992 10.1935 7.29174 0.526034 -1.775279 -0.063675
H 0.09829 11.6237 4.25723 -0.024997 -0.837991 0.634101
H 5.37171 11.0355 10.9181 0.202989 -0.133035 0.092177
H 10.9228 8.81597 2.37892 -1.187912 -0.390482 0.924583
H 9.0156 4.56276 8.82028 -0.144414 -0.338565 -0.244935
H 2.24316 0.33456 9.44962 -0.276406 -0.305586 -0.635719
H 8.14542 8.89272 8.11482 0.889299 -0.315301 -0.639285
H 3.72563 8.76422 9.52222 -0.711862 0.224443 -0.723564
H 7.46872 3.00253 3.95115 0.540996 0.278817 2.146287
H 10.3504 9.3644 9.16357 0.190711 -0.523175 -0.16626
H 7.62013 12.1789 10.3973 0.63197 -1.377664 -0.423144
H 5.92476 8.97375 8.33912 0.007517 0.386831 0.180294
H 2.71149 11.9966 1.5895 0.393474 -0.256514 0.144391
H 9.39678 11.6669 10.4835 0.857527 0.35627 0.464428
H 9.1845 9.2168 3.64571 -0.278327 0.076559 0.10281
H 10.8259 3.30615 5.91838 -0.380281 -0.270897 -0.561607
H 12.3163 10.6904 5.63217 0.241435 0.441072 0.473781
H 6.6931 5.61409 7.55541 0.327309 0.111139 0.050382
H 9.83541 2.06068 2.31272 0.408028 0.794724 0.342555
H 3.20454 3.0268 7.03765 1.593078 -0.378993 0.249637
H 2.23024 6.27589 9.69305 -0.061724 0.090569 -0.044405
H 4.81702 1.8521 0.02418 -0.501217 0.238271 0.143938
H 2.62899 9.65521 2.42949 0.922939 0.740385 -0.605504
H 4.73871 1.50238 7.46556 0.099883 1.613852 0.329053
H 10.4067 2.34406 4.72195 0.318036 0.247945 -1.593288
H 6.2764 8.88461 2.11724 -0.552554 0.057548 0.614918
H 7.33701 2.11805 8.55458 0.508847 -0.273472 -0.6848
H 4.39434 3.6749 0.37097 0.376056 0.788813 0.82134
H 4.8359 5.39969 10.1782 0.015207 0.108546 -0.456077
H 9.46698 11.8609 4.00547 0.208912 0.764624 -0.524132
H 0.08462 0.72755 8.2045 1.22234 -0.676442 -0.095135
H 1.69275 4.27546 6.71559 0.383598 1.18169 0.277567
H 12.2108 1.02409 0.00679 -0.706039 0.714288 0.027954
H 3.7388 8.76704 6.55465 0.6167 0.195834 -0.735376
H 8.34008 8.03351 3.05919 -1.59337 -0.276384 -0.482803
H 3.89178 5.00606 11.2496 0.016171 0.507482 0.552341
H 0.7029 11.5038 7.22244 1.135075 1.600604 0.206259
H 11.9888 3.2055 0.83919 0.644005 -0.637102 -0.640365
H 9.50437 5.42726 11.8695 -1.447264 -0.535837 0.965895
H 6.16285 9.87464 0.94366 -0.452039 0.365369 0.312171
H 7.6025 6.42481 6.5654 0.594391 0.085876 -0.281003
H 7.89007 1.81179 2.056 0.727068 -0.541354 0.40857
H 0.61585 0.57555 2.45595 -0.013685 0.183908 -0.577505
H 6.75257 6.62395 2.30477 0.331782 0.827518 0.555169
H 5.54048 1.11908 9.57222 -0.332739 -0.998957 -0.497481
H 12.0875 7.55897 11.5375 -0.273089 -0.636531 0.518465
H 0.96997 9.24565 3.92099 0.816763 -0.261761 -0.175664
H 2.28446 3.1913 10.3777 -0.17027 -0.200208 -0.323044
H 1.65186 1.34702 4.08007 0.631442 -0.328325 0.27884
H 1.87744 9.51921 7.96142 0.018625 0.093304 -0.192465
H 4.1809 10.0 1.83706 -1.757323 0.309475 0.352541
H 2.93605 0.77637 4.97487 -1.12447 0.446611 -0.800328
H 6.01109 5.10554 1.26488 0.898426 -0.386739 0.432929
H 2.74515 4.8271 3.27824 -0.52012 -0.789054 -2.273951
H 1.89055 8.0105 8.26238 -0.012218 -0.588364 0.4469
O 5.84635 10.2372 11.2222 -0.514664 -0.146883 -0.244784
O 6.28016 9.658 7.73962 -1.208083 -1.203586 -0.787934
O 2.47438 8.77376 8.12608 0.216164 0.91781 -0.463806
O 2.6504 6.2589 4.33947 -0.422344 0.524807 -1.029932
O 4.5784 4.742 0.4823 0.342209 -0.548565 -1.02073
O 4.58868 8.41371 9.76871 0.359339 -1.306249 1.516501
O 11.0677 5.29528 6.6464 -2.02563 0.025022 -0.74852
O 8.62053 4.95881 11.9726 1.274735 0.627439 -0.891161
O 0.16273 0.80476 3.27957 -1.0609 0.664123 0.616501
O 6.91164 5.16099 1.76612 -1.367432 -0.255959 -0.179096
O 1.53225 5.29671 6.69275 -0.249303 -0.842537 -1.002547
O 12.0272 1.9578 12.0846 1.728604 -1.00922 -0.658882
O 12.3794 10.7151 4.65283 -0.42004 0.195788 -2.764914
O 10.7361 0.90882 8.09838 -0.122336 -0.015075 -0.216417
O 9.18657 8.27112 3.41626 2.012119 0.428746 0.640024
O 9.10805 6.87038 5.865 0.620144 -1.085159 0.570479
O 11.4582 6.44911 0.34156 -0.151721 -0.718989 -0.530317
O 5.85474 9.76308 1.86804 0.543417 -0.129058 -0.876754
O 11.1658 9.79324 9.46458 0.772731 0.335323 -0.202257
O 1.07093 0.55252 7.9952 -1.798249 0.861527 0.544855
O 2.31976 2.86672 6.71738 -2.387601 0.783767 2.044006
O 8.41662 2.55061 10.9654 0.296396 -0.628862 0.559369
O 4.10313 2.3231 0.50129 0.625156 -0.605906 -1.329407
O 10.288 2.5269 5.64609 0.21756 0.432776 2.346705
O 4.53816 2.26105 2.99076 1.61778 0.932096 0.048411
O 11.5712 8.84608 1.6865 0.612023 2.256589 -1.343914
O 9.07225 8.63407 7.86124 -0.861492 1.245636 2.383397
O 10.3357 2.66754 2.94891 -0.069247 -1.253243 0.134205
O 7.70399 3.42587 5.62733 2.247346 0.428983 -0.173184
O 1.42305 8.61199 3.28426 -1.398602 0.60221 0.17284
O 1.46728 6.60276 9.1808 -1.143332 -0.015894 1.140464
O 9.6702 10.9712 4.25556 0.157762 -1.435137 0.635225
O 2.54231 1.5594 4.47279 0.047384 -0.702872 0.49081
O 3.88693 5.43483 10.3648 0.071869 -0.165622 -0.070153
O 8.02621 1.70248 7.96851 -0.521469 -0.274381 1.823295
O 1.82381 10.3301 11.8355 0.443953 1.888513 -0.587466
O 5.99582 0.39636 6.01306 0.018185 0.363685 1.287874
O 5.09855 6.56928 4.75177 -1.491818 -0.479637 0.192464
O 2.17863 2.42913 10.9681 0.375489 1.200212 0.745942
O 8.54472 1.14246 1.6469 -1.141562 1.150907 0.291881
O 0.25953 8.11535 10.9903 -0.307817 0.158437 -0.55705
O 11.8255 11.5748 0.41839 -0.410851 0.23386 0.031279
O 7.43812 5.07102 9.36911 0.007243 0.078926 0.262691
O 5.27778 0.17689 9.30098 0.490384 0.93477 0.735951
O 4.39583 8.99136 5.8288 -0.688639 -0.54197 1.245345
O 3.18816 10.3028 1.88306 0.704147 -1.164676 0.251376
O 0.16669 10.7562 7.00163 -1.136454 -1.896984 2.030237
O 6.81367 5.85894 6.62544 -0.84414 -0.49697 0.38551
O 3.26368 11.6615 6.01879 0.181583 -0.658855 0.064113
O 7.03827 2.8078 3.14218 -1.192539 -0.859086 -2.474833
O 9.78297 4.02898 8.5005 -0.452264 -1.63863 -0.174012
O 8.0026 11.2693 10.1939 -2.663064 0.716975 0.925872
O 2.85307 0.0618 10.1569 -0.096246 1.002087 1.328923
O 8.95206 11.0456 7.08923 -0.810042 3.086788 0.226464
O 10.3456 12.0535 10.554 -0.694372 -0.029856 0.167538
O 6.31912 12.0817 3.58473 -1.206398 -1.825013 -0.006246
O 6.72964 7.51321 2.83185 -0.185379 -1.130037 -0.558935
O 6.06688 2.84006 9.66155 0.462611 -0.119473 -0.100925
O 2.37787 0.44374 1.25681 -0.41521 0.50185 -0.171149
O 12.1533 4.012 1.34942 0.307138 1.121243 1.417045
O 2.6404 4.32436 2.36359 -0.25598 1.425301 2.135103
O 4.78347 2.50193 7.46387 0.531276 -0.654409 0.354725
Na 10.307 1.88301 10.1401 0.329348 -0.065429 0.109179
Na 6.84844 11.722 7.90182 0.418022 0.23583 -0.098888
186
energy=-1001.83866017 config_type=nep2xyz pbc="T T T" virial="-16.704707119602887 -3.3868952790817186 2.182593916354494 -3.3868952790817186 -13.462292303415154 6.330091187518332 2.182593916354494 6.330091187518332 -11.050952529409052" Lattice="12.4 0.0 0.0 0.0 12.4 0.0 0.0 0.0 12.4" volume=1906.6240000000003 Properties=species:S:1:pos:R:3:force:R:3
H 10.689 12.2596 11.1496 0.00644 0.170384 -0.079427
H 10.5771 8.28738 0.72238 0.018451 0.026768 0.069763
H 6.11722 5.619 5.68093 0.126094 0.602232 -0.206536
H 5.50275 11.4614 5.13244 -0.253462 -0.112972 -0.738947
H 12.0667 1.15756 4.01697 -0.113408 -0.459178 -0.32737
H 1.01907 6.46817 3.18336 -0.076917 -0.460615 0.296897
H 2.15892 6.14188 8.77302 -1.46008 -0.529846 0.706766
H 11.4817 6.75832 5.04474 0.560073 0.849524 0.2866
H 8.24341 4.43365 3.57367 0.036152 -0.017442 -3.574463
H 9.3166 1.15261 0.15255 0.056157 -0.714912 -0.073473
H 5.50235 7.44781 9.94405 0.267269 0.051075 -0.55986
H 3.36341 3.37777 7.42352 -1.03608 -0.899155 -1.551447
H 0.41653 8.42286 7.63857 -1.01008 -0.115025 -0.017863
H 12.3307 7.65787 3.18972 -0.034051 -0.649869 0.380063
H 9.14105 12.0006 0.54268 0.627682 0.605926 0.330136
H 3.31983 11.5363 0.40961 0.449167 0.243219 0.110435
H 6.67437 8.72282 2.17243 0.109017 0.47615 0.410543
H 2.41666 7.97849 1.09992 0.12303 -0.171882 0.426401
H 4.41457 2.58979 3.88886 -0.175441 -0.106389 0.106095
H 5.93657 9.38234 9.62571 -0.08996 -0.424126 0.120174
H 10.5017 8.68183 10.2957 -0.120243 0.3754 -1.089645
H 2.64503 6.21917 3.82417 0.637955 1.052143 1.636079
H 6.44605 6.52424 1.77669 0.838048 0.451951 0.260046
H 0.25951 9.63769 2.86209 -0.022425 0.794205 0.360154
H 7.4179 5.52907 4.92362 0.935648 -0.542896 -0.208391
H 11.5288 5.89027 2.33285 -0.468769 -1.176473 0.116125
H 8.15678 12.0909 8.94297 0.48459 0.354804 -0.503357
H 2.73144 2.27402 0.85341 -1.250863 -1.204036 0.455591
H 4.5309 2.55043 12.2153 -1.091964 0.478786 0.665974
H 0.31271 2.56083 4.03091 -0.173314 -0.496648 0.660343
H 11.1807 9.57275 2.55836 -1.009478 -0.535794 -0.346757
H 8.4387 3.00596 0.58611 -0.155935 -0.216564 -0.21542
H 2.53005 3.28891 11.5162 -0.494498 -0.261587 -0.875913
H 6.12317 2.06347 9.07931 -0.30314 0.128867 0.15886
H 6.96054 2.81541 7.2459 1.372149 0.036487 1.375021
H 6.24812 7.73336 4.83459 -0.695867 0.852076 0.101204
H 9.69967 8.37939 5.52213 0.179888 -0.369223 -0.662139
H 10.873 3.73337 11.1889 0.597668 0.263089 -0.068688
H 5.15827 4.5902 2.31199 -1.283724 -0.178687 0.255825
H 3.28128 12.1273 9.48816 -1.036344 -0.438747 0.193811
H 5.57116 0.60779 12.0975 -0.210084 -1.304905 1.441103
H 9.45038 3.90352 10.9351 0.167318 0.509446 -0.355727
H 5.92668 10.0241 3.13131 -0.484884 0.064637 -0.322065
H 9.33017 4.54027 1.7508 0.62088 0.20114 -0.049253
H 3.21633 11.3402 6.8778 0.522139 -0.259672 1.912613
H 3.55485 11.7269 5.46292 0.29397 -0.178263 -0.820238
H 8.06072 12.3338 4.13778 0.907804 -0.255251 0.344653
H 5.91631 5.86064 0.50541 0.25933 -0.388635 0.602227
H 3.62724 4.76048 2.87633 -0.617373 0.539834 -0.296124
H 0.47508 2.12095 0.25359 -1.190568 -0.452793 0.192352
H 10.1547 4.24907 8.88327 -0.965802 0.338745 -0.676841
H 1.13681 2.94803 7.36796 -0.375885 0.182349 0.25985
H 10.3255 6.4911 10.6544 -0.797819 -0.654011 -0.37098
H 9.90459 4.21236 7.26375 0.05686 0.605736 0.920308
H 1.74773 11.7347 11.2611 -0.131752 0.293026 -0.340067
H 11.0693 4.88166 5.51493 -0.551185 -1.385795 1.04494
H 0.53213 3.99931 8.41635 0.339554 -0.105095 -0.4275
H 3.74236 8.15621 5.03536 -0.436239 -0.598997 -0.010898
H 7.54534 2.05227 12.0815 -0.079917 0.11639 0.051917
H 11.7004 5.15842 1.02641 0.024494 -0.45534 -0.515485
H 4.87189 0.04852 4.05391 0.167803 -0.657715 0.334355
H 12.2457 4.10428 2.68913 1.675548 -0.873898 0.004618
H 7.46015 3.1522 5.13317 -0.256599 -0.671733 0.981518
H 3.26945 7.10566 6.80683 0.330539 -0.433368 0.251477
H 6.74147 10.9835 7.20045 -0.087698 -0.044571 -0.803216
H 7.7531 0.9313 5.25166 0.641488 -0.348708 0.335055
H 11.3217 1.55399 0.18154 0.549543 -0.243649 0.344325
H 9.24146 4.19788 4.74918 -0.517966 -0.2237 0.149873
H 0.17913 9.94969 5.12003 0.960128 -0.142535 0.382808
H 4.97192 10.5591 9.45163 -0.836719 0.632012 -0.477365
H 7.49524 10.7631 2.25781 0.293589 -0.298917 -0.023269
H 11.513 6.71411 11.4871 0.549276 0.397972 0.11613
H 0.42973 11.8471 10.4566 -0.923464 -0.140878 -0.281814
H 11.2416 3.3077 5.93153 0.557519 -0.26836 -0.248192
H 6.65454 7.46228 8.83397 0.279248 -0.290944 -0.145905
H 6.11298 9.20026 5.45106 -0.470878 -0.74964 -0.963627
H 8.99029 9.43788 4.56377 0.196818 -0.106073 0.133812
H 7.03633 10.9919 9.14863 0.502718 0.371095 -0.529537
H 7.32126 11.0612 5.85417 3.220106 1.932016 -2.179064
H 5.61718 1.52019 10.9548 0.158926 0.901445 0.251964
H 10.5551 0.16617 9.6313 -0.311201 0.445437 -0.127666
H 11.3098 11.581 2.93548 0.184697 -0.430573 0.049614
H 8.66499 1.82844 8.47469 0.473792 -0.316896 0.885596
H 11.3048 0.84598 5.93083 0.584508 0.405383 -0.026685
H 8.68384 6.29134 7.88077 0.621828 -0.776877 0.301932
H 6.12802 2.34126 5.25577 -0.985635 -0.290782 0.124767
H 4.09468 4.59355 7.93309 0.027075 0.358148 0.098704
H 4.31823 7.40861 7.9289 0.066403 -0.257471 0.246163
H 4.21133 3.43938 1.07922 -0.972111 0.457372 0.166089
H 0.81135 5.3797 11.1733 0.436251 -0.80582 -1.540309
H 4.66562 2.47155 9.04827 -1.049142 1.278898 -0.524505
H 9.78853 1.04426 7.84378 0.726198 -0.183339 0.303605
H 5.21345 10.9594 11.8677 0.109426 -0.355708 -0.378391
H 8.09947 3.68854 8.06368 -0.586692 -1.016009 0.616647
H 2.67165 6.47871 1.56624 -0.104294 0.098467 1.010787
H 4.32133 5.55083 11.4591 1.166226 1.930186 -0.248026
H 9.29678 8.0418 1.54296 1.244444 0.827949 0.679824
H 10.6295 10.2017 9.8243 -0.155572 -0.777437 -0.582584
H 2.20682 8.33916 5.32101 -0.260573 -0.059286 -0.185498
H 2.28518 3.97595 10.1774 0.161957 0.681127 -0.885852
H 7.35295 7.5056 3.21116 -0.097634 0.90466 -1.513533
H 10.6844 0.30203 1.95905 1.421728 -0.590443 2.024842
H 4.07685 6.94905 12.0241 0.330125 -0.113748 -0.100143
H 11.4109 8.2511 8.44991 0.898417 0.37646 -0.279536
H 1.71058 2.53889 1.96246 -0.639835 -1.338478 -0.48249
H 8.91191 10.1789 2.03791 -0.106814 0.516014 0.274473
H 5.49039 10.8353 0.9802 0.562335 -0.984239 1.742074
H 7.67165 6.8663 6.84144 0.828635 0.2523 1.399058
H 9.84526 0.53965 5.91401 -1.191942 -0.470994 -1.002328
H 1.45833 1.95429 5.37864 0.630978 -0.264689 0.717274
H 2.11468 0.05006 0.81325 -0.751751 3.218994 1.758555
H 4.3805 0.18851 8.66182 0.914021 0.722412 -0.348418
H 11.2021 7.41111 6.59941 1.069404 -0.749379 -0.97306
H 1.37359 6.27265 12.2787 0.756448 0.698826 0.527675
H 0.62327 6.33157 8.8316 -1.407201 1.242948 -0.776244
H 2.06481 0.87825 6.2498 0.776968 0.078687 0.122298
H 1.63255 10.4207 5.76538 -1.239499 -0.634903 -0.345831
H 2.14263 10.3103 1.48757 -0.439813 -1.155294 1.319236
H 3.60484 1.9049 5.11409 1.073068 0.071975 -0.516364
H 7.79794 4.8663 1.41835 0.242121 -0.62539 0.695225
H 1.36193 4.47366 2.90432 0.672614 0.388181 0.773821
H 2.79184 9.79755 2.8 0.268189 -0.184892 0.34186
O 5.77849 10.3161 9.9026 0.716051 0.370794 0.627545
O 6.63021 10.6386 6.26565 -2.969888 -1.407171 2.924528
O 0.95098 9.67133 5.67223 0.505928 0.643928 0.012919
O 0.0462 6.71226 3.43312 -0.261092 1.161013 -0.516362
O 2.63772 7.08061 0.78723 0.182217 0.171138 -1.197824
O 5.85009 7.91786 9.13866 -0.493124 -0.574855 0.660849
O 0.35994 3.16964 7.92871 0.258387 -0.240414 0.234094
O 8.4914 11.0145 2.33396 -0.336247 -0.495497 -0.405267
O 0.05725 1.78777 4.66122 0.098364 1.225232 -0.846329
O 6.34259 5.61988 1.37245 -1.005737 -0.170566 -1.240974
O 2.89758 7.65043 5.2054 0.852321 0.835621 0.247973
O 1.99546 3.21598 10.6638 0.836644 0.211167 1.752199
O 10.5817 0.59696 6.50971 0.704145 -0.087714 0.58997
O 11.9894 2.11196 12.1676 0.839832 0.767009 -0.655192
O 11.2991 0.13285 2.78409 -1.38151 1.436509 -1.856982
O 0.76746 3.69198 2.97616 -2.090833 0.139841 -0.475243
O 11.2084 5.03039 1.85428 0.154375 1.523323 0.357497
O 4.99448 11.3476 0.32207 -0.757207 1.129475 -1.511772
O 8.93599 8.97807 5.41372 -0.224028 0.202381 0.418265
O 10.3805 9.28974 9.4924 0.212424 0.340922 1.280723
O 3.86382 3.68081 8.15078 0.755444 0.750525 1.219537
O 8.43113 4.19545 1.85356 -0.575167 0.617666 -0.717637
O 3.7734 3.12152 0.23237 2.218237 -0.629655 -1.045894
O 9.43882 1.2249 8.74849 -1.236379 0.392098 -0.671206
O 4.28731 4.11442 2.51311 2.260377 -0.410639 0.142169
O 6.10088 9.93864 2.18066 0.630818 -0.138748 -0.320817
O 10.6162 4.02811 5.81527 -0.048368 1.628974 -0.953231
O 6.94975 2.49531 5.74889 0.521535 0.46251 -1.440217
O 9.5301 4.52845 8.14988 0.649515 -0.229244 -0.313463
O 0.57103 5.8707 11.9324 -1.60205 0.217759 1.369172
O 3.67079 6.73755 7.65245 -0.451898 0.182398 -0.43369
O 10.2187 8.4793 1.60612 -1.800302 -1.024368 -0.873994
O 2.22362 1.82846 6.05173 -1.032685 0.463392 -0.528469
O 4.75716 6.48007 11.4607 -1.527629 -1.889457 0.463006
O 7.44666 2.90868 8.173 -0.609854 0.689309 -1.300325
O 11.78 9.93103 3.21328 1.322477 -0.410059 0.210366
O 4.96408 11.4901 4.29837 -0.143345 1.111875 0.670759
O 6.81327 6.18804 5.29535 -1.04095 0.081775 0.991911
O 1.29884 5.81367 9.2248 3.019653 -0.764211 -0.325058
O 8.35137 0.15359 5.05316 -1.588209 0.538094 -0.692707
O 10.8678 6.93337 5.78056 -1.421387 -0.274092 -0.226002
O 9.82754 0.27468 0.30577 -0.664331 0.061974 -0.133025
O 10.2954 4.36945 10.7195 -0.554992 -1.196537 0.619433
O 3.73006 11.8869 8.67253 0.190071 -0.417875 0.256019
O 7.29663 7.79342 2.25445 0.310816 -0.751099 1.134579
O 2.06304 9.56328 2.21779 -0.082052 1.355647 -1.858452
O 12.0455 7.83166 7.80111 0.16769 0.320102 0.958866
O 8.12761 7.06199 7.74162 -1.523252 0.493799 -1.722964
O 2.81849 11.6542 6.08938 -1.087998 -0.016885 -1.159514
O 5.72829 8.58016 4.7598 0.48943 -0.038965 1.129468
O 10.7401 7.20592 11.1271 0.360419 0.374773 0.508412
O 7.74596 11.3339 8.48891 -0.951591 -0.662191 1.309352
O 1.37484 11.9963 10.3727 1.326164 -0.225442 0.568963
O 8.28439 4.24937 4.47775 0.871011 -0.140014 3.12028
O 11.1328 12.13 10.2791 -0.115705 -0.724229 0.357454
O 4.49849 1.9227 4.60408 -0.796802 0.19542 0.15494
O 2.34345 11.6555 0.4182 0.581333 -3.660698 -1.489664
O 8.45351 2.41138 12.1857 0.126629 0.352498 0.293382
O 5.81179 1.51895 11.9432 0.08091 0.604502 -1.388914
O 1.90125 1.79274 1.30148 1.123903 2.147158 -0.031846
O 2.35942 5.74353 3.07281 -0.377606 -0.795041 -1.976729
O 5.2334 1.82778 9.45248 1.640136 -1.42323 -0.027433
Na 0.84449 1.67911 9.95039 -0.962144 -0.239141 -0.203677
Na 8.54849 9.36464 7.63482 0.348763 -0.017753 0.011645
186
energy=-1002.92833413 config_type=nep2xyz pbc="T T T" virial="-15.706731616825907 2.6591140691972437 -5.473954300772435 2.6591140691972437 -16.56702167724366 1.9808615378865897 -5.473954300772435 1.9808615378865897 -9.475721586877405" Lattice="12.4 0.0 0.0 0.0 12.4 0.0 0.0 0.0 12.4" volume=1906.6240000000003 Properties=species:S:1:pos:R:3:force:R:3
H 10.5626 1.47645 8.22892 0.314696 0.584013 -0.315389
H 9.13226 8.58817 2.96759 0.580117 0.285498 -0.84778
H 5.705 6.34606 4.49007 0.96304 0.401878 1.279272
H 9.16781 10.0793 5.09814 0.697447 0.15684 0.439564
H 9.88059 2.549 3.16782 0.749081 -0.676875 -0.022315
H 1.12153 5.71311 10.6857 0.189876 -0.621151 -0.132473
H 8.24144 6.70931 9.99246 0.317964 -0.404619 -0.32008
H 1.12644 7.94341 10.4322 -0.979675 -0.235797 -0.108171
H 11.629 10.7703 10.0124 -0.983959 -0.442455 -0.475066
H 1.31611 9.64408 6.38686 0.18338 -0.146599 -0.052388
H 5.08453 11.0841 9.96518 0.135061 0.045964 0.59814
H 2.96985 2.11002 7.05452 0.961298 0.993323 0.972095
H 11.412 9.7367 6.24356 -0.022383 -0.245173 -0.717017
H 4.18839 2.60468 10.0215 -1.588366 0.558298 -1.068778
H 0.11707 10.5208 11.9392 0.007265 -0.04112 -0.152838
H 5.1666 5.97826 3.20119 -0.200176 -0.15183 -1.752955
H 4.48705 7.70645 6.69882 -0.493738 0.078374 -0.572233
H 6.09306 8.52805 11.8466 0.299582 0.271369 -0.157305
H 3.67054 9.40965 1.33735 0.616154 -1.299535 -1.020881
H 6.39486 0.50764 11.3013 -0.378646 0.249561 -0.274248
H 11.1034 3.0731 0.38093 -2.350031 0.881857 -1.837154
H 0.9504 10.6097 1.62661 0.077988 0.248517 0.330313
H 6.8235 11.6605 2.62591 -0.05336 -0.05745 -0.413128
H 1.43734 10.5454 4.51475 0.20083 -0.209161 0.382103
H 3.7161 6.49078 4.82802 -0.929952 1.082387 0.684431
H 1.88717 4.9681 1.60605 -0.296329 -0.707042 -0.626123
H 8.07737 10.4389 8.06064 -0.699098 0.139177 -0.034997
H 2.59096 3.65746 1.21172 0.674074 -0.42568 0.194856
H 10.1546 11.9147 1.57381 0.356912 -0.06168 0.889304
H 0.35041 4.50506 5.52872 0.176289 -0.138805 0.094154
H 2.50853 8.71973 5.78863 -0.47362 1.108188 -0.206428
H 5.0995 4.61935 11.3727 0.624343 -0.498759 -0.026614
H 6.22142 2.68145 11.2702 0.850847 0.316849 -0.779255
H 5.34551 0.07717 8.03169 -0.942354 -0.291255 -0.487679
H 6.51303 2.00009 6.21312 -0.454682 -0.529205 0.160066
H 3.98432 1.99582 1.3513 -0.004937 -1.244791 -0.17871
H 8.07665 5.65238 5.22416 -0.095236 0.472488 0.523079
H 7.74997 6.36251 1.55332 -0.223631 0.012372 -0.455636
H 4.28252 0.08844 12.3006 -0.352694 0.877549 0.149491
H 1.84398 10.0045 11.0323 -0.218089 -0.058521 -0.234394
H 12.0135 6.9069 8.42387 0.003109 0.500371 -0.131116
H 9.20937 6.63565 1.05251 -0.829856 -0.84026 0.053743
H 5.16785 7.24248 1.50864 0.432963 -0.15984 -0.033252
H 4.12644 6.20928 11.4636 1.583364 -0.419297 -0.65007
H 6.90573 8.26743 7.56746 0.372669 0.448603 -0.105704
H 8.32118 8.12232 8.19315 -0.113164 -0.088099 -0.191464
H 11.0162 9.22205 1.9641 0.050031 0.030527 -0.057665
H 3.47994 8.93495 12.2208 0.045882 0.030715 -0.221787
H 3.71974 12.18656 1.25166 -0.54317 0.103574 0.277093
H 10.5277 3.79407 7.66951 0.193145 -0.47732 0.360868
H 5.44286 4.11423 4.06951 -0.01324 0.861857 0.199369
H 11.6649 2.63711 4.86478 -0.168531 -0.916027 -1.294667
H 3.12059 1.14374 5.83567 0.098778 0.465218 0.274382
H 6.66015 3.2664 3.44257 -1.139401 0.097842 0.500848
H 1.25504 12.0996 4.34511 0.061366 -1.384214 -0.563009
H 9.86872 7.87229 11.0851 -0.703171 0.200271 0.090752
H 0.73068 2.30162 5.56104 0.913944 -0.902951 -0.547969
H 2.62296 2.34825 9.56507 0.920368 0.578783 -0.290768
H 4.59519 1.26582 8.84725 0.490635 -0.426294 -0.757504
H 1.05056 7.12331 0.09463 0.33837 0.162973 0.149238
H 10.2324 11.1315 4.66096 0.122915 -0.425787 0.450319
H 0.17739 5.6773 6.52263 -0.196692 0.208119 0.057974
H 8.55547 3.99646 3.92931 -0.357487 0.12226 -0.964934
H 0.87504 1.82973 10.9475 -0.173923 1.103387 -0.971504
H 7.52401 7.57139 4.49491 0.642706 0.623513 -1.246598
H 7.1125 4.46321 9.30968 2.799493 1.683287 0.334521
H 10.2746 5.29413 7.9972 -0.687458 -1.039353 -1.1139
H 10.3301 9.91681 9.39682 0.478339 0.140839 0.557592
H 11.8177 11.7256 3.41835 1.562803 -0.571408 0.152239
H 6.4091 11.4437 11.9256 -1.05799 0.683834 -0.834725
H 5.56361 6.21636 0.48592 0.274063 -0.329865 -0.130578
H 1.06461 3.40258 10.3496 -0.270274 -0.439345 0.288139
H 11.5895 7.49303 6.9746 -0.211992 -0.827008 1.73489
H 10.5091 8.33087 0.1037 -0.556639 0.299522 1.011825
H 5.3578 9.54534 9.85999 0.392118 -0.706419 0.637746
H 4.63065 3.09388 2.31862 0.024287 -0.315336 -0.007857
H 9.13864 4.76201 6.17138 -0.266482 0.442594 -0.102077
H 6.84139 11.1716 8.63512 -2.065016 -0.822976 1.109729
H 7.22883 7.51765 5.96389 -0.513123 -1.334028 -1.431224
H 9.79823 0.19113 0.24431 0.01066 -0.416181 0.119788
H 10.1475 0.02509 8.49629 -0.112446 -0.437463 0.24121
H 0.5303 6.60836 2.67004 0.487846 0.37118 -0.671694
H 12.0482 2.45167 7.19135 0.051423 0.109022 0.093568
H 10.6902 0.35814 3.43898 -0.051987 1.468288 -0.18977
H 9.02896 4.46816 12.3027 0.355541 -0.702837 0.067329
H 8.20395 4.2563 2.35254 0.517443 -0.127933 0.441945
H 4.60956 0.04667 4.52209 0.518969 0.626142 0.021984
H 6.85981 10.2502 1.13865 -0.316599 0.065062 0.504755
H 0.43841 1.52028 0.4538 0.346393 -0.124934 -0.59637
H 3.47911 11.0358 3.24268 0.113723 -0.18619 -0.174686
H 4.89259 1.62683 4.37578 0.806179 0.430236 -0.283394
H 12.2853 2.40941 8.79337 1.020414 0.079927 1.079361
H 6.4631 11.2173 4.2866 0.123821 -0.67866 0.489286
H 7.46375 3.1025 6.01803 0.783227 -0.490498 0.512371
H 7.6338 8.07601 10.1755 0.268484 0.020929 0.573304
H 8.10984 10.6429 0.47334 1.308016 0.412669 -0.20292
H 7.80533 9.46484 3.33253 0.57054 -0.673046 -0.229948
H 0.04177 3.5017 0.95354 0.934209 0.546544 0.129515
H 2.23281 6.57745 5.48719 1.132544 0.441405 -0.184205
H 7.84832 2.35137 11.1053 -0.067765 0.386924 0.495533
H 5.11531 6.74939 7.71441 0.017364 0.813795 -0.179127
H 12.3637 6.21107 4.03502 -0.419797 0.157087 -0.32315
H 5.6516 7.3551 10.9255 0.018963 -0.314327 0.038715
H 11.6912 10.1139 7.59823 0.858068 -0.878983 0.304751
H 1.82165 4.76245 11.7772 -0.435917 -0.156669 -0.556785
H 10.9114 7.68701 2.30254 -0.346807 1.055569 -0.312041
H 5.92537 11.1598 5.83233 -0.205807 -0.312834 -0.082251
H 9.39681 4.04908 10.9109 0.056121 -0.456799 0.50357
H 8.61944 4.55475 8.66391 -0.213162 0.197854 0.251214
H 11.1782 2.38227 2.31678 -0.212412 -0.620742 0.94087
H 2.29727 7.80469 0.89475 -0.383077 -0.588751 -0.269582
H 3.07966 9.64337 10.1627 0.462888 -0.029046 -0.126052
H 11.9813 7.4146 10.7928 -0.055202 0.88138 0.435261
H 0.71851 11.7517 11.4015 0.538253 2.211475 0.420773
H 1.95759 1.20672 0.02979 0.723138 -0.466282 0.524714
H 4.66015 10.5297 7.73514 -0.213177 -0.279084 0.028433
H 4.65347 4.23517 8.65157 -0.167531 0.384892 -0.262175
H 4.99317 10.6919 2.54651 -0.654896 0.644818 0.244971
H 3.72641 10.5558 6.47866 -1.101091 -0.478071 -0.199819
H 4.99281 3.31021 0.02445 -0.152139 0.392868 -0.98392
H 0.74934 9.18941 1.08092 0.130119 -0.689021 0.112115
H 4.96952 5.42726 9.53716 0.030503 0.511298 0.801138
O 5.80351 12.1236 11.4066 1.037281 -1.261419 0.965618
O 7.04654 6.98461 5.09391 0.446559 1.015992 2.47383
O 5.09675 5.10546 8.63308 0.161065 -0.809041 -0.537125
O 1.52917 4.81396 10.8329 0.182338 1.003321 0.526833
O 6.09112 8.25501 10.9184 -0.043411 0.530013 -0.359255
O 4.8145 10.2633 9.51457 -0.494792 0.743139 -0.984046
O 12.3236 2.80033 5.52993 -0.261938 1.480263 1.40436
O 10.4039 8.4674 1.89374 0.908881 -1.258923 0.549428
O 10.7405 2.0206 3.17071 -0.817037 1.557765 -0.581891
O 5.25333 3.53511 11.4766 -1.571013 0.309572 1.532166
O 3.06072 7.1205 5.319 -0.357536 -1.583512 -0.338547
O 6.96586 2.06702 10.8397 0.851947 -1.032209 -0.360644
O 10.8768 11.8191 3.41486 -1.452967 -0.854709 -0.366311
O 9.80985 4.45793 7.64439 1.091849 1.638391 0.427054
O 12.0993 6.50539 3.12773 -0.255216 -0.326987 0.915556
O 0.62617 5.42871 5.6967 0.037433 0.263819 -0.324147
O 1.40122 7.34496 0.97519 0.32447 0.399273 0.125267
O 6.68967 11.3487 5.25353 0.280258 0.731417 -0.190603
O 8.61536 4.84611 5.33677 0.119363 -1.36196 -0.578149
O 11.8174 2.77666 0.89101 1.188423 -1.142549 1.658559
O 2.51061 1.49092 6.5255 -1.367388 -1.222338 -1.41154
O 5.07622 5.97159 11.2202 -2.250452 0.228464 0.765771
O 1.03586 1.00236 12.2498 -0.987092 -0.119523 0.081751
O 11.6568 2.56893 8.07846 -0.82283 0.304044 -0.96464
O 3.56744 0.43937 0.52354 1.27727 -0.839549 -0.291034
O 5.76336 6.46449 1.42814 -0.698378 0.627843 0.188962
O 10.662 7.97786 11.6351 1.016893 -0.687765 -1.310208
O 8.31533 3.5558 3.03103 0.061843 0.256581 0.767918
O 5.69864 3.22672 3.78659 1.173539 -1.309465 -0.689493
O 0.44008 10.9123 11.0865 -0.65137 -1.709685 -0.102066
O 3.54155 2.60702 9.22066 0.593295 -0.853714 1.774275
O 8.40861 8.7032 3.5855 -1.79209 0.89728 1.180898
O 4.53732 10.9049 6.83887 1.202044 0.635571 0.383584
O 7.27689 10.2428 0.24371 -0.789395 -0.222373 -0.257536
O 7.41945 2.21209 6.45783 -0.220607 0.940868 -0.624787
O 1.13266 11.2261 3.87886 0.103346 1.720277 0.206659
O 9.88656 10.65 5.47819 -0.823089 -0.095274 -0.592244
O 5.03875 5.75185 4.1159 -0.966998 -0.3155 0.363069
O 8.50672 7.64813 9.96457 -0.329474 0.188842 -0.143806
O 8.07579 4.89763 9.42127 -2.921037 -1.64317 0.01953
O 0.40551 7.2713 10.2811 1.274867 -0.425536 -0.323827
O 2.16242 9.66642 5.87494 0.356986 -0.861607 -0.081152
O 8.50718 5.93762 1.10831 0.894226 0.643499 0.200074
O 2.49421 9.2857 10.85 -0.127336 -0.25082 0.138443
O 5.15495 7.69189 7.38316 0.585648 -1.124383 0.989456
O 3.93607 10.8301 2.41435 0.796837 -0.428598 -0.385844
O 12.0744 9.48434 6.91894 -1.099335 1.211577 0.432624
O 9.48864 3.71761 11.8388 -0.519952 1.156199 -0.435373
O 7.85922 8.52166 7.41747 -0.639191 -0.287934 0.361634
O 4.12638 2.93418 1.48655 0.088726 1.314721 0.212448
O 0.82949 2.44991 10.1244 0.56738 -0.691341 0.246559
O 7.66115 11.3131 8.23222 2.472997 0.604183 -1.133911
O 11.438 6.75658 7.64967 0.360851 0.380445 -0.983972
O 10.8626 10.7238 9.34714 0.440783 0.40938 -0.456855
O 9.8165 0.85268 8.11764 -1.010304 -0.679124 -0.002511
O 6.512 10.7472 2.69849 -0.340957 -0.112699 0.293736
O 3.82813 8.61465 0.6861 -0.751044 1.405316 1.599335
O 5.46224 0.88071 8.53396 -0.116031 0.520501 0.360386
O 9.8638 11.7266 0.68363 -0.45735 0.274298 -0.969432
O 1.7618 4.14967 1.0665 -0.228682 1.376354 0.621472
O 0.31391 10.0473 1.17238 -0.326627 0.039962 -0.003622
O 4.23288 0.93441 4.42698 -1.276259 -0.961046 0.237835
Na 7.52976 1.37799 8.73991 0.462056 0.070022 0.150253
Na 8.41864 12.3765 6.28411 0.163666 -0.146715 0.060916
186
energy=-1000.86551643 config_type=nep2xyz pbc="T T T" virial="1.1338521130499006 0.7320652858783663 0.7291259337381131 0.7320652858783663 -14.148803581225144 -2.1434541220658594 0.7291259337381131 -2.1434541220658594 -16.36757413930583" Lattice="12.4 0.0 0.0 0.0 12.4 0.0 0.0 0.0 12.4" volume=1906.6240000000003 Properties=species:S:1:pos:R:3:force:R:3
H 8.39793 8.39513 11.1657 0.144451 0.849015 -0.529283
H 8.8515 7.88102 0.89583 0.150464 0.238827 0.183505
H 6.11501 4.62767 6.42531 -1.34228 -0.08863 0.299895
H 7.08561 10.2393 6.05618 -0.730229 -1.056507 -0.762694
H 0.59076 1.91091 4.17185 0.211036 0.216764 0.354113
H 0.9022 6.87031 3.88423 -1.130371 0.076169 0.788283
H 10.1121 4.06 4.47453 0.14908 -0.32761 -0.282193
H 11.6723 6.55802 5.60488 0.544412 -0.147118 -0.112175
H 7.48518 2.44445 2.48644 -1.066997 0.537535 0.489975
H 10.5866 9.7282 10.7918 -3.040437 -0.63463 0.706199
H 5.11001 6.98138 10.9377 0.531508 0.30254 -0.223712
H 3.96802 2.21331 7.41631 -0.91843 -3.217347 -3.354059
H 11.8023 7.9158 7.6284 0.637122 -0.778186 0.12439
H 11.5151 8.0625 4.28941 0.225184 -0.774171 -0.167594
H 11.6589 9.37815 9.68019 -0.468832 0.585549 0.858071
H 2.8537 1.22699 0.74673 -0.010068 -0.039303 -0.178914
H 6.53712 9.85169 2.62569 -0.162679 0.395215 0.195357
H 2.18322 9.28711 1.79322 -0.084845 -0.283034 0.302639
H 3.71815 10.4656 3.76261 -0.08428 -0.064644 0.053252
H 5.48108 9.19561 10.2036 -0.12772 0.679505 -0.046793
H 0.64135 8.13953 0.71292 -0.134623 0.653585 -0.802457
H 2.38689 6.6761 4.50596 -0.529524 0.186253 -0.653381
H 5.8534 7.31069 1.80048 0.471732 -0.78028 -0.17807
H 0.1475 9.6667 2.49485 0.948975 -0.188676 -0.299543
H 4.75285 4.07633 7.02841 -0.051451 -0.584584 0.435931
H 11.4297 6.5287 2.50695 0.52339 0.19131 -0.2598
H 7.83634 0.79029 8.4312 0.381422 0.102198 -0.729914
H 11.9911 4.70918 1.34068 -0.172004 -0.018763 -0.470696
H 4.65035 2.28779 0.23585 0.541012 -0.334185 -0.578364
H 1.28571 3.29147 4.24103 -0.096369 0.229601 -0.157114
H 11.081 9.49492 2.53215 0.231295 1.029996 -0.021684
H 8.67895 3.68824 1.07426 0.564235 -0.03547 0.613311
H 1.45587 3.50224 8.48018 0.350346 -1.029801 1.210826
H 7.07584 3.49049 8.88063 1.235223 0.427102 -0.664965
H 7.8764 3.46889 6.56641 -0.051046 -1.340512 -0.990666
H 5.97751 8.32508 6.2411 0.421854 -1.669402 1.888046
H 10.8827 9.48815 6.84296 0.113896 0.850545 -0.25479
H 11.0776 6.20182 10.9079 0.132226 0.538123 -0.277761
H 5.11745 5.00807 2.17652 0.139999 0.157189 -0.085334
H 2.39586 11.1349 10.2918 0.438192 0.118717 -0.575242
H 6.32821 0.8806 11.7327 0.49747 -0.238689 0.362961
H 10.5488 4.79174 10.7203 -0.462924 0.259584 -0.34016
H 7.26478 11.7854 2.54177 -1.334622 0.277983 0.416628
H 9.73567 5.94175 1.37606 -0.575033 -0.700843 0.128382
H 2.73781 8.98588 9.30974 -0.039257 1.107534 -0.41311
H 2.51999 7.57755 9.68071 -0.261695 -0.507029 -0.07842
H 10.29 0.13906 1.26764 -0.189451 -0.557965 -0.617097
H 5.93484 6.40736 0.51182 0.004101 0.015269 0.899937
H 4.97883 3.66003 3.00954 0.714761 0.14812 0.018573
H 11.2668 3.27137 12.0917 0.200812 0.031917 0.707269
H 9.60174 6.0188 8.64612 0.195229 0.267501 -0.240853
H 12.0579 1.53682 7.04248 -0.283281 1.166621 1.608634
H 8.2519 6.08413 0.0921 0.682217 0.63246 -1.298809
H 10.0245 6.29643 7.13395 0.22711 -0.081904 0.797132
H 1.19066 0.18922 11.7725 0.057793 -0.502681 -0.091703
H 10.0154 6.37581 4.14391 0.614005 0.390092 -0.001094
H 11.3738 2.86316 7.58679 -0.059421 0.111391 -0.109169
H 4.01605 5.8621 6.37037 1.459465 -0.786572 0.178589
H 8.13437 2.47567 0.40625 -0.725494 -0.973664 -0.488776
H 12.0108 6.78445 0.92009 -1.708646 -1.046397 1.33489
H 7.80013 11.3843 6.78874 0.701902 -0.932422 -0.112138
H 1.76753 5.28999 2.93883 -0.114685 1.377993 0.516683
H 8.99814 2.38444 5.17238 -0.866133 -0.108139 0.526948
H 1.14355 3.88716 6.28487 -0.02371 0.171848 -0.1912
H 9.22512 12.3578 2.96062 0.870627 0.768942 -0.536245
H 9.97925 1.62539 1.66659 0.295021 -0.653942 0.314959
H 10.1912 2.66314 11.148 -2.667918 -2.865632 -0.07248
H 6.27021 1.68702 3.01193 -0.51223 -1.193131 0.006507
H 12.2568 0.3 5.18388 -0.3241 -0.346643 0.130634
H 4.60669 10.4995 9.86954 -1.441299 0.448349 -0.099812
H 7.83236 11.4357 12.0381 1.843142 -0.18256 0.273278
H 9.08406 6.35616 11.035 -0.944659 -0.229046 0.820623
H 0.07843 11.6528 11.0169 0.526104 0.081979 0.168749
H 8.66084 6.08463 4.91494 1.086922 -0.417631 -1.92136
H 6.74235 7.06699 11.1362 -0.470825 0.132173 -0.879924
H 5.07615 9.41151 5.63877 -2.033939 0.928907 -0.44832
H 9.59781 10.2777 6.50586 -1.116706 0.081793 -0.147039
H 8.39051 0.95359 6.97022 -0.270352 0.998914 -0.800521
H 8.96761 11.2831 3.99742 -0.617167 1.586774 -0.12179
H 6.49105 2.1922 10.9143 0.200952 0.16289 0.629563
H 8.7762 9.95415 11.3627 -0.126706 -0.363385 -0.43455
H 0.4797 11.9745 3.04762 -1.2897 3.098465 -0.367352
H 9.82896 0.14786 9.89136 -0.9545 -0.94267 -3.163524
H 1.1268 12.3455 7.51906 0.016414 0.268507 -0.110484
H 7.81534 7.10526 7.72535 -0.411086 0.169831 0.092588
H 7.55886 2.48875 4.71291 -0.825078 -0.172925 -0.475885
H 3.37221 2.92214 8.63031 -0.548809 -0.080433 0.051881
H 1.79578 5.35152 6.57669 0.779247 -0.545394 -0.218741
H 4.00701 3.19647 1.26831 -0.155533 -0.126439 -0.284022
H 1.49736 4.12531 12.0342 0.399749 -0.13994 -0.018075
H 5.71175 3.10498 9.10595 -1.266621 -0.47072 -0.203628
H 9.86052 12.232 11.3017 0.263689 -0.570189 1.396752
H 6.51779 10.7852 11.2997 0.545487 1.395152 1.199249
H 8.4529 4.71889 7.25292 -1.35616 -0.236995 0.426199
H 1.52411 8.10523 2.68733 0.772684 -0.368916 0.365218
H 2.72693 5.76724 11.5687 -0.017269 -1.230366 -0.216759
H 8.64619 8.60176 2.25602 -0.010099 -0.120794 -0.602045
H 12.2037 8.65561 11.8103 -0.045491 0.053458 0.056155
H 3.04641 7.09529 6.80381 0.505564 -0.923605 -0.516651
H 1.76244 3.37166 10.1388 0.747382 -0.955743 -2.110352
H 6.54582 8.70287 3.73884 -0.11349 0.656074 -0.785654
H 11.8212 0.76518 2.54246 -1.154372 -0.455474 -0.42722
H 2.39766 7.1567 12.0369 -0.410061 0.578827 0.223766
H 0.76525 8.25326 8.45251 -0.112675 0.000642 -0.230141
H 0.56052 3.62237 1.69435 0.25609 -0.219331 -0.007893
H 9.62135 10.4297 0.59326 -0.142956 2.141804 -1.245798
H 6.61058 11.5524 1.20035 -0.919864 0.257226 0.224261
H 6.43674 7.1076 8.43491 -0.681127 -0.637592 0.981654
H 2.04196 1.03828 8.27353 -0.461974 -0.444658 -0.306486
H 2.45818 1.32509 5.19611 1.349283 -0.466909 1.106538
H 1.52167 0.75608 1.38546 -0.01854 -0.302643 0.299632
H 2.81359 11.57 8.85927 -0.033178 -0.534232 0.405455
H 0.03346 5.61709 6.86075 -1.648989 0.989623 -1.074735
H 2.8984 3.40898 12.0135 0.396342 -0.273347 0.199709
H 11.3678 3.18638 4.24055 1.26832 -0.044303 0.099705
H 2.74497 0.41419 6.46679 0.480082 0.872271 -0.748761
H 11.4823 11.7509 6.29234 0.660978 0.974301 -0.670812
H 3.02758 11.2294 1.33891 -0.426573 0.619233 -0.176628
H 3.81101 11.2894 5.04386 -0.234606 1.066502 0.261183
H 8.32943 5.67602 2.11092 0.496564 0.031318 -0.173128
H 2.6551 4.08805 2.84925 0.683384 0.010304 -0.139282
H 4.24934 10.4496 1.85788 -0.496626 -0.1292 -0.17892
O 5.49543 10.1594 9.95443 2.234284 -1.596869 0.271775
O 8.66339 12.2026 3.7225 -0.19477 -2.439343 0.850088
O 12.0813 0.17015 6.13118 -0.473497 -0.97611 0.625172
O 11.6925 7.10139 4.17296 -0.568424 0.530225 -0.458424
O 1.38081 8.72525 1.9535 -0.200503 0.131682 -0.59569
O 5.93795 7.4059 10.6146 -0.395555 -0.383301 0.647753
O 12.0317 2.21404 7.85647 -0.340085 -1.505417 -2.042136
O 9.48355 11.2873 0.0359 -0.199547 -2.317301 1.393682
O 0.83829 2.63198 4.81526 0.028158 -0.536401 -0.508427
O 6.02042 6.37887 1.49052 -0.403731 0.80545 -0.476859
O 3.19553 6.32755 6.19562 -2.337005 2.029206 0.155806
O 1.78678 2.85656 9.19643 -0.587922 1.987322 1.176947
O 2.03367 0.16614 7.80542 -0.160319 0.277535 0.932349
O 10.8207 3.31099 11.2311 2.687492 2.507163 -0.505511
O 0.27817 0.60826 2.98525 2.914313 -2.645381 1.24856
O 1.73163 4.33058 2.9626 -0.149249 -1.743754 -0.252967
O 11.5001 6.13165 1.58531 0.526303 1.380562 -0.818456
O 6.87501 11.4637 11.9855 -2.544146 -0.919428 -1.457485
O 10.5408 10.2694 6.35746 1.545298 -0.537329 0.27167
O 0.17391 7.86578 12.2524 0.465978 -0.553167 0.547732
O 4.14222 2.83759 8.03783 1.55332 3.147637 3.161335
O 8.82801 5.49978 1.28656 0.39982 -0.019957 0.716601
O 3.7595 2.53726 0.53639 0.677083 0.45899 0.906978
O 10.11 0.54024 10.6676 1.009715 1.836278 1.471658
O 4.53789 4.24825 2.38383 -0.945365 -0.361199 0.021469
O 6.33189 11.7309 2.15407 1.895815 -0.603528 -0.344586
O 9.17149 5.88432 4.05741 -1.464799 0.028516 2.067118
O 8.05525 2.36251 5.53447 2.008518 -0.432813 -0.510959
O 9.24202 6.26334 7.76828 0.402843 -0.22072 -0.46689
O 2.3402 4.05458 11.5181 -1.743675 0.570764 -0.15948
O 1.1975 4.63962 6.89879 -0.080617 -0.211184 0.706702
O 9.30884 8.44563 1.54521 -0.229996 0.197551 0.337232
O 3.21684 0.93236 5.73903 -1.306116 -0.047467 -0.864757
O 2.94377 6.68636 11.4102 0.717563 0.875744 -0.423038
O 7.63942 4.12378 7.23058 1.108415 2.102016 1.135037
O 11.7618 10.2066 2.6399 -1.535302 -0.578259 0.250252
O 7.90879 10.425 6.50769 0.059702 1.989338 1.282437
O 5.11228 4.62888 6.3248 1.377876 0.816457 -0.657957
O 10.4443 3.13642 4.4341 -1.729748 0.596966 0.314443
O 10.4591 0.79927 1.96623 -0.857286 1.001456 -0.623366
O 11.6752 6.28836 6.58021 0.067799 -0.476973 1.152697
O 11.4312 9.92859 10.5046 3.850416 -0.008413 -1.705488
O 10.3898 5.74191 10.4054 0.524771 -0.57197 0.327137
O 3.08138 10.9568 9.59839 -0.786705 0.158308 0.395637
O 6.7191 8.90933 2.78072 0.033088 -0.927487 0.703511
O 3.27047 10.4022 1.77955 1.418019 0.188651 0.243888
O 12.2404 8.5235 8.24809 -0.694972 0.708929 0.260816
O 6.95327 7.60343 7.81949 0.975035 0.474643 -0.938234
O 2.34186 8.19016 8.94046 0.52782 -0.780892 0.473777
O 5.88826 8.9589 5.57026 1.978658 0.364653 -1.698107
O 8.26042 6.61609 11.5857 -0.15352 0.2029 0.238575
O 8.44475 0.42004 7.75693 -0.387422 -0.787197 1.419673
O 0.86099 12.2446 10.906 -0.453881 -0.154657 -0.097072
O 6.66512 2.54605 3.07973 1.648872 0.440432 -0.420653
O 8.51759 9.26255 10.6755 0.138938 -0.291515 0.918251
O 4.05491 10.4487 4.66962 -0.177984 -0.402081 -0.216145
O 2.20181 0.48021 0.74056 -0.280771 -0.043783 0.281127
O 8.67958 2.70651 1.16492 0.023467 0.833165 -0.012074
O 6.48521 1.83695 11.8471 -0.571188 0.158841 -0.439294
O 12.3327 3.82947 0.98293 0.086379 -0.045967 -0.136363
O 1.85617 6.79484 3.66938 1.303453 -0.000685 0.278076
O 6.5628 3.00796 9.5279 -0.003912 -0.135641 0.324253
Na 12.0883 1.4769 9.92304 0.001338 0.256924 0.065587
Na 7.41552 9.6311 8.71915 -0.010667 -0.026475 0.074679
186
energy=-1002.38668219 config_type=nep2xyz pbc="T T T" virial="-19.799095209990583 -0.11125507351913856 -4.1513648397694345 -0.11125507351913856 -23.903787421848794 3.7769008972700515 -4.1513648397694345 3.7769008972700515 -5.633060123101122" Lattice="12.4 0.0 0.0 0.0 12.4 0.0 0.0 0.0 12.4" volume=1906.6240000000003 Properties=species:S:1:pos:R:3:force:R:3
H 10.6846 11.4862 10.0425 0.270809 0.081686 -0.094783
H 10.6586 10.7091 4.4653 0.544619 0.684352 -0.125275
H 5.35209 6.20804 5.583 0.753043 0.277557 0.117808
H 6.21124 12.3634 5.16976 0.027852 0.100595 -0.434865
H 11.7354 1.63103 3.04204 1.136125 -0.889446 -0.1071
H 2.06587 7.12636 4.21157 0.245006 -0.306579 0.202405
H 3.00334 2.49623 11.546 -0.699437 -0.34253 0.67829
H 0.88059 8.75134 11.291 -0.776605 -0.427276 0.106304
H 9.12928 11.0733 6.10629 0.094678 -0.477139 0.850076
H 11.3576 11.613 12.0576 -0.118379 0.228154 -0.347877
H 4.19837 7.67078 10.2922 0.17664 -0.337181 0.357344
H 2.22485 2.44529 5.91874 0.252249 -1.352608 -2.636171
H 11.636 10.5229 7.61742 0.147143 -0.320947 0.115903
H 2.20346 5.87618 5.28705 -0.676244 0.546388 0.3354
H 0.62604 8.8002 2.82648 0.501205 -0.729177 -0.134544
H 6.2098 7.2171 3.65877 -0.325777 0.211438 0.260782
H 4.60622 8.18246 5.30532 -0.097936 0.087579 0.031955
H 3.82942 5.15435 1.11376 -1.096664 0.102527 1.175151
H 7.17285 12.1593 3.31994 0.286456 -0.175709 -0.428398
H 5.51295 9.30562 10.7986 -0.197181 0.531356 0.16505
H 1.61607 1.41159 7.6661 -0.016844 -0.605493 -0.00478
H 3.42638 3.66975 2.71074 -0.287108 -0.139258 -0.239578
H 6.2445 10.9091 3.52116 0.184678 -0.04079 -0.610508
H 2.458 10.2649 0.151 -0.223182 -0.191603 0.473028
H 4.08757 6.39904 4.75803 -0.415865 0.608953 -0.817985
H 11.3312 6.90706 1.00845 0.091597 2.078821 2.521921
H 7.36264 10.5018 10.6386 1.116215 1.801736 -0.862201
H 0.66217 4.18293 1.72666 0.025774 -0.627807 -0.458437
H 2.92414 1.07412 0.94194 -0.229063 -0.639748 0.491299
H 9.9896 6.46818 6.23192 -1.846785 0.264799 -1.726184
H 0.35996 11.2518 0.16714 0.796508 -0.414638 -0.26844
H 7.58214 2.54651 10.743 -0.724029 0.220119 -0.434564
H 0.77565 1.7554 11.5456 -1.237601 0.726156 0.394281
H 5.06046 2.96717 8.24042 -0.196687 -1.473885 -1.311135
H 7.57225 2.08755 7.13874 0.090233 0.019756 -0.407366
H 6.20951 2.60057 2.86153 -0.716951 -0.048461 0.980795
H 11.5051 9.28002 10.1313 0.093969 -0.638345 0.082977
H 6.88316 4.25843 9.34263 0.283135 0.334815 0.465123
H 4.28145 2.22555 1.93878 0.007844 -0.179797 0.2329
H 4.23781 0.21431 9.5354 1.580653 -0.134711 -0.120966
H 2.49275 0.92898 10.5651 0.585612 -0.680068 -0.222716
H 7.56859 5.31961 10.3212 0.165698 -0.192394 -0.644565
H 11.5256 9.86364 1.48176 0.366076 -1.400562 -0.020048
H 8.74734 3.23598 11.5293 -0.464696 -0.294132 -0.593054
H 3.54781 10.7583 5.5743 0.191185 -0.049699 0.127087
H 4.10014 12.1665 5.85698 0.702758 0.029048 0.177873
H 8.02925 4.97504 0.36053 0.562228 0.559618 -0.089072
H 7.24099 4.26991 2.13493 -0.569769 0.16256 0.417002
H 3.99737 1.89539 3.49424 -1.027019 -0.892063 0.912036
H 10.0905 0.15321 7.99462 0.599879 0.91496 -0.674007
H 7.3966 4.03981 6.17457 0.003606 0.108844 -0.406042
H 12.0149 5.74047 6.89584 0.095461 -0.439471 -0.39823
H 9.32704 3.10502 8.18185 0.456413 1.949877 1.188479
H 8.66092 3.08122 5.79354 -1.130441 0.471247 -0.518445
H 2.24641 10.8248 11.1083 -0.874182 -0.723799 0.982655
H 9.03107 8.02022 7.18455 0.372791 -0.943789 -1.387962
H 10.8012 4.97583 7.43473 -0.892714 -0.846933 1.792334
H 1.59209 5.73253 7.42289 0.248035 -0.429889 -0.409769
H 5.48145 3.14135 10.4099 -0.026661 -0.05572 0.235034
H 11.6175 5.43357 0.59312 -0.103571 0.921417 -0.031666
H 6.07415 1.33868 5.98323 -0.173978 -1.10377 -0.174139
H 9.34611 7.25069 4.88223 0.013966 -0.317152 0.380058
H 10.8763 3.46863 2.49909 -0.093072 -0.345439 -0.331865
H 1.0181 7.21565 9.83486 0.230331 -1.223539 -0.52984
H 5.71828 9.22238 6.8664 0.39563 0.910745 0.663111
H 8.41726 1.25282 0.64815 0.452272 -0.166412 0.451047
H 10.6184 1.48042 7.19844 -0.340141 -1.007785 0.396893
H 8.94428 10.3224 7.55557 0.110485 -2.264642 0.171571
H 0.20783 11.658 4.22584 -0.347076 -1.140181 0.749495
H 5.3561 10.8326 10.7483 -0.054367 0.162049 0.094256
H 10.7041 8.75691 2.17291 -0.378173 -0.396393 0.436862
H 8.96167 4.44818 9.02553 -0.060423 -0.274593 -0.260633
H 2.15601 0.0711 9.40153 -0.489042 -0.241658 -0.806941
H 7.89513 8.68437 7.9363 1.082219 0.140646 0.112403
H 4.07635 8.41893 9.02857 -0.725403 0.758957 -0.711184
H 7.313 3.02088 3.96 0.02625 0.3354 1.583923
H 10.3529 9.31924 9.04288 -0.702679 -0.709587 -0.07771
H 7.41607 12.037 10.4922 0.418003 -0.351176 -0.235452
H 5.67326 9.23526 8.43304 1.656811 0.97135 -1.779009
H 2.86237 12.0399 1.64464 0.522838 -1.040423 0.225607
H 9.64394 11.872 11.0348 0.741924 0.795557 -0.864824
H 9.26676 9.07649 3.84396 -0.297525 -1.120304 -1.037016
H 10.6669 3.45099 5.99755 0.154886 0.029643 -0.595483
H 0.21824 10.6474 5.53395 -0.136014 0.56351 0.916989
H 7.32756 5.74289 7.62894 -0.510321 0.073687 -0.746361
H 9.74213 2.22565 2.44497 1.207158 1.228708 0.550927
H 3.27808 2.72633 7.09514 0.164213 -0.048152 -0.649067
H 2.23311 6.1446 9.70837 -0.232797 0.133107 -0.154276
H 4.96847 1.98852 0.26224 0.558376 -0.546839 -0.432882
H 2.55756 9.74703 2.31462 0.564875 0.301914 -0.452197
H 4.61337 1.54872 7.69676 0.314087 -0.935737 0.461733
H 10.2256 2.58943 4.73863 0.487479 0.408198 -1.309568
H 6.18637 8.89306 2.01413 -0.340565 0.411113 0.611586
H 7.49355 2.11142 8.65727 0.174429 -0.193275 -0.238541
H 4.33364 3.84905 0.42375 -0.369132 -0.465576 0.20719
H 4.50088 5.39458 9.88871 -0.331205 0.125408 -0.173853
H 9.72493 11.9423 3.98524 0.406108 -1.713851 0.572341
H 0.16946 1.03391 7.98687 0.84738 -1.13806 0.490014
H 1.96459 4.35522 6.56452 -0.949795 0.850934 0.679522
H 12.3101 0.97538 0.12844 -0.570424 -0.056161 -0.019161
H 3.66852 8.75243 6.41738 -0.099102 0.11979 0.081669
H 8.33028 7.94082 3.15355 -0.028793 0.358651 0.18064
H 3.84859 5.39755 11.258 0.018713 -0.313967 0.864835
H 0.38434 11.4838 7.46442 1.019795 1.828836 0.496831
H 12.2286 3.31533 0.63518 0.655968 -1.005254 -0.473155
H 9.46724 5.48842 12.2167 -0.50764 -0.051063 0.074116
H 6.23393 9.95957 0.95177 -0.521021 0.503687 0.428389
H 7.55392 5.94615 6.06821 0.669368 0.577418 0.156692
H 7.77971 1.73876 1.97569 1.049972 -0.417302 0.363341
H 0.6665 0.72501 2.42298 -1.33741 0.708474 1.096254
H 6.99881 6.52718 2.55152 -0.382617 0.832204 -0.161864
H 5.53241 1.21087 9.52347 -0.130296 -0.92851 -0.064559
H 12.3011 7.51569 11.7029 -0.264593 -0.168346 0.196755
H 1.18819 9.44435 3.99325 0.354621 -0.151556 0.136862
H 2.59882 3.16036 10.3027 -0.766323 0.136759 -0.524207
H 1.75901 1.56425 3.82677 0.180702 -0.672819 0.649477
H 1.81223 9.34861 7.80028 0.917536 -0.221109 0.206083
H 4.06653 10.156 1.73927 -1.892193 0.02188 0.10991
H 2.53182 0.54049 4.87498 -0.224854 0.74295 -0.631657
H 6.09781 5.01294 1.24044 0.588035 0.150618 0.830697
H 2.56117 4.86646 3.19129 0.037539 -0.788246 -1.314804
H 2.15611 8.035 8.54652 0.094899 -0.317102 -0.387303
O 5.79337 10.1342 11.2605 0.306728 -0.341737 -0.024541
O 6.23501 9.61401 7.65203 -1.937958 -1.825926 1.196378
O 2.58736 8.77738 8.05518 -1.062011 0.463573 -0.281801
O 2.59399 6.34342 4.50545 -0.141663 -0.189295 -0.979848
O 4.45082 4.84699 0.47473 1.59532 0.484139 -1.597199
O 4.6719 8.33511 9.77738 0.165171 -0.736825 0.239969
O 11.1375 5.39362 6.66091 0.431303 0.925458 -1.116926
O 8.64186 5.00369 11.9785 0.079355 -0.210776 0.175281
O 0.08692 0.97147 3.23201 0.593546 -0.059068 -1.178887
O 6.94745 5.14964 1.77612 -0.292401 -0.619521 -1.342575
O 1.51732 5.29098 6.5424 0.631904 -0.607016 0.563263
O 12.2732 1.78616 11.9777 1.141395 -0.11388 -0.246368
O 0.02221 10.734 4.58843 0.210822 0.798799 -1.963879
O 10.7564 0.90056 7.99397 -0.250403 0.345811 -0.230098
O 9.27364 8.21296 3.32724 0.453776 1.221483 0.939284
O 9.10562 6.8115 5.73757 1.905913 -0.104645 1.054446
O 11.2787 6.33699 0.29451 -0.033355 -2.944303 -2.442092
O 5.90474 9.83886 1.87103 0.499032 -1.099219 -0.991599
O 11.0836 9.79697 9.42877 0.177299 1.321393 -0.053891
O 1.10066 0.64679 8.04719 -0.911896 1.627765 -0.368058
O 2.33649 2.80098 6.7697 -0.741925 1.55047 2.84613
O 8.50903 2.42364 10.9973 0.176969 0.325496 1.611427
O 4.08892 2.31806 0.41737 -0.588233 0.457472 -0.449446
O 10.2942 2.60342 5.69343 -0.269411 -0.019503 2.036913
O 4.61418 2.2926 2.89335 0.835698 1.109314 -1.124564
O 11.5651 8.88372 1.7471 0.07079 1.83169 -0.359645
O 8.89685 8.59112 7.93004 -1.632864 0.760638 1.353912
O 10.411 2.77701 3.01149 -1.246943 -1.426646 -0.489076
O 7.70376 3.34136 5.54968 0.925903 -0.696026 0.948064
O 1.46225 8.72141 3.37525 -0.964907 0.816665 -0.189948
O 1.51113 6.57167 9.1955 -0.511751 1.139892 0.606822
O 9.73209 11.0278 4.3942 -0.835517 1.005022 -0.392291
O 2.51711 1.4502 4.45182 0.050802 -0.253835 0.26305
O 3.63031 5.49705 10.3128 0.834735 -0.11551 -0.305834
O 8.03604 1.74894 7.91903 -0.553189 0.300461 0.884061
O 1.81723 10.2252 11.8022 0.639939 0.833307 -1.703023
O 6.02756 0.35269 6.05716 -0.203654 1.225556 0.524637
O 5.02629 6.73524 4.83295 0.397456 -0.820651 0.557195
O 2.18562 2.5513 10.9344 1.999941 0.318728 0.295163
O 8.52809 1.16325 1.6201 -0.84813 0.611449 -0.619251
O 0.16737 8.11001 10.9803 1.272062 0.89833 -0.331817
O 11.8952 11.5524 0.4625 -0.366836 0.024193 0.800114
O 7.42769 5.11314 9.36444 -0.385712 -0.124193 0.480633
O 5.25974 0.25419 9.28925 -1.350564 1.123676 0.678498
O 4.31235 9.02984 5.73997 0.165025 0.022356 0.246216
O 3.05025 10.3375 1.66832 2.058426 -1.058101 0.818116
O 0.08166 10.6484 7.16165 -0.376886 -1.788656 -0.433892
O 6.89737 5.68772 6.73391 -0.253204 -0.605957 0.783233
O 3.3167 11.6183 5.96597 -0.755066 0.172029 -0.317267
O 7.14991 2.80878 3.04643 0.316224 -0.182381 -2.457715
O 9.72816 3.93344 8.66857 -0.117705 -1.862445 -1.235327
O 7.96389 11.2663 10.2272 -1.694481 -1.1478 1.079255
O 2.77283 0.05479 10.1472 -0.161811 0.624164 0.584037
O 9.00043 11.1306 7.09081 0.032594 3.102153 -1.056712
O 10.4693 12.2649 10.6105 -1.208225 -1.67576 0.880049
O 6.33943 11.8561 3.68124 -0.318633 0.274135 0.606444
O 6.79445 7.45607 2.91334 0.437053 -0.933851 -0.361581
O 6.12006 2.82546 9.76027 -0.208931 0.09503 -0.315639
O 2.34093 0.37596 1.34906 -0.925441 2.207302 -0.716237
O 12.1943 3.99424 1.31672 -0.402202 1.35043 0.823229
O 2.65394 4.21019 2.41524 -0.132554 1.45591 1.843747
O 4.71277 2.45298 7.40748 0.791159 2.066944 1.289381
Na 10.2937 1.96713 10.1133 1.111562 -0.108096 -0.537624
Na 6.80993 11.8254 7.93779 0.431884 -0.148539 -0.18938
186
energy=-1000.15557747 config_type=nep2xyz pbc="T T T" virial="-3.6913502797142606 -2.3567297052950815 -0.06430874075274626 -2.3567297052950815 -21.910418762102257 -7.1495754240942695 -0.06430874075274626 -7.1495754240942695 -20.20128664433932" Lattice="12.4 0.0 0.0 0.0 12.4 0.0 0.0 0.0 12.4" volume=1906.6240000000003 Properties=species:S:1:pos:R:3:force:R:3
H 11.042 11.1483 8.65053 1.395935 0.648912 0.009668
H 10.1549 11.0831 4.21147 -0.246928 -0.048514 -0.078279
H 7.02689 6.88591 6.74738 -0.932655 -1.12505 -0.939892
H 7.35384 11.8837 6.21621 -1.030898 1.376075 0.135832
H 11.1664 2.10625 2.42725 -0.085365 -0.222296 -0.525943
H 1.91261 8.80466 9.54867 0.270795 -1.237048 0.291558
H 2.50036 4.75889 10.7526 -0.426612 -0.274715 1.116177
H 1.51261 9.99484 11.5305 0.364155 0.362166 0.759723
H 9.53946 8.27422 7.47292 1.945172 0.635935 -0.041858
H 9.11318 10.5293 1.46762 0.440666 -1.151891 -0.611288
H 4.87194 8.76229 11.8788 -0.178774 0.00552 -0.033962
H 3.49075 1.15675 6.04998 0.043966 0.733459 0.340931
H 0.8253 11.2963 7.4041 -0.180442 -0.41123 -0.178808
H 2.24462 7.26203 9.14292 -0.393262 -0.216393 0.050573
H 10.737 7.4589 11.5856 0.723116 1.590992 0.80542
H 6.59845 6.23185 4.68366 0.427809 0.625826 0.349762
H 3.32543 7.38286 6.41326 0.042679 -0.462611 0.149464
H 2.1579 6.60227 1.80228 -0.514126 -0.449522 0.427691
H 8.10947 0.61556 2.05723 -0.542442 1.750833 0.545082
H 6.63248 10.3107 11.7444 1.099573 0.586141 0.459362
H 0.14777 1.94342 8.68551 0.332072 -0.032436 -0.408832
H 0.20782 5.73687 1.18606 -0.296473 1.596373 0.733574
H 7.34918 11.7927 1.44509 1.208022 0.655872 0.127568
H 2.99463 10.9797 0.96253 -0.437761 -0.177279 -0.951627
H 5.43777 6.16134 6.61916 1.89008 0.248533 0.176798
H 11.4407 5.5315 10.9872 1.975401 -1.807212 0.825537
H 7.7534 12.1059 10.7952 -0.286059 0.459184 -0.588281
H 0.61035 4.0852 11.9662 -1.409992 0.11954 0.12349
H 1.85056 1.08993 0.0233 2.067946 0.803549 -1.225702
H 0.46175 4.87654 4.19929 0.331968 0.384763 0.393637
H 8.92067 9.00566 1.76606 0.549114 0.29888 -0.535083
H 5.62218 2.59909 0.04836 -2.076235 -0.611742 -0.175821
H 10.9238 2.3537 10.6265 -0.793157 -0.052563 0.328623
H 6.25607 1.71467 7.01977 -0.350492 0.10055 0.144358
H 8.29661 3.59139 8.46211 1.72349 1.122142 -1.210135
H 3.91211 2.42135 2.96722 -0.039104 0.409603 0.393198
H 1.31332 8.15119 6.59509 0.063103 -0.519539 -0.91507
H 5.97356 4.90013 9.46622 -0.239756 0.963602 0.720829
H 4.22273 0.85853 1.0631 -0.302179 -0.084167 -0.070965
H 4.7185 0.29946 9.68347 0.563785 0.758949 0.099451
H 0.62987 10.8134 9.69159 0.057573 1.155709 -0.200032
H 6.96841 5.04931 10.5607 0.11163 0.37056 0.629866
H 10.4374 6.24999 1.43771 0.50482 0.078799 -0.082098
H 6.24601 3.93878 0.51137 -0.56592 0.85429 0.210079
H 4.50927 9.44676 6.71913 0.125344 0.156215 0.128875
H 5.81597 10.2444 6.44701 1.042635 0.160028 -0.436971
H 8.51174 5.40095 0.18997 -0.350503 -1.121089 -0.803005
H 4.83019 4.46632 2.87089 0.188573 0.387456 -0.749148
H 4.48752 0.22634 2.52668 -0.345196 0.076518 -0.997542
H 10.2569 0.57495 5.67013 0.460912 -0.173996 -0.452612
H 7.08314 4.11992 5.95713 -0.111892 0.15284 0.083896
H 0.45075 2.8227 3.09139 0.061994 0.301088 0.294232
H 2.34373 2.20212 7.70961 -0.597993 -0.137447 1.03896
H 8.52432 4.26061 5.44383 -0.817817 -0.971552 0.12261
H 3.50236 10.5836 11.8989 -0.774759 0.514428 1.020789
H 8.54892 7.80319 10.1318 0.640506 0.260475 0.13859
H 1.86464 3.30082 3.4554 2.711008 -0.440469 0.284045
H 3.09497 5.42136 7.90591 -0.274497 -0.080812 -0.485489
H 4.91167 3.96195 7.86163 0.560434 -2.139115 -0.171291
H 10.4419 5.82364 9.80057 0.554191 0.293139 0.811906
H 8.41114 11.0659 5.49442 -0.191514 -0.688938 -0.25369
H 12.3596 6.0843 3.54452 -0.226716 1.20229 -1.788767
H 9.58942 3.78712 2.10912 -0.016401 1.994511 -0.964673
H 1.47084 5.06556 8.08548 1.878427 0.350796 0.717947
H 7.77859 9.46047 6.71586 0.068437 0.342124 -0.070759
H 6.76576 2.56083 1.86156 0.404621 -0.457518 0.228617
H 9.70353 1.98064 5.59981 -0.165926 0.267078 0.123963
H 11.3114 8.39465 7.24674 -1.447376 -0.521367 0.642973
H 11.7109 0.61128 3.83675 -0.180381 -0.677619 0.460699
H 8.15594 10.3723 12.279 0.446964 -0.947843 0.280202
H 9.38001 6.50813 2.51363 0.259242 -0.300343 -0.505031
H 2.13996 3.28508 8.76434 -0.236211 -0.688106 0.079058
H 0.13713 12.2826 9.11243 -0.090315 0.35676 0.26189
H 7.29689 7.0044 9.80689 -0.030477 0.839494 -0.237118
H 5.13999 9.72608 10.663 -0.473898 0.117672 0.741174
H 3.67592 2.73049 4.48965 -0.020065 -0.113954 0.769796
H 0.10804 7.53607 5.5781 1.118612 0.885124 1.789301
H 6.80992 0.64695 9.93282 -1.025272 0.2496 0.046663
H 7.63367 8.47859 7.9158 0.131868 -0.059394 0.31877
H 1.12045 12.1636 0.28174 0.434338 1.24838 0.125124
H 10.1934 9.90076 8.5078 -0.276022 1.762786 0.023066
H 8.94131 8.73134 4.0246 0.209076 0.167836 0.002797
H 11.1786 5.27465 4.77387 -1.074403 -1.134904 0.123342
H 12.119 11.9992 5.03602 1.122803 -0.482072 0.79499
H 10.2272 6.69225 7.78678 0.355233 0.316352 -0.296538
H 8.60802 2.80469 2.8288 0.086128 -0.01015 -0.164636
H 4.21934 2.41957 6.90086 -0.139802 -0.158664 -0.163471
H 3.64667 7.58555 10.7754 -0.825086 0.456056 -1.074137
H 4.34048 1.9633 11.088 -0.505449 -0.420257 0.314846
H 2.92762 11.3712 3.70401 -0.251913 0.38171 0.936705
H 7.52142 1.91843 6.19908 -0.750005 -1.165152 0.533574
H 10.0729 4.04335 4.35837 0.629861 0.486476 -0.33336
H 5.55187 8.26487 3.80953 -0.239789 -1.184559 -0.197484
H 6.92376 3.13429 8.62567 -0.260069 -0.395535 0.434186
H 2.50426 5.01084 12.3603 0.112279 0.353076 0.124899
H 4.77067 6.71369 11.4206 -1.92721 0.793772 0.412019
H 8.78504 11.3534 3.5144 0.619645 -1.108544 0.464847
H 11.3832 1.54668 7.71191 -0.26903 0.17192 -0.672412
H 4.20449 5.29573 6.16994 -0.724136 -0.607368 -0.310689
H 10.5216 1.22679 11.557 -0.378821 1.326222 0.032387
H 2.9428 8.29611 7.58169 -0.005945 0.026025 -0.30246
H 8.10502 7.45858 3.5357 1.028282 0.589502 0.375141
H 3.07703 6.84906 0.59241 0.110027 -1.709717 1.196078
H 0.4772 10.049 6.38872 0.457431 1.357174 0.164633
H 11.5756 3.42049 12.1415 -1.741939 -3.119684 0.14604
H 9.30522 5.23633 11.3928 1.217164 0.112211 -1.004763
H 6.05519 9.57451 3.96755 0.748603 1.199874 0.201499
H 10.0319 5.31128 6.9577 0.243269 0.506774 0.45019
H 6.45849 2.03018 3.27354 -0.290208 -0.086726 0.53461
H 0.1581 1.33898 1.86768 0.047864 -0.188175 -1.257706
H 5.85352 6.28186 3.33498 0.746937 -0.274247 -0.75884
H 5.11611 1.67879 8.94745 0.031099 0.335474 0.776484
H 0.12834 9.28651 11.3795 -1.982306 -1.019178 1.077684
H 10.4415 8.79122 0.11912 -1.30178 0.686939 0.672532
H 3.40945 2.91326 11.8852 -1.071075 1.572219 -0.101398
H 2.11266 11.5824 5.7495 2.079164 -0.530901 -0.368115
H 3.23809 10.8958 9.57317 -1.606887 0.008689 0.005101
H 3.93087 10.2784 3.3154 -0.208308 0.077367 -0.382488
H 3.71568 11.0853 5.63155 -0.353241 -0.14839 0.55711
H 4.29531 5.53991 1.92309 -0.708576 0.297386 -0.324454
H 12.2598 7.35198 1.20074 0.194666 -1.16208 0.200464
H 4.47045 10.6185 8.63139 -0.429151 1.042282 1.105399
O 7.45467 10.8788 11.8786 -1.81906 0.255637 -0.716204
O 7.95984 8.54836 6.99889 0.114952 -0.724825 0.411319
O 4.15602 11.0709 9.49323 2.081134 -0.731198 -1.605962
O 2.61586 8.14446 9.29842 0.161131 0.840741 -0.030454
O 2.86339 6.1427 1.32676 0.281299 1.958577 -1.778846
O 5.0235 9.69651 11.6429 0.533832 0.118422 -0.729601
O 0.98987 3.5979 3.38473 -2.489165 0.846635 -0.239333
O 8.49408 4.86024 11.7321 -1.011658 0.76054 1.988977
O 11.992 1.60292 2.59948 -0.588895 0.019419 1.290289
O 5.12784 5.12314 2.18043 0.397525 -0.972222 1.050532
O 4.02945 5.90299 6.89082 0.710473 0.411579 -0.132072
O 10.3497 2.20191 11.4208 1.222495 -1.662255 -0.665124
O 11.3927 12.3587 4.54798 -0.845325 0.656612 -1.101959
O 9.61547 1.16384 6.1037 0.081533 0.016432 0.451312
O 9.02897 7.9022 3.53589 -1.61186 -0.658597 -0.523169
O 0.13578 5.81455 4.42793 0.22266 -1.131126 1.172805
O 10.6763 6.0048 10.7623 -2.790525 1.538177 -2.273323
O 5.27905 9.16659 3.60655 -0.178342 -0.027092 0.140614
O 0.33578 8.10275 6.39788 -1.420675 -0.222836 -1.220533
O 11.668 1.49953 8.61962 0.204405 -0.204973 1.190397
O 3.43625 2.11928 6.28652 -0.076973 -0.711217 -0.424497
O 6.42586 3.04347 0.24614 2.177231 -0.100311 0.302993
O 3.85654 2.08806 11.9541 1.439203 -1.453594 -0.502286
O 10.3505 4.68254 5.03922 -0.08428 0.281798 0.408811
O 4.68905 0.96045 1.90037 0.344973 0.022944 1.255163
O 9.57946 5.94121 1.73042 -0.702807 -0.083951 0.390879
O 7.70959 7.90621 9.68837 -0.931717 -1.109425 0.00425
O 9.55354 2.99178 2.59397 0.74627 -1.649775 1.239086
O 7.78488 3.58291 5.55404 1.051547 0.953798 0.011217
O 11.1128 8.26757 12.1078 1.130792 -2.188501 -1.374579
O 2.35075 5.15533 8.57464 -1.841264 -0.026492 0.065838
O 9.25291 10.6825 4.10998 -0.187762 1.465453 -0.662765
O 3.0654 11.7357 5.33959 -1.949306 0.899268 0.621464
O 3.91609 7.25437 11.6303 2.902134 -1.540377 0.153978
O 7.78874 3.17703 9.12167 -1.775683 -0.557563 0.490713
O 2.70616 10.969 12.3989 1.367962 -0.644754 0.324325
O 7.64472 10.9816 6.12032 0.556798 -0.411244 -0.147222
O 6.51491 6.12608 6.32663 -0.924267 0.651711 1.059136
O 2.24694 4.39427 11.6492 0.320421 -0.065182 -1.240928
O 7.19285 2.18526 2.68441 -0.308743 0.225316 -0.76547
O 0.90684 9.54245 10.9303 1.472106 0.640062 -1.978285
O 9.24101 9.61871 1.04741 -0.706849 0.857103 1.583061
O 6.15901 5.50088 10.2394 0.158818 -0.996405 -1.071742
O 5.26227 1.14266 9.79008 -1.120492 -0.558487 -0.817418
O 2.89143 8.25825 6.59258 0.502186 0.53702 0.602578
O 3.33447 10.9622 2.94111 0.739749 -0.55988 -1.570528
O 0.70054 11.0374 6.45056 -0.255591 -0.914109 -0.078194
O 10.0916 5.73391 7.8437 -0.336781 -1.520196 0.217846
O 5.07369 10.1899 7.03556 -1.493355 -0.596523 0.276189
O 3.6969 3.14629 3.61268 0.325545 -0.557429 -0.997747
O 1.88031 2.33816 8.6107 0.681667 0.838357 -1.187333
O 7.73292 0.48709 10.1624 1.627465 -0.801605 0.567162
O 0.85817 11.6333 9.15307 0.086796 -1.404842 -0.073795
O 10.5073 8.28155 7.8837 -0.748436 0.585426 -0.778526
O 10.128 10.9348 8.62958 -1.218409 -2.342751 -0.312046
O 8.22802 12.1222 1.78677 -0.629323 -2.321314 -0.384268
O 6.66413 6.63324 3.77212 -0.808985 0.092348 0.275842
O 5.22354 2.98962 7.84828 0.022139 1.795895 0.17811
O 1.12804 0.73368 0.47948 -2.550002 -1.692877 1.239337
O 12.0096 4.2212 12.1309 3.648933 3.340104 -0.053259
O 0.17799 6.57838 1.75282 -0.298261 -0.423681 -1.280947
O 6.98009 1.17621 6.6474 0.673988 1.283767 -0.742199
Na 8.11312 2.51993 11.2695 0.080293 0.132153 -0.276552
Na 8.53864 0.19318 7.92413 0.402812 -0.028504 0.656713
186
energy=-1001.32231809 config_type=nep2xyz pbc="T T T" virial="-13.315848305690636 1.4363078782186274 -2.917812758172808 1.4363078782186274 -16.662080563463668 -3.3177074517803735 -2.917812758172808 -3.3177074517803735 -13.833471787652554" Lattice="12.4 0.0 0.0 0.0 12.4 0.0 0.0 0.0 12.4" volume=1906.6240000000003 Properties=species:S:1:pos:R:3:force:R:3
H 7.09202 10.1421 9.42652 -0.106704 -0.243303 0.018825
H 10.2133 9.87896 5.13999 -0.934837 0.149535 -0.839628
H 2.48356 4.67434 7.05574 -0.019177 0.672957 0.82658
H 0.07855 3.76361 12.255 0.758478 -1.982388 -0.446605
H 12.1393 12.3667 12.1944 -0.354987 -0.743425 -0.607439
H 1.35033 8.11525 6.24965 -0.201252 0.319205 0.402004
H 4.79981 8.00313 8.1973 0.665532 -0.099128 -0.882281
H 12.1836 10.494 9.79407 0.162499 -0.483683 0.362322
H 9.05068 7.91269 7.40217 0.314554 -0.118321 0.533353
H 1.3065 11.0953 8.35508 0.423619 0.0525 -1.195317
H 5.16394 8.23598 10.9285 0.509957 -0.377601 -0.01508
H 9.98459 3.12372 6.40671 0.031477 0.765574 -0.01102
H 9.82389 2.07996 10.6957 -0.091877 0.21639 0.077097
H 1.14753 6.99469 7.37673 0.436391 0.238969 -0.544653
H 2.82733 7.14454 1.64439 1.342149 -0.42999 -0.207597
H 5.18833 5.75785 1.39155 0.393677 -0.460295 0.660749
H 11.6922 1.03227 1.59671 -0.024173 0.34502 0.502192
H 3.48302 5.05149 0.20505 0.170537 -0.879684 -0.481571
H 1.71681 4.69799 4.58796 0.376107 0.356639 1.502063
H 7.59323 2.96567 12.3366 1.109291 0.380795 -0.161384
H 11.051 1.54041 9.92985 0.568812 0.197867 -0.317063
H 8.04431 1.77284 8.32471 0.31795 0.308751 -0.192304
H 1.64284 5.64732 3.33074 -0.098499 -0.712689 0.157939
H 2.72489 7.44928 3.63279 -0.91221 0.572356 -0.92372
H 2.90673 3.83123 5.8731 -1.074087 0.217115 -0.276348
H 3.54118 0.83991 9.71697 -0.340745 0.651531 0.298512
H 6.49396 0.66226 9.40568 0.266943 0.895263 1.875058
H 3.24325 11.7725 11.2085 -0.086455 0.805685 2.054107
H 9.09265 11.8795 5.89407 0.869629 -0.876838 1.03489
H 4.21742 1.35098 7.74373 -0.269877 0.21904 0.316323
H 11.1742 1.91608 2.97109 0.640523 -1.00997 -1.165843
H 7.70461 7.48449 3.93196 0.077908 0.328589 -0.132053
H 11.4944 4.00698 2.11437 0.113803 -0.618712 -1.3267
H 2.89637 1.17968 1.30714 -0.285866 -1.478827 -0.336498
H 6.89842 4.79376 9.72258 -0.002895 -0.132829 0.546145
H 5.01178 9.99709 1.52506 1.258699 0.132848 -0.389833
H 2.46028 6.0954 10.9318 -0.063628 -0.832667 -0.119977
H 6.95521 9.34804 2.70099 -0.048413 -0.018317 0.350948
H 3.2616 8.277 10.7253 -0.073384 0.528482 0.166044
H 6.86587 7.33575 6.989 1.212603 -0.435602 0.232577
H 10.3974 9.38667 7.1001 -0.175793 0.070646 0.225273
H 8.09105 9.38772 3.83041 -0.883721 -0.116118 0.233163
H 10.9342 3.63387 4.62575 0.177989 -0.195165 -0.675729
H 7.82338 5.97677 3.81035 -0.126007 -0.416621 0.008817
H 3.0669 7.15861 5.60787 0.166889 0.078897 -0.601481
H 1.25819 11.255 3.35787 -0.73108 0.869802 -0.090538
H 11.4677 6.99077 12.061 -0.513262 0.581586 1.322312
H 7.54428 6.02555 0.99543 -0.756449 -0.084167 0.073656
H 3.54517 9.91842 10.6696 1.080213 -0.985672 0.081502
H 4.25192 9.19155 4.93833 -0.065999 -0.673558 0.095778
H 11.9 5.9268 6.19265 -1.315074 0.789611 0.383684
H 5.72525 11.1842 5.85908 -0.016086 -0.146598 0.219619
H 10.0003 4.66429 5.89092 -0.14988 6.6e-05 0.489
H 11.1695 7.06313 5.47951 -0.382046 -0.317323 0.203994
H 1.53761 8.4354 2.81534 0.571385 -0.513066 0.26915
H 6.69599 11.573 1.12693 -0.38088 -1.417067 -0.30301
H 7.08582 12.0099 5.93052 0.042312 0.232484 0.445278
H 3.48816 2.56992 4.19727 -0.151148 0.184808 0.113904
H 3.11408 12.0695 1.72262 -0.065806 -0.288369 -0.059341
H 2.42929 1.86376 9.44616 -0.336932 0.189665 0.072201
H 0.53392 2.15301 11.9149 -0.330479 2.094428 -0.127588
H 5.10775 0.65987 6.58547 -1.699113 0.260081 0.540331
H 9.45629 6.61888 0.69691 0.337578 0.324583 -0.293118
H 1.05899 6.82695 10.7524 -0.140394 -0.007215 0.283354
H 9.8033 12.2668 10.9042 -0.862965 -0.745398 0.880749
H 0.6066 0.49671 9.01237 0.282158 -0.924877 -0.037425
H 5.49677 9.69193 4.17567 1.1909 -0.5577 -0.314706
H 8.90775 8.74915 8.6657 0.430649 0.182728 0.153948
H 9.8273 0.3037 2.84721 1.625098 0.793691 -0.561843
H 6.92499 1.9991 0.91248 -0.172594 -0.088576 -0.103028
H 12.2872 3.97052 3.90832 -0.5651 -0.394012 -0.577568
H 2.6323 0.42676 6.32851 2.685462 0.669611 0.64348
H 0.29146 0.12287 3.27933 -2.754516 0.709128 -1.054873
H 8.19974 12.0494 0.72023 -1.011678 -0.455959 -0.455893
H 6.63248 7.97982 10.371 0.01373 0.240121 0.153392
H 6.03571 9.49588 0.35876 -0.2946 0.315261 0.722481
H 11.6571 9.87178 6.2802 0.529984 -0.031325 0.025882
H 7.17667 1.32585 10.8483 -0.997757 -0.048257 -2.005643
H 10.1135 10.7991 11.2224 0.178374 -0.184175 0.145137
H 8.75627 0.13457 4.60124 -0.359972 0.487303 0.29969
H 8.16534 10.251 10.4635 0.057985 -0.636771 -0.107936
H 10.7718 8.41779 3.93722 -0.173148 -0.151456 -0.32241
H 4.58102 4.50588 4.71358 1.596198 0.882633 -0.43413
H 8.35292 12.2964 2.46675 0.214232 -0.066397 0.93003
H 12.1779 3.84105 8.07715 0.163762 0.495531 1.233237
H 10.2351 6.89772 2.00153 0.855452 -0.065029 -1.141323
H 7.97182 5.59134 8.01945 -0.094458 0.840041 -0.595503
H 3.59198 6.15234 8.96036 -0.335327 -0.419623 -0.352202
H 8.82117 4.2502 11.5293 0.635969 0.569332 0.279203
H 2.22931 3.15914 3.15467 -0.608262 1.634088 -0.253392
H 8.3154 4.13374 8.18401 0.244225 -0.59853 0.122257
H 5.45301 5.14976 3.56282 0.204259 -0.383815 -1.740194
H 3.80942 10.6057 3.3622 0.172145 -0.422825 0.175885
H 6.25855 5.7424 10.7408 -0.387764 0.090523 0.183424
H 4.8578 7.55471 6.67417 0.189713 0.438647 0.721392
H 4.63812 5.10024 8.91353 0.600426 -0.466661 0.230678
H 9.65814 10.3188 3.56613 0.495918 0.159106 0.843889
H 1.57665 0.09015 5.31006 -0.451041 0.0439 0.625929
H 3.86259 2.24383 5.67975 0.467279 -0.241465 0.510695
H 11.1881 5.10899 1.2085 -0.31044 0.678453 -0.908734
H 0.11745 9.83278 2.47153 0.260141 -0.052036 0.082875
H 12.2245 7.83382 3.74616 -0.446834 -0.191999 -0.333551
H 2.50923 4.0643 11.8744 0.845145 -0.441671 0.122407
H 2.07844 11.2013 9.80573 -0.027533 0.238922 -0.584333
H 5.05097 11.6224 9.34803 0.179953 -0.069585 -0.051919
H 11.7023 8.22216 10.9684 -0.194053 0.230187 0.784541
H 2.89058 10.0548 2.20626 -0.934744 -0.448122 0.198966
H 12.3777 4.12777 9.67794 0.126306 -0.477065 -0.849793
H 1.0445 1.53247 7.96413 0.270956 -0.323682 -1.312242
H 1.14262 0.31797 0.46278 0.484684 -0.329183 0.408348
H 5.8103 4.33185 1.19673 0.355872 0.738567 1.062062
H 6.01455 11.6748 8.02661 -0.199338 -0.23436 -1.186578
H 10.8888 9.66994 9.53021 -0.589133 -0.256399 -0.721609
H 3.07691 7.04372 0.12108 0.472946 0.187962 -0.006147
H 9.97596 3.45206 0.15816 -1.980999 1.077225 -1.626851
H 1.23541 10.3859 5.92368 0.049929 -0.194831 -0.352044
H 4.23207 6.61521 4.64893 0.3545 -0.280705 0.038615
H 1.82612 1.70226 3.13709 -0.255522 -0.901255 0.138534
H 0.746 9.55248 4.61798 0.391186 0.492919 0.194058
H 7.21182 7.20508 0.0178 -1.069444 0.513899 -0.508439
H 8.4381 1.79814 6.81452 -0.326387 -1.575033 -1.652192
H 7.87261 6.87549 5.84405 0.302519 -0.29914 0.199186
O 6.74896 2.76047 0.33733 -1.503072 -0.491356 0.518742
O 9.45632 11.4751 11.4702 0.449659 1.044351 -0.919695
O 7.79478 6.94457 6.83139 -1.223854 0.661724 -0.281765
O 1.79032 7.41039 6.77405 0.135677 -0.553007 0.36489
O 3.47991 4.24879 11.9991 -1.195504 1.141298 0.409596
O 5.95828 7.58048 10.9428 0.284729 -0.071513 0.11252
O 6.24702 11.7909 6.4298 -0.219512 -0.049371 -0.94093
O 11.6034 7.27299 11.165 0.763924 -0.598192 -2.822234
O 0.21022 0.59635 0.32108 0.079593 0.893683 0.053304
O 7.88079 6.58875 0.29039 1.466847 -0.843403 0.349643
O 3.75293 2.98922 5.05686 0.831138 -0.621227 -0.695165
O 11.5016 4.19146 1.09971 -0.585937 -0.011239 2.084493
O 9.05749 12.2596 3.19246 -1.903559 -1.15119 -0.443289
O 4.77072 9.97196 4.72384 -0.944383 1.472501 0.680422
O 11.282 7.5745 3.79279 0.684398 -0.029566 0.437655
O 4.16967 1.03375 6.8296 2.056945 -0.356997 -0.715018
O 3.38861 1.82873 9.58538 0.903905 -1.056983 -0.099156
O 3.65641 10.5911 2.39708 0.759963 0.536591 -0.419347
O 10.7412 10.105 6.51824 -0.142408 0.216375 -0.417697
O 10.1438 1.33632 10.1575 -0.350922 -0.34179 0.267294
O 10.5029 3.84153 5.98261 -0.308674 -0.585356 0.65986
O 8.2906 6.73602 4.16841 -0.238409 0.060596 0.027963
O 9.14598 3.42591 11.9052 1.88473 -1.270326 1.148686
O 5.2703 5.22775 4.48676 -1.818025 -0.413724 2.215038
O 3.94296 8.96335 10.8915 -1.496294 1.246311 -0.528318
O 11.3909 3.57192 3.71698 0.9656 0.223008 0.098799
O 7.35347 12.2635 1.17478 1.761791 1.931318 0.159025
O 10.3927 6.70111 1.02924 -0.816711 -0.076704 1.815353
O 11.1079 6.53293 6.32882 1.716783 -0.747744 -0.520791
O 3.5785 6.86135 0.93611 -1.368057 -0.018418 0.234934
O 2.0267 6.93638 10.7905 0.29136 0.538993 -0.209506
O 9.7553 9.59378 4.22579 0.098231 0.468307 0.062228
O 0.85102 9.53327 5.63101 -0.327693 0.354112 -0.383878
O 3.78515 5.30036 8.52427 -0.3756 0.902934 0.211008
O 6.25524 4.80007 10.4798 0.432085 0.276822 -0.888765
O 2.05527 7.50641 2.8486 -0.129067 -0.243769 0.469595
O 0.57869 3.13166 11.6204 -0.201336 0.159765 0.303236
O 2.13634 4.39298 6.21258 0.09638 -0.30584 -0.039843
O 5.38831 7.9512 7.40582 -0.971925 -0.198799 0.02272
O 0.65844 1.43367 8.82118 -0.563623 1.148974 1.231953
O 11.4501 9.95351 10.2422 0.403056 0.221454 0.433936
O 11.2366 1.02376 2.48099 -0.306689 1.057661 0.954137
O 7.11912 9.18993 3.66353 0.846612 -0.01622 -0.712294
O 5.9703 11.713 8.98668 -0.18302 -0.233183 1.405772
O 0.94893 9.73586 2.96117 -0.189339 -0.139383 0.240389
O 2.5289 2.29965 2.87245 0.70795 -0.811993 -0.389704
O 1.10476 12.239 3.60678 3.300598 -1.260653 1.387789
O 12.2254 4.5235 8.78941 -0.327075 0.117781 -0.16724
O 3.65103 7.39996 4.8266 -0.143861 -0.267388 1.279199
O 5.99097 9.97329 1.21894 -1.073331 -0.485163 -0.29358
O 1.75443 0.13368 6.29452 -2.775001 -1.179783 -1.252167
O 6.70409 1.53265 9.97636 0.745854 -0.758233 0.391901
O 1.15019 11.0569 9.28421 -0.204761 0.24769 1.418099
O 9.62884 8.36426 8.10446 -1.053122 -0.353171 -0.052471
O 7.72105 9.55725 9.90652 0.237222 1.136665 -0.068125
O 1.56608 4.70464 3.64547 -0.407277 0.698042 -1.447413
O 5.80517 5.10877 1.83803 -0.585866 -0.09372 -1.855584
O 2.7508 0.22767 1.00847 0.167382 1.976427 -0.252184
O 8.58725 0.22628 5.61314 -0.501303 0.46161 -0.968818
O 3.40063 11.5302 10.3224 0.06778 -1.109058 -2.072959
O 8.49381 2.27511 7.61337 -0.022615 1.448395 1.828515
O 8.32866 4.97492 8.66943 0.128808 -0.303675 0.265949
Na 10.7682 6.40486 8.84185 -0.133387 -0.187227 -0.08154
Na 5.13729 2.95516 10.8497 -0.390516 -0.096449 0.181331
186
energy=-1002.98060783 config_type=nep2xyz pbc="T T T" virial="-0.2122402648640321 -4.426331117310692 -3.470886968984176 -4.426331117310692 -13.254062409689848 1.3630739791452744 -3.470886968984176 1.3630739791452744 -13.79554581489552" Lattice="12.4 0.0 0.0 0.0 12.4 0.0 0.0 0.0 12.4" volume=1906.6240000000003 Properties=species:S:1:pos:R:3:force:R:3
H 8.55379 9.86294 10.1177 0.012544 -0.558876 -0.759643
H 10.9411 9.00408 3.2631 0.144882 -0.750258 -1.393527
H 6.48794 4.92304 4.99072 0.568608 -1.001003 -1.04023
H 9.48398 10.5257 6.6853 0.037862 -0.271082 -0.180348
H 0.98757 1.70035 3.79394 -0.969691 0.259877 -0.04861
H 2.03486 6.58012 3.21594 -1.757547 0.204444 -0.474744
H 11.2821 2.64047 3.29597 0.569359 -0.781526 1.113584
H 10.7391 8.07737 7.50817 0.314573 -0.227879 0.220227
H 7.12244 3.57476 3.16781 0.79005 0.253049 -0.708199
H 0.13183 9.78072 10.5425 -0.67371 0.981013 0.485288
H 6.54039 7.41642 10.6481 0.158192 -0.426401 -0.451221
H 3.2222 1.22275 7.45408 -0.000842 0.22121 -0.540986
H 0.42489 8.74348 7.26558 0.053845 -0.289239 -0.039959
H 0.2227 9.71828 4.94698 -0.799519 -0.258459 0.234242
H 0.89159 9.08957 9.40083 -0.529752 -0.508332 1.905571
H 2.85019 12.2698 1.4658 -0.251014 -0.56212 -0.231808
H 8.41634 10.0509 2.41721 -0.784669 0.110084 0.294842
H 4.28747 9.13768 1.91559 -0.590974 -0.87974 0.093024
H 4.93605 10.6741 4.93293 0.100861 -0.36292 0.022711
H 5.60082 10.0605 8.89707 0.185922 -0.980063 -1.106003
H 2.69839 8.07372 0.36692 0.62284 0.595203 0.533666
H 3.21652 6.43129 4.19785 -0.518526 0.104469 -0.739123
H 6.88681 8.2251 0.47752 -0.963297 0.247295 -0.455623
H 11.8371 10.2505 1.57401 0.620188 0.743819 -0.321481
H 6.32707 5.12408 6.47627 0.194646 -0.327607 1.468532
H 10.7666 5.18589 3.67683 0.374485 0.670536 0.218855
H 6.54212 12.1251 9.6848 -1.466951 -2.655372 0.910145
H 12.1205 7.35854 2.33409 -0.444084 0.497539 -0.128169
H 3.84564 0.16152 11.7246 -0.158803 0.728156 1.164104
H 2.3344 2.39872 3.33394 0.085898 0.080868 0.054463
H 0.77828 11.2282 1.62682 -0.443087 -0.01901 -0.051972
H 7.80737 4.3983 1.13678 1.664164 3.271022 -0.563916
H 0.33504 5.00731 8.06676 -0.190381 -0.333278 0.329472
H 5.86781 3.3621 8.78764 -0.719068 -0.874839 0.501019
H 7.61449 4.52873 8.38348 1.109477 -0.26864 -0.17219
H 7.82814 9.36092 5.5467 0.572376 1.933825 -0.169531
H 0.72502 10.8971 7.81986 0.533335 -1.512814 -0.544853
H 8.68005 1.13661 0.15463 0.554458 0.087612 0.442785
H 3.18101 5.455 12.3459 0.014257 0.10766 0.205104
H 2.17493 11.4216 10.0013 -0.577343 -0.670421 0.366577
H 5.8432 3.17092 0.47636 0.11157 0.116661 -1.130835
H 9.45493 1.08629 1.57117 0.028004 0.106972 -0.28048
H 8.20458 10.6787 3.90664 -0.301633 -0.037002 -0.348721
H 9.58697 5.5877 1.74145 3.026337 -0.957894 2.838304
H 4.04034 8.45986 8.20516 -0.882717 -1.262527 -0.25868
H 3.01616 7.33394 8.87456 0.205786 -0.446572 0.54695
H 6.94617 11.8823 2.40078 -0.351344 0.094252 -0.045371
H 5.28632 8.12939 0.31322 -0.367629 -0.114168 0.634174
H 3.84261 4.00562 12.31037 -1.163632 1.012778 1.130765
H 11.1677 3.58391 11.947 0.998326 0.501383 0.363888
H 10.5482 4.21959 8.16522 0.637748 0.976637 0.085036
H 8.26157 0.5314 8.30216 -2.06919 -1.095727 1.432127
H 9.50374 6.1008 11.8859 -0.302976 -0.012673 -0.984162
H 9.43305 3.50023 7.36845 -0.03154 0.026442 -0.125897
H 12.1303 12.003 10.5206 -0.389199 -0.361731 0.466428
H 11.4523 8.9698 5.65424 0.154596 -0.96251 0.994218
H 8.59871 1.23911 6.99729 0.691659 0.20297 0.462088
H 4.28495 5.91477 5.77707 0.074889 -0.451878 0.441728
H 7.92686 2.91706 1.20256 -0.004845 -0.614194 0.14746
H 11.6963 5.36812 2.38763 1.348742 1.163188 -0.198844
H 9.58017 11.8799 7.31673 0.092088 0.499195 0.580351
H 3.54076 4.41216 3.37399 -0.058599 -0.323071 -0.329912
H 9.95086 2.3338 5.30525 -0.191728 0.142387 -0.340202
H 1.38566 3.56286 7.23166 0.064723 0.485179 1.067684
H 5.60318 1.15083 3.30682 -0.095632 -0.476849 -0.229104
H 5.65623 0.16676 1.50294 0.943363 -0.526244 1.16818
H 9.85907 2.77304 12.3056 1.051427 0.647356 -1.217081
H 6.38435 2.67355 4.10502 0.837168 0.10216 0.504994
H 12.3354 1.97069 5.87088 -0.508264 0.570356 -0.894039
H 5.40412 10.2771 7.33596 -0.261193 0.441884 -1.169314
H 8.94392 9.15707 0.13594 0.141389 0.583216 -0.180959
H 9.41958 5.27517 10.5865 0.319468 0.614779 0.113785
H 12.0177 11.388 11.981 0.226435 0.099465 0.95683
H 10.1511 5.31164 5.79495 -0.245355 -1.171489 0.61462
H 7.8622 6.68667 10.3997 1.221455 -0.223387 0.33363
H 7.21556 10.8031 5.72823 -1.622971 0.677428 0.417638
H 11.6394 11.291 8.15118 1.128884 0.272061 -0.558235
H 6.47345 1.16904 9.24081 0.115538 0.401594 0.03666
H 4.56326 2.40382 3.61383 0.358883 -0.245293 -0.589479
H 5.34492 2.79854 11.3017 0.555206 0.173263 -0.088745
H 9.14095 10.2552 8.67903 -1.187436 -0.792355 0.387478
H 11.1142 12.1449 2.00376 0.391231 -0.685228 -0.556542
H 8.09684 0.25233 10.5713 1.684546 -0.36599 0.956664
H 0.35746 1.65313 9.11418 0.802859 -0.084298 -1.076029
H 8.75261 7.0066 5.70788 -1.034071 0.503263 -0.363043
H 8.45768 2.88132 4.97669 0.05291 0.117358 -0.534362
H 2.63379 2.50761 8.1687 0.17966 -0.201446 0.21507
H 2.46452 4.62827 7.23379 0.059211 0.182042 0.519762
H 4.31936 1.48556 0.17969 -0.39284 -1.243341 -0.295845
H 1.48231 4.43081 11.74 0.006421 0.10107 0.055347
H 4.6419 2.26485 8.63478 0.13264 0.238031 0.548333
H 9.28421 11.8356 11.4458 -0.019894 -0.618541 -0.226405
H 4.66308 11.0646 10.5478 2.09942 -1.861216 0.076656
H 6.76609 5.60191 9.04564 -0.398408 0.555638 0.381674
H 3.81267 7.61463 2.13245 -0.245146 0.047219 0.342965
H 1.85692 5.6074 9.90859 1.122626 0.542342 -0.045861
H 9.96328 8.37452 2.14456 -0.560956 0.271279 -0.24317
H 1.58795 8.4858 11.7092 -1.112227 1.996271 -1.611591
H 3.19759 6.53792 6.65496 -0.004238 0.943275 0.79815
H 11.7949 6.1794 7.67413 -0.684319 -0.852656 1.236499
H 7.95486 7.99886 2.49914 -0.322944 -0.001108 0.272417
H 9.67486 11.8232 2.64196 0.173756 0.271827 -0.09795
H 2.27524 6.81736 10.784 -0.125589 0.521159 0.711185
H 1.95797 8.79529 7.62621 1.540794 -1.27469 0.228352
H 0.73064 7.15187 1.15823 -0.184671 -0.575256 0.979093
H 10.1641 9.19529 11.6174 0.084292 0.275774 -0.197016
H 5.73844 9.93494 11.222 -0.178031 -0.288607 0.32539
H 7.1233 6.96996 5.70242 0.340818 -0.380009 -0.272365
H 12.37818 2.33928 10.4318 -0.011426 -0.223637 -0.336033
H 4.30929 1.30841 5.26966 0.345711 -0.593452 0.500271
H 2.19114 0.38926 2.70441 -0.52275 -0.903702 0.164972
H 2.98177 0.09572 9.33465 0.322139 -0.151267 1.158707
H 10.7816 6.73292 6.01777 0.145348 -0.104538 -0.520264
H 0.30743 5.01149 10.8198 -0.01522 -0.068938 0.214773
H 11.2157 1.08682 3.56476 -0.132371 0.52083 0.042852
H 2.97183 0.85201 5.18774 -3.281412 -0.108271 -2.133713
H 0.50242 1.00344 6.86572 -0.640311 2.02531 0.561718
H 3.59142 10.8904 2.85577 -1.386214 0.370678 0.00254
H 4.68673 11.7775 5.88667 -0.481137 0.763028 0.259662
H 8.6856 6.72997 1.22295 0.104149 -0.30912 0.213547
H 3.25986 3.85704 1.95907 0.859961 -0.215879 1.215529
H 5.05756 11.0998 2.84119 0.228606 -0.200107 0.306426
O 5.57943 9.60097 7.98479 0.032829 -0.501556 2.403012
O 5.23726 1.77954 3.97973 -0.816075 0.687162 0.796827
O 0.25763 2.0054 6.76989 1.091598 -2.620883 0.425607
O 11.6588 9.55035 4.92283 0.553845 1.003046 -1.4106
O 3.94978 8.30906 1.46006 0.749985 0.760141 -0.098991
O 7.04152 6.91804 9.94061 -1.244296 0.778876 0.421191
O 8.99074 0.83023 7.80473 1.533025 1.947971 -2.360322
O 9.3988 9.73097 11.8695 -0.418662 -0.623286 0.474846
O 1.91735 1.55009 3.59527 0.842717 0.279613 0.416151
O 6.10899 8.27003 12.2247 1.601635 0.200006 -0.212786
O 3.34675 5.81703 6.03915 0.227845 -0.502369 -1.00146
O 11.8098 5.28107 8.22595 0.810189 1.473161 -1.168793
O 12.1238 1.62602 9.80903 -0.54874 0.316235 1.435594
O 10.3887 3.23457 11.5423 -2.176231 -1.269969 0.918526
O 10.3123 0.1428 2.3883 -0.533208 -0.145273 1.048242
O 3.60135 3.55896 2.88727 -1.08012 1.067783 -1.098187
O 10.9819 4.89258 2.78087 -1.753924 -1.924885 0.128455
O 5.58227 10.5554 10.492 -2.161854 2.237467 -0.502852
O 0.17599 11.6257 8.07457 -1.466376 1.691418 0.818658
O 1.96996 7.79863 12.203 0.293194 -2.870567 1.235941
O 3.13365 1.66895 8.31853 -0.148604 -0.045866 0.06902
O 8.95225 5.76907 1.11643 -2.970573 1.579472 -2.897634
O 3.98689 0.52036 0.24797 0.539638 0.498366 -0.66202
O 8.95381 0.29117 11.1512 -1.427218 0.934314 -0.936491
O 3.11694 4.59375 0.38475 1.018963 -1.25654 -1.203314
O 8.10373 10.8632 2.92811 1.112177 -0.064243 -0.452515
O 10.3119 6.10574 5.30862 -0.032984 1.397952 0.157719
O 9.17072 2.79278 5.65005 0.435833 -0.262467 1.074428
O 9.60938 3.95932 8.21245 -1.092135 -0.988716 0.0087
O 0.80281 4.21904 11.0744 -0.444342 -0.30651 -0.123765
O 1.86665 4.17203 7.87823 0.018102 -1.108328 -2.02704
O 10.9008 8.6266 2.31193 0.799457 1.009124 1.904816
O 3.64956 0.76309 5.79389 2.753673 0.555764 1.788517
O 2.60203 6.24197 10.0779 -0.760261 -0.980957 -0.542251
O 6.74738 4.92642 8.33455 -0.609985 -0.676597 -0.484942
O 12.2476 11.1181 1.27688 -0.126522 -0.805998 0.683865
O 9.89799 10.9659 7.44355 0.574067 -0.853211 -0.237692
O 6.15276 5.53315 5.63651 -0.872774 1.239189 -0.342708
O 11.5956 1.92818 3.93944 -0.520322 0.582958 -0.921696
O 6.07707 12.3982 2.40634 -0.608105 0.180189 -1.627618
O 11.4713 7.65794 7.02731 -0.297137 0.211445 -0.471016
O 0.62453 8.96941 10.385 1.059304 -0.155939 -2.643201
O 8.92902 1.67737 0.96013 -0.489935 0.391057 -0.653798
O 3.00944 11.8726 10.1227 0.521895 0.991936 -1.270326
O 8.3243 8.41834 1.71912 0.201847 -0.254442 -0.603053
O 4.38643 10.4532 3.17294 1.118809 -0.265133 -0.172543
O 1.22294 9.32827 7.37287 -1.619535 1.041014 -0.246939
O 7.90102 7.56251 5.79791 1.007048 0.013231 0.391765
O 3.33141 7.74338 8.04941 1.022843 1.68186 -0.664637
O 8.02862 10.386 5.49113 0.955886 -3.124343 -0.185827
O 9.43076 6.21146 10.8853 -0.03547 -0.861355 0.8182
O 7.08891 0.39069 9.34926 0.282974 2.105985 -0.510931
O 11.7892 11.2524 11.06 0.06553 0.417618 -1.686211
O 7.23444 3.24794 4.07272 -1.213786 0.287092 0.194534
O 8.43133 9.67632 9.15124 1.24474 1.16707 0.48496
O 5.24108 10.9951 5.80995 0.423257 -0.288881 -0.627176
O 2.27642 11.9129 2.19251 0.735238 0.737289 -0.496852
O 7.28192 3.65928 1.28012 -2.232593 -2.785887 0.610701
O 5.10334 2.92045 12.2324 -0.436402 -0.031602 0.791052
O 0.38827 6.73291 2.00567 0.936608 0.115723 -0.96635
O 2.97008 6.46191 3.23495 2.193485 -0.46054 1.212171
O 5.44343 2.52555 9.17176 0.887869 0.746994 -0.466494
Na 9.94795 2.02846 9.60572 0.098061 -0.016271 0.0841
Na 7.50118 8.04391 8.02973 -0.290288 0.375156 0.206034
186
energy=-1001.385261 config_type=nep2xyz pbc="T T T" virial="3.0236651358552056 0.0077232370000985045 -2.0544762437149555 0.0077232370000985045 2.2120231383903084 -0.8657403570988694 -2.0544762437149555 -0.8657403570988694 -5.307113341232557" Lattice="12.4 0.0 0.0 0.0 12.4 0.0 0.0 0.0 12.4" volume=1906.6240000000003 Properties=species:S:1:pos:R:3:force:R:3
H 11.2059 10.6067 10.7094 -0.961235 0.129006 -1.223101
H 10.6776 10.0792 3.85884 -0.128729 0.372678 -0.081165
H 6.39374 5.97036 6.18332 0.655971 0.337805 -0.120704
H 6.46782 11.7515 6.03528 -0.424541 0.525522 -0.151443
H 11.1647 0.50711 2.07963 1.023947 0.27596 -0.713622
H 1.80459 7.40519 6.9741 -1.904273 0.72365 -0.051687
H 2.8217 4.87321 11.3022 -0.043376 0.202405 0.206096
H 0.85858 8.60502 10.7619 0.023267 -0.109579 -0.91445
H 9.70665 10.5634 5.63806 0.034743 0.206826 0.648919
H 8.97602 11.0908 0.69719 0.400476 -0.054399 0.127921
H 4.32539 9.25903 11.0349 0.840014 -1.637975 -0.585034
H 2.93052 1.5256 5.98086 -0.067477 -0.963383 0.016927
H 0.38063 11.2951 7.18285 0.331303 0.353801 0.101288
H 2.79076 6.3526 7.41299 0.319857 -0.070157 -0.274713
H 12.1809 7.48579 2.82029 -0.583058 -0.632307 -0.578444
H 5.95402 6.84845 3.99726 -0.703612 -0.848892 1.438362
H 5.35287 7.85936 6.53426 -0.422691 0.59359 0.380477
H 4.01074 6.97626 0.994 0.242113 -0.224859 -0.234453
H 7.72478 12.0852 1.95265 0.098844 1.151088 -0.008825
H 4.71685 11.0061 0.2107 -0.408348 -0.318721 -0.311604
H 12.2954 2.4238 7.99887 -0.118025 0.089237 0.488983
H 1.94663 4.71659 3.13382 1.609563 -0.418934 0.461822
H 7.33289 10.6513 1.82668 -0.091835 -0.401463 0.295888
H 1.81673 9.18308 0.66361 -0.540827 0.112119 -0.536035
H 5.03976 5.47329 5.6908 0.267241 1.349001 0.050272
H 10.0859 6.4016 10.6915 0.663113 0.695541 -0.348985
H 7.43903 10.9052 9.66668 0.091682 -2.115847 -1.281415
H 11.4396 4.53335 0.86701 0.102025 0.450006 0.252054
H 1.98055 1.27152 0.19455 -0.206263 0.092018 0.046032
H 11.0638 5.80311 5.58221 -1.384767 1.205237 0.17931
H 10.4884 11.4297 0.79437 -0.07049 -0.130319 -0.191443
H 6.59233 3.03493 11.1441 -1.381899 0.887832 -0.233325
H 11.3058 2.11581 10.4892 0.107145 0.36639 -0.348096
H 5.30655 3.42704 9.02229 -0.280778 -0.649921 0.364983
H 9.31256 3.35192 9.27702 -0.531941 -0.961339 0.106969
H 5.66064 2.86866 3.11751 -1.395861 0.137561 0.510473
H 12.3477 8.18138 7.89192 -0.627957 -0.393443 -1.010952
H 6.79502 4.5373 9.76381 0.527288 1.671835 0.038258
H 3.38399 2.50838 2.26324 0.621619 0.188785 0.821874
H 4.0326 0.37217 10.3194 0.173359 0.398263 -0.31699
H 11.8115 11.3365 8.92011 0.321113 -0.165884 0.272344
H 7.8282 5.61316 10.3004 0.753895 0.161562 1.164796
H 10.3403 7.87572 0.92076 0.024952 1.303759 -0.654496
H 7.90031 3.60487 11.9107 0.184484 0.899174 0.296951
H 4.93024 10.054 5.71142 -0.04876 1.380231 -0.413625
H 4.82056 10.7752 4.24092 0.525152 -0.052245 2.5566
H 7.7564 5.71663 0.14237 0.804325 0.175997 -0.880214
H 6.28402 4.68725 1.77963 0.366684 -0.619044 0.021776
H 3.50728 2.52256 3.88895 -0.128331 0.201822 -0.406236
H 9.84064 0.09512 6.92663 -0.047002 -2.453252 0.650673
H 7.9498 4.26781 6.00118 -0.350697 -0.951284 -0.279283
H 0.15137 4.43526 4.26728 -0.018899 0.778932 -1.17079
H 1.70152 2.97266 6.59337 -0.02182 -0.09943 -0.235034
H 8.77073 3.09675 5.32168 -0.624736 -0.042283 -0.04073
H 2.56138 9.7846 11.99 0.373848 0.218729 -0.626449
H 9.36953 7.95971 7.51376 -0.538134 0.497909 0.948522
H 0.0727 4.22441 5.76932 -1.276598 0.588871 -0.956335
H 2.96363 5.17316 8.87457 0.232129 0.438451 1.535961
H 4.62375 3.92376 10.8072 0.652009 -0.679862 0.089127
H 9.99568 7.49961 9.61668 -0.321445 0.513014 -0.590075
H 7.90439 11.5085 6.41891 -0.443604 1.342415 0.264348
H 10.0017 6.86672 4.94043 0.042223 -0.319349 1.070444
H 10.5101 2.74352 1.62791 -0.811174 -0.455487 0.016096
H 1.89412 6.99704 10.0389 -0.437919 0.009838 -0.205479
H 6.04624 9.14087 8.2381 -0.473336 0.307708 -1.563898
H 7.4123 1.78213 0.59052 0.093095 0.416935 -1.376015
H 9.92985 1.16884 5.96962 0.391919 1.080876 -0.21707
H 9.89904 9.97535 7.07557 -0.238852 0.530694 -0.029392
H 0.09648 11.0755 3.38622 0.652248 1.647548 -1.444067
H 5.66129 12.0079 0.76578 1.906405 2.180035 -0.541924
H 9.76092 7.27718 2.31016 1.213884 -0.406438 -1.746713
H 1.47614 4.0638 7.58429 -0.23656 -0.502511 -0.206114
H 12.2838 0.29424 8.47713 -0.084853 1.897869 0.129801
H 8.21531 8.56963 8.52087 -0.934292 0.157059 -0.251001
H 3.5998 10.5735 10.5319 1.218338 -0.665491 0.9372
H 6.96412 3.07199 4.05734 -0.167923 0.027444 0.250459
H 11.6743 7.58936 6.44856 -0.245376 0.006744 0.783746
H 6.68176 11.8124 10.4677 -0.129082 0.710489 0.187333
H 6.15772 8.49745 9.54193 0.562348 0.899168 0.40669
H 1.67487 0.0006 11.8518 -0.085944 -0.753954 -0.21481
H 10.2417 10.0389 9.59185 -0.006192 0.056724 0.06108
H 9.29469 8.43827 3.8166 0.433075 1.003651 0.278096
H 10.9252 3.05653 4.80172 -0.443612 -0.160608 0.142322
H 0.18114 10.5398 4.92682 -0.046724 0.723342 -0.394598
H 8.023 5.85399 7.78666 -0.128455 -0.333345 0.374607
H 9.19599 1.83987 1.93828 -1.077463 -0.021941 -0.626564
H 3.898 2.61432 6.33402 0.352309 0.380958 0.150269
H 3.44248 6.93924 10.1911 -0.289115 -0.838035 -0.217557
H 3.97983 1.50161 12.2084 1.030783 -0.896623 -1.477699
H 2.33526 8.37207 2.30022 -0.752641 -0.412501 0.623675
H 6.00309 4.16545 7.93474 0.567066 0.991652 -0.789331
H 10.0672 2.30699 3.75929 0.081684 -0.36691 -0.86729
H 5.55667 8.97087 3.21647 0.635482 -0.440451 -0.330111
H 8.2065 2.57804 10.1494 0.929277 0.30606 -0.620287
H 3.91344 5.25269 0.0182 -0.564053 0.101774 0.042838
H 5.99801 6.75594 10.1758 -0.369051 -0.648608 0.546889
H 9.2335 10.5246 3.2962 -0.644171 0.784785 -0.804218
H 10.9422 1.68589 8.17076 -1.311545 -0.229292 -1.057908
H 3.75485 3.92676 8.10004 -0.091241 1.376248 0.242291
H 11.9747 1.26302 11.5491 0.125771 0.677863 0.49369
H 4.2438 8.52693 7.3664 -0.424459 -0.233301 -0.223509
H 8.28455 7.34177 3.58594 -2.38873 -0.812629 -0.151168
H 4.87477 6.9437 11.5094 1.291809 -0.171258 -0.224237
H 0.40802 9.8842 6.71757 -0.012889 -1.149295 -0.199741
H 11.2936 3.2651 12.3389 -1.226522 0.830478 0.802648
H 9.18536 6.10469 0.35117 0.590984 0.279682 -0.391278
H 5.16121 10.2225 2.15229 0.024773 -0.323239 1.1366
H 8.96662 5.96212 6.504 0.212394 0.279816 -0.138874
H 6.97241 1.82467 2.03371 0.106238 0.348737 0.91264
H 0.14146 0.24972 1.11887 -0.812209 -0.031709 0.734947
H 6.38104 6.50933 2.52719 0.029094 -0.401253 -0.597625
H 5.10647 1.55596 10.7922 -0.747178 0.027856 -0.847255
H 12.1607 7.64755 10.2159 0.041618 0.034611 -0.474192
H 0.23538 8.63729 3.66277 0.386525 0.428249 -0.292185
H 3.33242 2.91129 0.21283 0.32543 0.685986 -0.798517
H 2.27264 11.5697 6.31303 -1.122769 -0.298878 0.384311
H 2.10875 11.4179 9.16038 0.93547 0.2883 0.717845
H 3.82026 8.89315 2.28963 -1.195582 -0.724652 -0.751931
H 3.68717 11.7326 5.89247 0.467531 0.394638 0.642081
H 5.74427 5.79933 0.82583 -1.176694 0.682918 -0.312785
H 1.19487 5.54414 2.14633 -0.049169 0.470581 -0.230475
H 3.22001 11.9106 8.38402 0.947189 0.224485 -1.244372
O 5.02155 11.4093 1.04435 -1.378424 -2.065162 0.909032
O 6.60969 9.2153 9.00928 0.51838 -1.013804 1.690567
O 3.09592 11.5924 9.28407 -2.31197 -0.47249 0.299666
O 2.70812 7.18576 6.9148 1.745452 -0.406179 0.106333
O 4.56896 6.37439 0.45477 -0.637596 1.229686 -0.594208
O 4.04055 10.1016 11.3311 -1.224702 2.271255 -0.84391
O 11.8999 4.59248 4.96315 1.45324 -1.582099 2.568572
O 8.59081 5.95562 11.986 -1.355711 -0.603086 0.842638
O 11.8815 12.2834 1.7841 -0.232357 -0.469286 0.060907
O 6.57746 5.34063 1.13623 1.481238 -0.568098 0.840164
O 3.08522 4.66879 8.07559 -0.647465 -1.106885 -1.616663
O 11.2487 1.92661 11.447 0.280675 -1.248892 -0.714569
O 12.1933 10.452 4.00769 -0.695176 -2.118028 1.866605
O 9.88754 1.02922 6.93087 -0.233596 1.511469 -0.146579
O 9.18703 7.46182 3.82342 1.383113 -0.095616 -0.520409
O 10.37 6.54839 5.84464 1.367984 -1.156942 -0.992722
O 10.6424 7.0026 10.1257 -0.590734 -1.331957 1.127239
O 4.9839 9.72483 3.03941 -0.370215 0.963043 -1.32239
O 12.0463 8.34665 6.95807 0.75462 0.460083 0.870254
O 11.6983 1.9812 8.6629 1.346093 0.389474 0.628296
O 3.10524 2.4664 5.80448 0.016548 -0.012158 -0.095017
O 7.51216 2.8552 11.4704 1.034146 -1.666833 0.52012
O 3.49962 1.98192 0.45684 -2.011624 0.494354 2.59719
O 10.205 2.38234 4.71853 0.311953 0.668442 0.606452
O 3.74695 2.98385 3.05929 -0.159813 -0.303141 -0.308174
O 10.271 7.07664 1.40925 -0.827039 -1.052342 2.539081
O 9.16275 8.49667 8.32153 1.499056 -0.483334 -0.599007
O 10.1272 1.93863 2.11384 1.394455 0.359295 0.601938
O 7.83583 3.35084 5.60057 0.923035 0.630687 0.303277
O 0.56812 7.97881 3.02661 0.331794 0.236471 0.472392
O 2.64184 6.36537 10.0597 0.738526 0.642327 0.175019
O 9.68049 9.9487 3.90608 0.788108 -0.737365 1.155159
O 3.00823 12.16 6.50811 0.660865 0.397814 -0.473687
O 5.30358 7.30444 10.5825 -0.989013 0.621345 0.182337
O 8.81979 2.49842 9.32059 -0.17506 0.510912 0.421237
O 1.62849 9.60188 12.189 -0.529047 -0.417221 0.720893
O 7.23402 12.2563 6.37567 0.671123 -1.779482 -0.088392
O 5.60108 6.2953 5.71744 -0.831613 -1.492805 0.093958
O 3.33188 4.47148 12.022 -0.084603 -0.633767 -0.320679
O 7.48638 1.28506 1.40139 0.069031 -0.985221 0.315048
O 0.56959 8.13808 9.91514 0.134495 0.358905 1.423808
O 9.7924 11.1204 0.16104 0.452707 0.334189 0.059366
O 7.28955 5.41159 9.54229 -1.383879 -1.512226 -0.882637
O 4.6953 0.67198 10.9649 0.957749 -0.234118 0.607739
O 5.11919 8.71665 6.99725 0.148572 -0.588244 -0.852706
O 3.11324 8.38192 1.74379 1.409477 0.758454 0.511543
O 0.76763 10.7385 6.45744 -0.046621 0.085151 -0.887802
O 8.05346 5.74547 6.82361 -0.196007 0.047067 -0.051656
O 4.91247 10.9782 5.28556 -0.080232 -1.575989 -1.674375
O 6.61224 2.91187 3.15926 0.851793 0.220575 -0.572787
O 0.9406 3.3944 7.05979 0.179571 0.818324 0.112006
O 7.56242 11.738 10.0715 -0.102548 1.580159 1.121554
O 0.21828 11.8144 8.60051 0.372867 -1.06362 0.202086
O 9.70664 10.8166 6.60766 -0.007516 -1.022162 -0.85894
O 10.7006 10.8498 9.87591 0.391141 -0.752022 1.284693
O 8.03134 11.2014 2.20214 -0.357658 -0.671122 -0.294889
O 6.4603 7.13495 3.25783 1.079357 1.645298 -0.833286
O 5.34354 3.3723 10.392 -0.128934 0.198435 0.00833
O 1.20339 0.69421 12.3117 0.342595 0.562893 0.093327
O 10.777 3.91556 0.55435 1.14649 -1.051188 -0.817339
O 1.10247 4.7932 2.72975 -1.269687 -0.308457 -0.286919
O 5.36049 3.47038 7.94974 -0.001636 -1.153998 0.044786
Na 9.5958 0.24383 10.8395 -0.451654 0.10077 -0.032304
Na 7.70319 1.80309 7.40816 -0.067454 -0.037781 -0.078221
186
energy=-1002.52232908 config_type=nep2xyz pbc="T T T" virial="-8.8975260304463 -2.8971539917133766 -4.699476662554545 -2.8971539917133766 -24.352282577564836 0.9905021702098596 -4.699476662554545 0.9905021702098596 -17.65973476054111" Lattice="12.4 0.0 0.0 0.0 12.4 0.0 0.0 0.0 12.4" volume=1906.6240000000003 Properties=species:S:1:pos:R:3:force:R:3
H 10.6248 1.41825 7.81455 0.517583 0.275072 -1.040071
H 8.79948 9.50347 4.88404 0.130928 0.150851 0.121802
H 6.43006 6.06541 4.72064 1.024922 0.324989 0.347499
H 6.2998 11.7508 5.61329 0.534491 0.001948 0.249333
H 10.2041 2.01091 2.83763 -1.876275 1.521839 -0.898559
H 2.31049 6.94877 10.0058 0.683846 0.007302 0.54672
H 6.39769 9.2395 10.5369 0.211846 0.351464 -0.369961
H 1.44071 9.28118 9.89591 0.443292 -0.265417 0.443437
H 11.8894 10.268 10.3628 -1.199057 0.893232 -0.994864
H 10.901 9.38007 5.63119 -0.266285 0.247536 -0.591531
H 5.19057 11.3387 0.0015 -0.609867 -0.377564 0.155753
H 1.59522 0.49283 6.40115 -0.043645 0.677975 0.555555
H 11.3066 11.2369 6.75016 -0.089089 0.538849 -0.288925
H 2.82017 5.56193 9.52065 0.519732 0.309745 -0.180786
H 1.20261 9.87949 11.9621 -0.806231 0.699691 -1.479439
H 6.20025 5.91671 3.11871 -0.046718 0.329305 0.656124
H 3.36429 7.21044 5.4178 -0.873784 0.537366 0.296482
H 4.49753 8.42277 1.92771 -0.396729 0.318652 -1.06668
H 7.172 7.91104 2.30568 0.281802 -0.430716 -0.150107
H 6.31461 12.0547 9.79453 -0.271177 -0.414445 0.127536
H 11.8327 3.09157 10.9291 -0.554284 -0.234424 -0.597643
H 0.89726 9.18327 1.99701 -0.602948 0.265339 0.73888
H 7.92163 9.27295 1.88781 0.480502 0.182053 -0.556374
H 12.2309 9.85462 4.00272 -0.588366 -0.226441 0.245661
H 4.21963 5.51855 5.09474 -0.653992 -0.300738 -0.739422
H 1.05569 5.36131 0.62278 -0.655236 0.771316 0.413385
H 5.57729 1.47432 6.41138 -1.057641 -0.331502 -1.272007
H 2.524 3.9246 0.02117 1.499773 -0.408549 0.87126
H 11.9584 12.3291 1.15121 -0.418097 -1.305759 0.515315
H 0.91736 3.89687 3.50045 -0.064968 -1.066689 0.117108
H 10.4325 8.53725 4.36639 0.554833 1.317569 0.691377
H 4.16078 6.29173 11.0571 0.98542 0.591611 -0.310543
H 9.95015 11.7932 10.4768 0.018881 -0.172731 0.778874
H 4.28307 2.7372 10.0137 0.407227 0.214354 -1.588712
H 6.47399 3.5449 8.81495 0.838477 0.100735 -0.321578
H 3.23317 1.99463 1.82462 0.49498 1.050465 -0.881581
H 11.5606 5.48623 6.85515 0.643825 -0.379419 -1.090259
H 8.47675 8.69079 11.1204 1.211662 -0.37532 -0.184893
H 3.5889 12.1242 1.29205 -0.451591 0.056865 0.247003
H 4.22857 1.31235 12.2569 -1.552102 -0.191372 1.767403
H 0.37053 7.40676 6.26458 -0.679776 -1.17203 -0.170185
H 9.87065 7.88824 11.3677 -0.108976 -0.780362 0.044123
H 9.49211 5.84733 2.94056 0.461337 -0.425085 -1.317388
H 5.51906 5.64269 11.5018 -0.029912 0.261899 0.209305
H 4.23614 9.1522 6.77521 0.010035 -0.035603 -0.145203
H 5.34406 10.2472 7.06784 1.395677 0.561221 -0.740507
H 9.96517 5.92811 0.4616 0.055388 0.26897 -0.247342
H 6.15932 4.68529 1.26799 -0.486251 -0.192262 -0.636673
H 2.69316 0.14553 2.56266 0.428001 -0.253818 -0.48003
H 9.23202 3.60041 6.57041 -1.041462 -1.026574 0.016464
H 6.53176 3.66632 3.83345 0.194103 0.347716 0.120556
H 0.0362 2.04354 3.32357 0.539092 0.191831 -0.225107
H 1.02041 1.78886 7.28126 0.1241 0.137991 -0.678109
H 7.82169 2.82606 3.51472 0.188733 -0.053105 -0.854856
H 1.37575 10.1576 3.99462 -0.521801 0.076073 -0.319953
H 7.74979 7.3041 9.02895 0.622452 -0.675732 -0.688366
H 0.97514 1.89297 4.4795 0.64598 0.468998 0.3216
H 2.96088 4.87209 7.13748 -0.337502 -0.004923 -0.108587
H 3.75608 3.5924 8.71451 0.823076 -0.65856 0.131075
H 0.7399 6.91332 1.11127 -0.581645 -1.86835 0.155917
H 7.16421 10.3649 5.76657 -0.35896 2.241097 0.745396
H 0.63835 5.35574 3.03846 -0.150504 0.443197 -0.683444
H 9.07354 3.70887 2.03762 -0.21737 0.389356 -0.29577
H 1.95406 4.03122 8.08046 -1.285242 -0.44628 -0.682539
H 8.02367 7.69859 5.60528 0.158166 -1.475709 0.563569
H 6.6201 1.71217 11.6283 1.244716 0.846422 0.368314
H 7.83724 3.09675 5.87518 0.63738 -0.08303 0.1456
H 10.4315 9.77118 10.2048 -0.506968 -0.144455 -0.135442
H 11.0826 1.09363 5.16277 -0.782897 -0.432027 0.031168
H 7.8715 12.1816 10.3437 -1.367048 0.434685 -0.70452
H 8.26395 5.75962 1.93451 0.164982 0.16969 -0.457917
H 0.36706 2.90015 9.07533 -0.777543 0.038688 -0.23633
H 12.2266 8.83995 6.78089 -0.552879 0.346021 0.15432
H 7.68069 5.72536 8.94721 1.386967 1.416282 -1.554427
H 4.43448 10.0564 0.46978 0.029507 -1.354113 0.279313
H 2.77924 3.32792 2.38554 1.07228 0.018057 -1.382729
H 0.0725 4.89832 5.61193 -0.387596 2.59533 0.473902
H 5.30415 1.92247 7.91355 -1.167883 0.544489 0.569298
H 8.09794 6.64779 6.89044 0.069934 0.200201 -0.345845
H 12.1054 11.3424 2.37259 -0.372304 -0.039467 -0.252358
H 10.926 0.3788 8.89235 0.45479 -0.370731 0.13814
H 10.9969 6.20815 4.83203 -0.363837 0.582383 -0.827739
H 11.8641 3.57869 7.8795 0.288697 0.319696 0.694006
H 12.0728 0.94139 6.23493 1.172729 0.224466 0.475402
H 10.0927 4.52583 10.8937 0.643815 -0.836253 -1.376232
H 8.56477 2.40741 1.15747 0.162267 0.931242 2.030308
H 4.82171 0.20073 4.16935 0.733305 0.615838 0.470393
H 9.70333 9.53411 0.31235 -0.088804 -0.014535 -0.405274
H 0.48472 1.09223 11.8519 0.822176 0.011969 0.168976
H 3.00322 11.4601 4.76331 -0.582099 -0.355123 1.770346
H 5.99973 1.39234 4.32757 -0.445781 -1.181854 0.191435
H 10.341 5.54216 8.05922 0.452407 -1.445468 -0.388659
H 5.59534 9.06835 3.68194 -0.124004 0.111812 -0.013188
H 7.84616 3.49891 7.9697 -0.158196 -0.379613 -1.106786
H 6.24171 7.83164 10.8515 -2.164074 -2.777614 1.089108
H 9.88769 10.6565 1.40656 0.356345 -0.027197 0.002171
H 7.65639 9.22491 3.87757 -0.214616 -0.398837 -0.139334
H 0.93008 3.24367 11.1151 -0.004762 -0.524419 0.139381
H 2.57321 5.33132 4.77487 0.933148 0.275214 0.133481
H 9.40406 11.8077 11.9751 -0.013876 -0.059092 -0.647456
H 2.28786 8.32655 5.87144 -0.358244 -0.098438 0.046616
H 9.47474 6.38833 4.91529 0.360273 0.77613 -0.616018
H 4.58365 7.57232 0.61871 0.156978 -0.408235 -0.685162
H 11.3084 10.4384 8.0937 0.085002 -0.033307 0.764202
H 2.26738 5.08218 11.1609 0.328889 -0.726492 1.393641
H 11.3335 6.10476 12.3221 2.179388 -0.095852 0.655638
H 4.09091 8.80956 4.2292 0.096695 -0.1977 0.46887
H 10.3368 4.1862 9.32299 0.395439 0.11831 -0.167869
H 6.98564 3.02393 12.3735 0.013095 -0.593878 -0.534959
H 10.8201 0.63191 2.57312 0.112228 -0.753705 -0.190747
H 6.69307 6.86122 0.99367 -0.046242 -0.548614 -0.060942
H 4.53197 0.59843 10.8705 0.167303 0.80882 0.882113
H 1.40682 8.49114 8.62129 -0.187609 -0.472393 -1.008647
H 0.90035 11.3685 11.5917 -0.050531 0.02809 -0.312012
H 1.7645 0.50869 0.39254 -1.233913 0.1042 -0.112685
H 1.07912 10.6874 6.59247 -0.936726 -0.510913 0.509791
H 4.09875 10.9871 10.5208 -0.867756 -0.65324 0.468152
H 3.74666 10.7134 3.58238 0.034614 0.503284 0.574535
H 2.61165 10.6952 6.98493 -0.319469 0.370136 -0.418039
H 4.93004 3.66634 0.94777 -0.117763 0.016757 0.502968
H 2.10569 8.50128 1.42587 0.76204 -0.229987 -0.302902
H 4.64148 10.7341 9.00444 -0.421001 0.10077 0.818771
O 7.12953 0.16421 9.75167 2.059869 0.149104 0.41836
O 8.18003 6.73053 5.89822 -0.630576 1.11988 -0.461819
O 4.80981 11.116 9.90763 1.145181 0.165761 -1.482545
O 2.89465 6.17511 10.2976 -2.017045 -0.19405 -1.25308
O 4.22614 8.39999 0.95367 0.087882 0.280326 1.797629
O 4.30083 10.955 0.15685 0.596758 1.748881 -0.220865
O 0.96046 2.32601 3.60383 -1.221361 -1.443211 -0.117668
O 10.4491 6.1719 12.0186 -2.440843 -0.145446 -0.115723
O 10.8047 1.38493 3.17696 1.933631 -0.61226 1.680853
O 5.77605 4.01432 0.62815 0.769656 0.701461 0.103582
O 3.29141 5.69009 5.38298 -0.180962 -0.695859 0.191125
O 9.39392 12.2986 11.1198 0.058743 -0.190585 0.035815
O 11.1501 0.71708 6.06734 -0.754147 0.0009 -0.809236
O 8.49372 2.90687 6.59873 1.022664 1.020728 -0.409411
O 10.2267 6.59607 4.25921 0.110123 -0.652863 1.724719
O 1.1063 4.81998 3.68026 0.892989 1.170347 0.819111
O 0.4202 5.93054 1.14853 0.999266 1.25162 -0.619834
O 4.65234 9.24103 3.54709 -0.295244 0.03787 -0.548899
O 12.1716 5.82147 5.95862 -0.18997 -2.354048 0.242754
O 0.25139 2.56834 10.8123 0.677826 0.40844 0.469227
O 1.2815 1.43567 6.38479 0.180114 -0.875655 -0.26104
O 5.11817 6.50886 11.2973 0.095254 -0.571604 0.663226
O 0.86259 0.33158 12.3769 0.107131 0.442816 -0.01095
O 10.8137 4.72049 7.72601 -1.45716 1.825305 0.241088
O 2.95621 0.40749 1.64438 0.106637 -0.158037 -0.219256
O 9.23474 5.46916 2.02875 0.266018 -0.166983 1.175621
O 8.15752 6.55332 8.50937 -1.923644 -0.993798 2.34055
O 8.75531 2.77163 2.10142 0.146005 -0.835011 -1.943518
O 7.10969 2.95709 4.15436 -0.893882 -0.376533 1.113287
O 0.92184 10.4575 11.1651 0.673736 -1.217729 1.809577
O 2.74784 4.56363 8.04185 0.856948 0.775868 0.529931
O 7.85975 9.23826 4.85958 0.239027 0.09075 0.485764
O 1.89726 11.1587 6.48419 1.788978 0.282846 -0.288937
O 9.23785 10.1842 0.8637 -0.489492 0.526024 0.679551
O 7.4222 3.82026 8.77102 -1.09116 0.453938 2.010104
O 0.5804 10.0849 3.4294 0.89283 0.395405 0.08527
O 6.88572 11.2681 6.25088 0.235172 -2.086991 -0.561377
O 5.87776 5.67087 4.05239 -0.96689 -0.643839 -0.765851
O 6.88853 8.40526 10.5308 1.777192 2.486942 -0.86286
O 7.42713 2.2757 11.8642 -1.514932 -0.160073 0.672022
O 1.83504 8.4859 9.4761 -0.245151 0.468758 0.32785
O 10.6195 9.50881 4.69745 -0.245038 -2.172903 -0.150843
O 9.48518 8.75171 11.1531 -0.748113 0.317459 -0.096259
O 4.77503 1.32036 11.5109 1.316543 -0.563141 -2.805847
O 3.18397 8.20735 5.52188 0.970691 0.022449 -0.233931
O 3.30241 11.5596 3.87831 0.642639 -0.234731 -1.824214
O 11.7463 10.5175 7.22416 -0.337134 -0.271788 -0.535711
O 10.3557 3.80152 10.228 -0.983156 0.805088 1.960156
O 4.45402 9.97696 7.24617 -1.465164 -0.085861 0.891844
O 3.37211 2.99135 1.63636 -1.630455 -0.610706 1.882503
O 0.26714 3.02522 8.09895 0.966164 -0.335789 0.290042
O 5.92379 1.60083 7.27263 2.28056 -0.423661 0.5798
O 0.57785 8.28697 6.59219 1.733141 0.462098 0.230738
O 11.023 10.4467 9.79594 1.525248 -0.443338 1.027032
O 10.301 1.04789 8.62853 -1.463968 0.018988 0.902376
O 7.24327 8.88458 2.45517 -0.566335 0.290654 0.33778
O 6.92861 6.30044 1.74849 -0.830199 0.345238 0.134718
O 4.45104 2.92679 9.04061 -0.582553 0.204609 1.704004
O 11.4293 11.6939 1.7446 0.994371 0.906951 -0.477683
O 1.9483 4.33835 11.8022 -1.655314 0.986815 -1.58925
O 1.16112 8.59633 1.27765 0.215931 -0.088581 -0.892468
O 5.6047 0.53388 4.68833 -0.357966 0.994088 -0.911114
Na 8.75663 2.01613 10.2308 0.338715 0.30355 -0.301731
Na 8.06021 0.71999 7.47811 -0.481426 -0.194281 -0.128753
186
energy=-1002.27706399 config_type=nep2xyz pbc="T T T" virial="-6.46113631208703 -2.4595713295706614 1.3567311666320963 -2.4595713295706614 -7.085587989041066 -1.3090827214111496 1.3567311666320963 -1.3090827214111496 -6.301411678781449" Lattice="12.4 0.0 0.0 0.0 12.4 0.0 0.0 0.0 12.4" volume=1906.6240000000003 Properties=species:S:1:pos:R:3:force:R:3
H 6.36654 11.458 8.40295 -0.720772 -0.417325 -0.517831
H 1.29302 10.6599 3.87071 0.255365 1.506304 0.573549
H 1.63052 5.04105 9.15915 -0.333272 0.359546 0.709126
H 11.9515 2.56587 8.66786 0.604823 -0.002161 -0.400155
H 9.11091 9.46941 9.35436 -1.630721 0.039074 -1.277516
H 1.55237 7.63884 7.43476 0.043219 -0.083358 -0.840692
H 5.30659 10.1212 10.5795 0.359347 0.11446 0.165641
H 2.42162 9.30077 9.32875 -0.43543 -0.385301 -0.555654
H 7.8282 8.06042 7.88353 0.759343 0.092181 0.29551
H 10.6577 9.74043 9.26305 0.248273 -0.004253 -0.244611
H 6.19245 9.80037 1.19098 0.16598 0.080305 0.26057
H 9.12576 3.02961 4.05929 -0.707012 0.974866 1.602196
H 9.64282 1.95915 9.67992 0.997438 0.227426 -0.485553
H 2.06119 6.90892 6.09572 -1.513137 0.368254 0.411461
H 4.04433 7.06968 1.62956 -0.273481 -0.090011 0.155254
H 5.13531 5.20513 1.71667 0.786611 -0.022125 -0.318768
H 0.13657 1.75412 1.98122 0.366369 -0.027462 -0.87786
H 4.70397 4.00458 11.7217 0.763095 -0.018264 0.165929
H 2.14496 5.94264 2.03375 -0.314187 0.165772 0.09019
H 6.78238 2.18619 11.4351 0.910673 0.093094 1.495194
H 8.86454 1.40457 8.4088 0.664214 -0.398101 -2.391964
H 9.14471 0.3296 5.80644 -0.093372 0.744748 1.271204
H 0.06897 5.35808 1.43309 -0.308501 0.300411 -0.074834
H 2.86564 5.06149 4.33507 0.079305 0.37085 0.791441
H 1.25383 4.8377 7.69851 0.098865 -0.099042 0.063889
H 3.22555 2.78275 9.99739 0.209554 0.889291 0.691274
H 6.04402 12.39992 5.91823 -0.088383 0.569174 0.858617
H 2.6105 0.53022 1.03171 0.635561 0.821584 -0.232591
H 9.73385 10.7499 5.65125 0.31846 -0.632178 -0.090805
H 4.50565 3.74447 6.22246 0.252522 -0.331328 0.062628
H 11.5969 2.59317 2.8473 -0.02275 -0.065861 0.441742
H 6.99768 7.56197 5.12961 -0.762211 -0.76422 1.489449
H 12.023 3.53844 0.2649 -0.391229 -0.008732 -0.349962
H 2.94191 2.91891 0.31317 0.093139 0.012257 0.349911
H 7.1311 2.49655 9.54161 -0.293774 -0.2375 -0.199043
H 3.86108 11.0715 2.01746 0.024067 0.353459 -0.293389
H 3.57428 6.8693 10.4897 -0.075844 0.241688 1.005696
H 9.04074 8.64572 4.45254 0.919236 1.688345 0.504694
H 3.48912 10.2285 11.0243 -1.036226 1.123229 -0.116818
H 8.7088 5.75079 7.66735 -0.815113 0.869449 0.554399
H 9.29041 9.1286 6.94555 0.257101 -0.704412 -0.889162
H 8.9239 7.17769 4.62872 -0.266462 -0.290036 0.138725
H 11.4177 4.33226 4.10343 -0.014633 -0.278081 -0.057644
H 6.23025 6.28308 5.10255 -0.437473 -1.194671 -0.307392
H 5.07468 6.63919 9.59986 0.035763 0.541848 -0.422801
H 2.50073 0.15652 4.41187 -0.402918 -0.378075 0.127579
H 0.16564 5.34798 11.311 0.1133 1.049044 -0.787057
H 8.12547 7.32107 2.59616 -0.428209 -0.276715 0.008884
H 2.56873 11.4519 11.5545 0.380927 -0.90719 -0.961683
H 4.80977 8.18539 8.15626 0.421267 -0.6232 0.740223
H 11.9852 3.35757 5.9243 0.183926 -0.749926 0.111384
H 4.54293 11.7742 3.93696 -0.363272 0.872914 0.286504
H 7.74936 3.54415 4.62729 -1.370905 0.879759 -0.612761
H 0.81018 4.09674 5.08693 -0.16562 -0.343293 0.297384
H 3.72282 5.69702 5.52034 1.594173 -0.984357 1.28761
H 8.67625 9.68351 0.43539 -0.502537 0.232401 -0.150239
H 3.9537 11.5505 5.2948 0.269294 0.54916 0.158366
H 3.51168 2.96727 4.65532 1.884528 0.415395 0.035144
H 2.43919 2.83924 1.86958 0.31606 -0.324856 -0.938236
H 2.18631 2.32545 8.96275 -0.097177 0.31431 -0.086972
H 11.8187 2.91138 10.2517 0.755826 -0.103893 0.345139
H 3.61584 4.50424 7.24972 0.036023 -0.032785 0.211732
H 9.17132 6.8283 0.80822 -2.284838 -0.448047 1.177521
H 2.08108 6.37547 10.9692 -0.63185 -0.018688 0.263932
H 8.11904 0.39805 10.423 0.48524 0.445775 -0.110984
H 12.2394 1.28234 6.62343 0.031417 -0.871455 0.375841
H 5.4835 8.10375 6.65796 -0.134417 -0.234885 0.629864
H 6.94288 9.26223 7.8743 1.067047 0.087367 0.013906
H 11.1707 0.14435 2.72638 0.82807 1.038468 0.811978
H 6.79549 2.48384 0.57564 -0.027675 0.271654 0.098999
H 10.9312 4.69788 2.62021 0.210665 0.201319 -0.613567
H 1.56733 12.3641 7.70242 -0.915343 -0.959119 -0.769758
H 1.01849 0.51155 3.98244 -0.439778 0.316682 -0.226676
H 9.64195 10.0379 11.6712 0.067609 -0.234588 -0.172468
H 6.16446 9.11589 12.2225 0.699739 0.486626 0.87488
H 4.31827 9.82881 2.86533 0.265688 1.99436 -0.483167
H 10.7717 9.40774 7.00443 0.079385 -0.865376 -0.869355
H 7.26397 0.61908 6.70964 -0.296636 0.002479 0.060398
H 7.52786 0.0593 11.8377 0.06637 -0.237438 -1.417458
H 10.0452 11.491 4.26393 0.693481 -0.1946 -0.602801
H 6.70026 11.6718 9.82568 -1.483227 -0.683983 0.512086
H 12.0976 7.86761 3.77143 -0.373184 0.618789 0.326149
H 5.84334 4.11086 4.61035 -0.546649 -0.257335 -0.212669
H 10.6461 11.3959 2.06915 -0.448461 -1.070871 -0.299414
H 10.6718 4.44183 8.56606 0.202759 -1.133037 0.714657
H 9.96486 8.24535 0.61622 -0.313664 -1.919532 -0.743607
H 9.33957 5.01747 5.21722 0.573134 1.265413 0.004564
H 5.2605 5.04358 8.3289 0.98528 0.457057 0.955374
H 10.2166 7.78989 10.2006 -0.0092 -0.619985 -0.381109
H 1.58839 4.82093 2.89083 0.101435 -1.210175 0.760906
H 10.3829 6.10629 4.71318 1.321321 0.06764 -1.514935
H 6.3839 4.57658 3.23294 -0.543098 -0.03233 -1.590232
H 3.18132 7.89413 3.93257 -0.03974 -1.232877 0.850247
H 5.8468 3.33592 9.37627 -0.033327 0.828598 0.138339
H 4.98776 8.62755 10.5926 -0.512023 -0.447786 0.044993
H 6.62695 5.75636 8.67241 -0.054474 -0.405854 0.292603
H 0.14131 10.2465 2.89686 0.340538 0.388581 0.663003
H 0.96779 11.9634 6.2844 0.667247 -0.154304 -1.551092
H 4.62476 1.88492 4.75978 0.293631 0.130056 0.526605
H 11.142 6.07552 0.82871 0.052702 -0.169607 -0.060386
H 2.75902 9.67195 5.79644 2.003221 0.645917 0.631902
H 0.21494 6.52794 3.5916 1.072098 -1.280653 -0.68643
H 3.55579 4.90086 11.2308 -0.279764 0.37974 0.068476
H 1.92143 11.6821 1.41328 -0.114345 -0.623083 0.058378
H 3.04352 11.5835 9.20401 -0.033803 0.556481 -0.553447
H 12.3128 6.60025 10.292 0.29836 -1.246456 0.942333
H 2.20791 8.54763 2.92834 -1.304727 0.346327 -0.067735
H 10.5177 5.92576 9.05863 -0.400797 0.195637 1.410926
H 10.6847 1.52325 6.90191 -0.197146 -0.267512 -0.285712
H 0.88983 2.7111 0.07216 -0.826886 -0.287458 -0.491408
H 6.68948 5.56511 1.69276 -0.071417 0.425478 -0.203194
H 3.3531 11.3267 7.68526 0.158989 -0.833556 -0.685593
H 0.49873 9.39692 8.01691 -0.619885 0.107518 0.346232
H 3.51924 6.26613 0.37813 -0.101177 0.169832 0.561364
H 10.02 6.80473 11.2939 -0.026477 -0.3871 1.13134
H 12.178 10.7408 7.79267 0.296773 -0.526477 0.464086
H 3.1266 8.01824 8.91614 0.268133 -0.129986 0.002016
H 1.40494 2.99363 3.85272 0.164042 0.006343 -0.241147
H 4.16887 9.55983 6.68513 0.053616 -0.364148 -0.101039
H 7.22705 7.76107 1.43332 -0.271205 0.240067 -0.362263
H 8.65568 1.87593 6.01187 0.38944 -0.046442 0.158232
H 7.41754 6.35093 6.92739 0.194683 0.116643 0.518403
O 7.36231 2.1535 12.2706 -1.058133 -0.266193 -1.50066
O 7.6676 12.0961 10.9175 0.127154 0.042973 1.463322
O 7.8774 6.2942 7.81982 0.840673 -0.688962 -1.17972
O 1.24461 7.30439 6.54925 1.332188 -0.426816 0.321468
O 3.82404 3.95984 11.3578 -0.617796 -0.639904 -0.002616
O 6.77609 9.23389 0.65876 -0.652144 -0.233642 -0.674699
O 4.24481 12.3407 4.7389 0.190671 -1.411576 -0.730219
O 0.58226 5.92764 10.613 -0.863136 -0.058665 -0.126456
O 12.34469 2.76745 12.1474 1.089894 0.476171 0.720604
O 7.61735 6.95448 1.83239 0.581864 0.124564 0.29385
O 4.52074 2.83754 4.97613 -2.577098 -0.712195 -1.224636
O 11.6072 5.20836 0.94301 0.366558 -0.109045 -0.006978
O 11.0725 11.5969 2.91045 -0.499835 -0.036294 -0.86989
O 5.22399 8.68654 7.41215 0.219567 0.83479 -1.085961
O 11.8424 6.95573 3.94743 -0.724402 0.705445 0.525603
O 4.50413 4.50881 6.84613 -0.544047 0.579226 0.636313
O 3.01358 2.08752 9.38158 0.314881 -0.964998 -0.405053
O 3.09676 8.52668 3.23923 2.008077 0.586227 -0.722166
O 10.118 8.96225 6.37974 -0.267003 1.367687 1.611998
O 8.83496 1.60159 9.31482 -1.786399 0.190003 2.71983
O 8.64196 3.35019 4.89103 2.538113 -1.499159 -0.691805
O 6.39834 6.97566 5.74967 1.450958 1.833364 -1.631371
O 10.3137 6.80439 10.3757 0.39948 1.52386 -1.235014
O 6.51224 4.66028 4.18035 0.453459 0.221842 2.073187
O 2.73284 10.8731 10.7503 0.884098 -0.444632 0.867573
O 10.9035 4.03017 3.31606 -0.212213 -0.501426 0.321481
O 9.61276 9.8268 0.22065 0.213554 0.070073 0.6493
O 9.95536 7.2026 0.47429 2.462874 2.448447 -0.345669
O 12.336 4.17362 5.52623 0.201615 1.598675 -0.126461
O 3.719 6.19077 1.37408 -0.006524 0.168072 -0.560726
O 2.98901 6.47713 11.3 1.383232 0.045998 -0.949376
O 0.91755 9.93474 3.39631 -1.16628 -2.209653 -1.561468
O 12.0195 9.81778 8.16008 0.682612 0.797256 -0.799396
O 5.8307 5.34802 9.11596 -0.692424 -1.095035 -1.217231
O 6.14949 2.45212 9.60849 0.752214 -0.406258 0.182111
O 3.09314 5.87839 4.85747 -1.618401 0.998888 -1.720114
O 11.4007 2.60273 9.44241 -1.442899 0.13154 0.253964
O 1.87445 4.53541 8.3825 0.05506 -0.259446 -1.013481
O 5.01625 9.4414 11.2252 0.02254 0.039504 -0.910863
O 11.5275 1.92789 6.64464 0.178321 1.161788 -0.011538
O 2.39241 8.61852 8.6141 -0.04568 0.63947 0.924747
O 12.0656 1.70773 2.80797 -0.26142 0.099845 0.437009
O 8.47371 7.94802 4.19529 -0.918128 -1.289475 -0.402667
O 3.11935 12.0247 8.29198 -0.381866 0.006229 1.1415
O 3.65635 10.0952 6.00522 -2.228159 -0.100394 -0.50504
O 2.1329 3.61932 3.711 0.23642 -0.859816 0.275842
O 1.54615 12.2523 4.44288 0.920819 0.376052 0.302793
O 10.6005 5.34427 8.2981 0.071813 0.611736 -2.229736
O 4.58806 7.51116 9.61356 -0.78851 -0.056508 0.266746
O 4.60959 10.7761 2.56277 -0.051548 -2.356748 0.874525
O 0.7134 12.1051 7.18236 0.252258 0.942624 2.017035
O 6.28863 0.43544 6.77283 0.227087 -0.568199 -0.783174
O 9.92591 9.4349 9.81649 1.345784 -0.117964 1.748183
O 7.93071 9.04613 7.92418 -1.715769 -0.230312 -0.020344
O 5.9135 11.3164 9.2533 1.6512 0.913426 0.082025
O 1.29192 5.64092 2.45401 0.224251 1.260246 -0.986653
O 6.05519 4.8215 1.65767 -0.773516 -0.60177 0.000613
O 2.49655 2.35 0.98617 -0.342527 0.570096 0.806502
O 9.54343 11.5065 5.08585 -1.006589 0.581904 0.578834
O 2.74171 11.9673 0.99152 -0.773221 -0.049045 0.070631
O 8.90028 1.07405 6.53832 -0.099789 -0.487455 -1.180117
O 9.71774 5.95871 5.36204 -1.997357 -1.740555 0.914316
Na 11.5298 6.4891 6.55818 0.119395 0.018603 -0.151514
Na 4.89679 0.98014 8.50469 -0.221794 -0.022472 0.111779
186
energy=-1000.69729867 config_type=nep2xyz pbc="T T T" virial="-10.066424265168452 1.22046184939307 3.454762182951613 1.22046184939307 -20.194467823382375 -0.9218022515633749 3.454762182951613 -0.9218022515633749 -14.593205064324803" Lattice="12.4 0.0 0.0 0.0 12.4 0.0 0.0 0.0 12.4" volume=1906.6240000000003 Properties=species:S:1:pos:R:3:force:R:3
H 6.78389 10.4395 9.52785 -0.273866 0.082152 -0.061779
H 9.92112 9.13669 5.15923 0.354258 -0.115858 -0.99161
H 2.48067 5.94859 8.80088 -0.144627 0.129135 -0.072116
H 10.9582 2.97142 11.8855 2.354355 0.863373 1.215465
H 0.61539 0.28806 11.0839 0.144892 0.405227 -0.041546
H 1.92682 10.0665 8.41094 -0.548969 0.248254 -0.430702
H 4.5892 7.37034 7.99086 -0.283785 -0.555777 -0.396364
H 0.06882 10.7565 10.7651 0.737592 0.336257 -0.558019
H 7.88549 7.81977 7.69065 0.367442 0.387241 0.990023
H 1.19364 0.76944 9.06065 -1.20273 -1.426252 1.046961
H 5.24318 8.86406 11.8953 1.206726 -1.05992 -0.218673
H 11.9836 3.39693 6.00142 -0.341182 0.590327 -0.111182
H 11.2588 0.57531 9.26136 1.233682 -0.530778 0.08426
H 2.91002 9.97831 9.59198 0.089033 0.009277 0.870123
H 1.54784 7.26451 1.02117 -0.061124 0.164073 -0.350724
H 4.55699 4.28454 1.33782 -0.64267 0.659544 0.254233
H 12.2157 0.39334 1.56146 -0.326298 -0.311876 -0.366308
H 2.14734 5.44072 0.25213 0.126932 -1.429071 -0.080608
H 2.87286 4.46328 3.76982 0.715012 0.24343 0.235787
H 7.24253 2.12907 0.52072 -0.175296 -0.114319 -0.341623
H 10.0339 1.23957 8.50117 -0.339352 -0.373031 0.48887
H 9.07069 1.24713 6.63859 0.176442 0.033346 0.348559
H 2.024 5.80075 3.59407 0.183561 0.64476 0.022841
H 2.80946 7.70669 3.08536 -0.608646 0.021883 -0.519695
H 2.54918 6.63201 7.43667 -0.827853 -0.163576 0.901136
H 3.02647 1.51932 10.618 1.046016 0.720946 0.661539
H 5.86842 0.77794 8.90578 0.610528 1.857888 -0.31035
H 3.06895 11.862 11.6588 0.123651 0.496051 -0.99814
H 9.09903 11.3332 6.13291 0.579201 -0.327213 0.047622
H 5.68596 2.29386 6.82039 -0.227301 0.172633 0.093098
H 12.2649 1.18829 2.82201 -0.048748 0.129596 0.272127
H 7.77151 6.87416 3.15261 -0.21274 -0.852325 -0.136394
H 12.0643 3.62269 1.72854 -0.123092 0.118089 -0.438701
H 3.69769 0.02202 1.13271 0.723915 1.409853 -0.392892
H 7.15745 4.81666 9.535 0.597219 -0.15155 -1.139046
H 6.6117 9.68347 2.51837 0.058922 -0.407382 -0.321245
H 11.2998 6.64941 10.4419 1.24859 1.509976 0.10258
H 8.58553 8.21269 2.20172 -1.318645 1.521697 -1.039005
H 3.0232 8.42305 12.0588 -0.193308 1.147151 0.133461
H 6.18317 7.14159 6.47583 -0.893977 0.205043 0.325091
H 9.43781 9.05579 7.23121 0.070961 -0.011449 0.56975
H 9.49718 7.90107 3.29886 0.84085 0.412937 0.352937
H 12.2177 2.78242 4.05227 0.957463 0.165439 -0.859084
H 6.914 5.48472 3.5475 0.954873 0.38311 -0.3939
H 4.46928 7.32012 5.3383 -0.280666 0.11515 0.490311
H 2.25193 11.736 5.88094 -0.155215 0.189552 0.187317
H 9.55392 6.351 11.4478 -0.138817 -0.002646 -0.465227
H 6.48874 5.27409 0.39474 0.48569 -0.384617 0.784444
H 3.45231 9.9809 12.3658 -0.249572 0.529723 0.922982
H 4.42059 10.3057 3.55302 -0.104462 -0.499266 -0.026177
H 12.1837 6.24145 6.90941 1.509119 -1.261718 0.769291
H 5.9923 10.982 5.00244 -0.313324 -0.842686 -1.071036
H 10.7455 3.89914 4.97298 1.38058 -1.458412 1.562425
H 11.3471 7.20676 6.43255 -1.003267 -0.04988 -0.473086
H 1.25055 7.89694 3.47011 0.616126 0.058765 -1.26814
H 7.50775 10.9751 0.92268 -0.248556 -0.905298 0.318787
H 7.1365 11.7618 5.74877 1.152092 0.164554 -0.323561
H 4.40396 2.95717 3.13712 -0.276678 -0.487503 -0.321019
H 3.06098 11.2741 1.79606 0.137702 -0.790183 -0.304302
H 2.77863 3.06967 11.0596 1.507192 -1.211572 -0.966095
H 10.6226 1.77167 10.9375 -0.385166 0.547618 -0.036748
H 5.66653 1.05976 5.88222 -0.666196 1.803238 -0.426349
H 8.922 5.43629 0.4368 -2.255494 -0.66644 0.329025
H 0.25682 6.90409 9.69173 -1.06429 1.118444 1.530699
H 9.67282 12.0061 10.1496 -0.564339 -0.199504 0.952282
H 1.33547 2.95328 7.61678 -0.345013 0.012433 -0.130122
H 5.15639 8.90769 3.95315 -0.685219 0.689739 0.039702
H 8.07123 8.76465 9.01606 -0.964606 0.813034 0.448878
H 10.3622 12.1231 2.76435 -0.869812 -0.970393 0.682941
H 6.85141 0.687 0.21656 -0.899492 1.695404 0.162656
H 1.04713 3.6264 3.47313 -0.156841 -0.063035 -0.139361
H 2.85753 1.94395 8.88928 -0.138076 0.523827 -0.314464
H 3.64418 11.6359 6.63928 -0.345018 0.303906 -0.115325
H 8.6531 11.5847 0.04846 -0.538145 0.322851 0.177068
H 6.60167 8.82268 11.1703 1.843221 1.716365 -2.247262
H 6.68055 8.88111 1.12802 0.752092 0.547111 0.736711
H 10.8198 9.78344 6.92223 1.084583 0.493736 0.864563
H 7.13575 1.40722 8.33798 0.678373 0.337546 -0.007611
H 10.2647 10.8736 11.0594 -1.406518 0.582009 -0.386367
H 9.07939 12.0633 4.72287 0.041361 -0.081476 0.563031
H 8.22155 10.455 10.1705 0.299642 0.423103 0.865723
H 11.766 8.5379 4.45257 -1.823206 -0.174983 -0.76876
H 6.50875 3.63755 3.69923 -2.14017 -0.604682 -0.058861
H 8.9482 11.5912 2.34075 -0.56765 -0.103081 -0.611235
H 11.944 4.04766 8.26088 -0.139493 -0.237153 0.935035
H 9.82287 6.50947 1.03517 -0.307053 -0.0973 0.553656
H 7.64478 5.1708 7.07419 -0.978549 0.411242 -0.668568
H 4.39186 7.27084 10.157 -0.171197 0.601505 0.497166
H 9.62259 2.57006 0.25041 -2.358347 0.319398 1.186918
H 3.18125 3.09594 1.10505 -0.001924 -0.247664 -0.132483
H 7.79461 3.59645 7.29025 0.357474 0.721893 0.252716
H 7.72571 3.63722 2.7296 -0.196685 0.062477 0.728416
H 1.99072 9.61101 3.00788 0.274435 -0.0943 -0.654608
H 6.86138 5.35867 10.9462 -0.478539 -0.455106 -0.801473
H 4.08026 8.53457 7.15691 -0.153882 -0.611981 -0.349139
H 5.31031 6.15506 9.71026 2.067478 -1.968415 0.653521
H 10.1748 9.88863 3.79472 -0.376133 -0.160435 -0.402157
H 2.73364 1.36722 7.40656 -0.21472 -0.464223 -0.067633
H 4.89674 2.92518 4.65856 -0.230029 0.121891 -0.298636
H 11.2609 4.67073 0.76936 0.561683 -0.779823 0.220359
H 0.20142 11.6621 4.78774 0.605173 -0.76487 0.438921
H 0.54528 9.35263 4.82487 0.088925 -0.281826 0.242808
H 1.2455 4.11129 0.39965 1.265995 0.772129 -0.206226
H 2.19061 12.1613 10.3885 -2.24004 -0.330446 -1.077581
H 4.36157 10.9396 8.36142 1.215183 0.997164 -0.269825
H 9.10323 7.22546 10.0718 0.3248 -0.864652 0.885388
H 1.83422 10.8144 3.89602 -0.546119 0.632412 0.812214
H 11.0319 3.84493 9.65809 0.337693 -0.318292 -0.290856
H 1.34392 4.4726 7.44498 -0.433766 0.289239 -0.18465
H 1.28387 12.3445 0.15987 -0.666949 0.578795 -0.805029
H 5.55697 3.18725 1.15827 0.182231 0.072704 -0.463802
H 5.57308 11.3363 7.3279 0.213492 -0.147986 -1.181536
H 11.8287 9.28222 10.6081 0.427173 0.114908 -0.086114
H 1.02212 6.93568 11.8994 -0.924876 0.380793 -0.235354
H 8.97007 1.98689 1.57942 0.258643 -1.39636 1.174007
H 0.28347 11.2965 8.1885 -0.519137 -0.987973 -0.564753
H 5.36616 6.92742 4.13314 0.130073 0.105714 -0.467529
H 2.66641 2.05176 2.05713 0.578973 0.050313 -0.030263
H 0.25382 10.6574 6.64719 0.47783 0.411605 0.590829
H 6.64246 6.69621 12.36202 1.202074 0.067997 0.30762
H 9.83427 2.56597 6.96289 -0.58647 -0.570281 0.223295
H 7.13408 6.55563 5.41688 -0.0914 0.042798 0.454085
O 6.43782 1.6373 0.20388 1.415664 -1.332817 0.024692
O 9.35134 11.3709 10.9044 2.050826 -0.56335 -0.635837
O 6.96116 6.58808 6.40646 1.074462 0.13328 -1.09924
O 2.86635 10.0723 8.64332 0.685683 -0.454667 -0.61867
O 2.20739 4.42219 0.23402 -1.157083 0.289517 0.043992
O 6.15561 8.38185 11.8441 -3.605065 -0.88692 2.692342
O 6.19184 11.6399 5.66348 -0.887141 0.862193 1.337351
O 9.41251 6.36306 10.4529 -0.131183 0.856254 -1.068564
O 0.65041 0.53637 12.0867 0.254229 -0.558638 1.292031
O 7.21879 5.91608 0.21561 -2.009657 0.394013 -1.04215
O 4.69387 3.50714 3.87315 0.167956 0.440263 0.664286
O 11.9534 3.94393 0.79763 -0.545993 0.443903 0.247093
O 9.56734 11.5459 3.0816 1.686641 1.118793 0.362525
O 5.27875 9.87636 3.72418 0.644152 0.21391 0.097082
O 0.28047 8.38131 4.6525 2.065781 0.594951 0.487002
O 5.44949 2.06609 5.90975 0.813577 -2.258909 0.464096
O 3.43806 2.45411 10.5623 -2.027569 0.448686 0.821353
O 2.32542 10.5191 3.10364 0.581565 -0.210839 -0.299962
O 9.95356 9.56094 6.57401 -1.010317 0.033892 -0.404519
O 10.3048 0.71832 9.3112 -0.205004 0.413253 -0.14311
O 11.1931 3.1278 5.46969 -1.097081 1.038237 -1.138727
O 6.93573 6.47192 3.53836 -0.561696 0.162862 0.969025
O 8.88106 2.72872 1.01682 1.03266 0.867241 -1.956224
O 7.43711 3.77446 3.66133 2.310065 0.452229 -0.834129
O 3.45824 9.2626 11.7417 0.509652 -1.803379 -1.115254
O 0.48089 2.83264 3.28475 -1.212654 -0.150652 0.800373
O 8.03504 11.768 0.81983 0.685439 0.814727 -0.72359
O 9.80944 5.72118 0.45788 2.894442 0.919135 -0.036174
O 11.265 6.2655 6.69106 -0.419725 1.58219 -0.464208
O 1.76876 7.13549 0.0671 1.14764 -0.285265 0.550025
O 12.0979 7.30595 10.4532 -0.057723 -2.597906 -1.750994
O 10.1132 8.97741 4.15745 0.24165 0.778912 1.5225
O 0.0665 10.4644 7.63608 0.212455 0.594439 0.332127
O 4.66742 6.75548 9.4059 -2.019043 1.524343 -1.00317
O 6.41543 4.95955 10.117 0.437422 0.696827 1.953898
O 1.92449 7.79644 2.64458 -0.259752 -0.144555 2.345092
O 10.3168 2.64179 11.292 -1.0493 -1.045553 -1.345691
O 1.88754 6.26118 8.09521 0.997482 0.026596 -0.821501
O 4.30321 7.58019 7.04182 0.169567 1.239995 0.751834
O 0.74064 3.71646 7.29888 0.678981 -0.062965 -0.120191
O 11.7045 10.2063 10.8763 -1.233851 -0.654806 0.616217
O 11.8701 0.37149 2.4722 0.280526 0.239498 -0.288843
O 9.14977 7.51052 2.47638 0.223928 -2.180775 -0.277218
O 5.23187 11.4619 8.2115 -1.247082 -0.699664 1.811843
O 0.78935 11.0021 5.22914 -0.306289 0.278592 -0.804375
O 3.5139 2.33593 1.64733 -1.29046 -0.012514 0.20309
O 2.99618 12.2615 6.28368 0.101589 -0.102552 -0.132629
O 11.2917 4.42566 8.92559 -0.202004 0.248226 -0.031902
O 4.58307 7.46341 4.39078 0.013983 -0.385702 -0.617661
O 7.23822 9.31782 1.8422 -1.002013 -0.064712 -0.598682
O 2.27454 1.88818 8.10009 0.594535 -0.242048 0.06322
O 6.35793 1.69309 8.82495 -1.374738 -2.328418 0.148275
O 0.66254 0.08312 9.60203 0.539078 0.937682 -1.176798
O 8.5128 8.19525 8.37229 0.342714 -1.576341 -1.716381
O 7.39145 9.91602 10.0731 -0.1707 -0.385627 -0.850441
O 2.04488 4.85772 3.47383 -0.326244 -0.872071 -0.137312
O 5.39131 4.12018 0.91392 0.585786 -0.657049 -0.230366
O 3.62324 11.4869 0.99279 -0.961501 -0.548454 0.769289
O 8.89574 12.1757 5.7066 -0.400412 0.205403 -0.749839
O 3.06978 12.2015 10.7242 2.35825 -0.140637 1.589317
O 9.18918 1.92137 7.36336 0.315765 0.621571 -1.283217
O 7.93271 4.48788 7.6792 0.475302 -1.169498 0.67448
Na 9.72825 5.72234 8.24812 0.005537 0.075746 0.206502
Na 5.75946 2.92488 10.6487 -0.387597 -0.615008 0.383394
186
energy=-1003.58209591 config_type=nep2xyz pbc="T T T" virial="-1.3174009689659552 -4.28987139669416 -4.598991280075606 -4.28987139669416 -8.43734486743581 7.442356317643458 -4.598991280075606 7.442356317643458 -2.431891438565686" Lattice="12.4 0.0 0.0 0.0 12.4 0.0 0.0 0.0 12.4" volume=1906.6240000000003 Properties=species:S:1:pos:R:3:force:R:3
H 9.37448 8.78216 10.4248 0.658704 0.823203 0.935969
H 8.66703 7.82639 0.69075 -0.72483 -0.440154 -0.280669
H 6.62817 4.02549 6.11149 0.16498 -0.996722 1.631758
H 5.13268 10.4389 5.63751 0.904049 0.636256 1.535534
H 0.91383 2.14915 3.90032 -0.529811 -0.776417 -0.768521
H 0.43623 7.3117 3.38119 0.450388 -0.088494 -0.98547
H 3.10075 7.58766 7.26689 -0.183141 -1.223577 -0.551748
H 11.0665 8.26645 4.59877 0.189914 -0.366593 -0.411192
H 8.72821 4.80358 3.46543 -0.052351 -0.344177 0.3086
H 10.2007 11.0257 11.5767 -1.795769 0.502734 1.159836
H 4.89564 7.28818 10.874 0.199987 -0.864731 0.434786
H 3.33286 0.77694 7.54042 -0.103124 0.014112 -0.659669
H 10.6314 7.48946 9.07107 -0.584803 0.70471 -0.17005
H 10.3982 8.20598 2.52168 1.202591 0.241825 1.012267
H 10.5335 11.051 9.97606 -0.033899 0.148059 0.34595
H 2.94279 1.08167 0.92503 -0.045651 -0.233231 -0.112888
H 5.37946 9.50601 2.42293 1.501303 -2.571675 0.010169
H 2.02881 8.77775 0.42717 -0.307332 -0.227484 -0.131896
H 3.32976 9.92187 4.65158 0.679275 1.684098 -0.078879
H 5.39809 9.51041 10.2297 0.356399 -1.976326 0.037651
H 0.23016 8.17299 11.906 0.33098 -0.125693 0.577282
H 2.01425 7.33272 3.61947 -0.127875 0.373202 -0.300169
H 6.35083 7.23459 2.08783 -0.247339 -0.331348 -0.168612
H 0.92706 10.085 2.50464 1.103586 0.405976 -0.509898
H 7.20415 4.75475 4.88844 -0.232032 -0.042409 0.395677
H 11.1075 6.64903 2.16793 0.35487 1.416811 1.359636
H 8.60689 11.9815 8.66103 -0.670011 -0.004258 -0.028188
H 12.283 4.86022 1.27783 -0.133017 0.061201 0.146484
H 5.18148 2.12643 0.5578 0.572549 -0.193207 -0.483769
H 1.6442 3.50118 4.05828 -0.059139 -0.721828 0.681574
H 12.2114 9.45216 3.24109 -0.270343 -0.150916 0.272966
H 9.01073 3.14322 1.03316 -0.695 0.67231 0.465143
H 1.64926 4.0902 8.92641 -0.072743 -0.838073 0.416414
H 6.17087 2.9964 8.95709 0.867233 0.010232 -1.222061
H 7.83861 2.53379 7.09331 -0.206933 0.303751 0.198594
H 5.7269 6.11393 5.49308 -0.591077 1.240686 -0.606787
H 10.0428 9.42499 6.06445 0.213935 -0.311886 0.060411
H 10.4926 5.69764 10.4909 0.157301 0.482681 -0.271366
H 5.77802 4.98545 2.41581 0.651572 0.731594 -0.840407
H 1.6274 11.0878 9.89274 0.403089 0.580144 0.132937
H 6.64295 0.71309 12.0803 -0.47936 -2.941098 -0.563514
H 10.3533 4.25602 11.016 -0.06434 -0.392029 -0.161849
H 4.74669 10.6689 2.97849 -0.189694 0.685982 0.125709
H 9.45392 5.08872 1.39301 -0.811342 -0.026619 0.540199
H 2.82011 9.6835 8.06032 0.036192 0.173275 -0.395157
H 4.09679 9.51531 7.14727 -0.872907 0.212443 0.085245
H 9.75082 12.031 1.80052 0.065301 0.082321 -0.223551
H 5.71995 5.86848 0.7055 -0.325182 -0.08796 -0.226718
H 5.40301 4.41612 3.79922 0.201399 -0.383031 0.203888
H 11.8849 3.37282 12.0469 -0.802303 -0.854474 -0.534464
H 9.12996 5.30988 9.12854 0.94991 -0.293562 1.322692
H 0.19962 2.91882 5.86616 0.126531 0.470439 0.245778
H 7.38212 6.52532 0.14785 -0.424933 -0.488497 0.756992
H 9.41463 5.74446 7.5599 0.142998 -0.421768 0.816114
H 1.10834 12.1292 11.9895 0.373454 0.126001 -0.33737
H 10.9021 6.544 6.01858 0.351938 0.490957 0.222346
H 0.36995 3.86189 7.15666 -0.809328 -0.111044 -0.108239
H 3.80848 7.68182 4.85178 -0.384292 0.220218 -0.081277
H 8.55008 1.84258 0.2377 -0.516677 0.269616 0.243207
H 10.779 6.63929 0.68521 0.037331 1.000965 -1.14094
H 6.08679 11.2713 6.72224 -0.658735 -0.566541 -0.332821
H 1.7385 5.48998 3.00994 -0.571329 0.86042 0.022811
H 10.0641 2.86097 6.3135 -1.034901 -0.907154 -0.38744
H 1.21713 5.99915 7.75456 -0.673727 -1.022004 0.313037
H 9.95274 0.24862 4.08393 -0.058649 -0.415884 0.462917
H 9.84673 1.18981 1.72641 0.011592 -0.782318 0.551156
H 10.5433 2.57267 12.0249 0.057957 -0.231118 -0.024241
H 9.22343 5.4546 4.83433 -0.21872 -0.493581 0.137626
H 0.28201 11.228 4.53929 -0.080341 -0.271728 -0.089649
H 4.14551 10.3969 10.0871 -0.872382 0.175669 -0.104599
H 8.02013 11.3987 0.08211 0.252423 -0.15998 -0.115516
H 8.59965 6.01618 11.6623 -0.090894 0.333768 -0.056616
H 12.2631 11.5782 11.1749 0.327466 0.304998 -0.379255
H 11.0951 4.98034 6.47705 -1.036952 1.742055 -0.043839
H 6.52321 7.14934 10.8387 0.069835 -0.068773 0.749427
H 5.6116 7.403 6.21316 0.967651 1.631981 3.280921
H 9.56737 10.8912 5.6692 -0.542898 -1.126948 1.117407
H 7.20446 11.8442 9.42647 0.045315 0.093206 -0.05295
H 9.37065 0.77468 5.46138 0.98155 -0.639325 -0.352821
H 6.63053 2.0805 11.3227 -0.268595 -0.419129 0.780433
H 8.58034 7.86239 9.66207 -0.020126 0.35639 -0.605934
H 0.25688 0.31987 3.49396 -0.384377 0.825463 -1.45699
H 10.1957 11.1562 7.66802 -0.218382 0.296331 0.750322
H 12.1219 1.78963 7.46731 0.034916 -0.806945 0.986328
H 7.28974 6.5846 7.81233 0.220916 -0.270718 0.192097
H 8.90433 3.06832 5.32189 0.001931 0.120377 -0.109891
H 2.63349 1.72453 8.56029 1.038516 -0.894623 0.033619
H 12.3065 5.70625 8.63846 -0.185517 0.583044 0.05527
H 4.62777 3.0546 1.58748 0.772278 1.766614 2.492321
H 1.78816 4.16155 12.3702 0.305566 0.325352 0.037895
H 4.89029 2.54287 9.58441 -0.524207 -0.298817 -0.020348
H 10.9587 0.08877 8.17653 -0.77421 -0.399111 0.706505
H 5.85791 10.9244 11.2704 0.79126 1.030368 0.785438
H 7.80359 3.87636 7.8501 -0.061654 0.207471 -0.099287
H 1.44065 7.60666 1.18199 -0.134228 -0.336179 0.047881
H 3.47217 5.54802 11.6209 -0.469323 1.15986 0.280451
H 7.8986 8.37789 2.00641 -1.422738 -0.58103 0.837978
H 11.582 9.29982 11.4975 -0.200834 -1.194781 -0.220803
H 2.43656 8.1348 5.38437 -0.706049 -0.016119 1.559122
H 2.01114 3.46037 10.3357 0.684513 0.40499 -0.565802
H 5.9986 7.67998 3.56541 0.000979 -0.205567 0.69453
H 11.8185 0.95863 2.20355 0.335982 -0.888366 0.992159
H 3.01436 7.06737 11.9561 -2.067494 0.636112 0.663687
H 11.6604 7.58336 10.3147 -0.706932 0.100697 -0.57876
H 0.90682 3.67324 1.70011 -0.479959 0.697154 -0.201513
H 8.69701 10.2339 0.83006 0.660518 0.809932 -0.540492
H 5.9984 11.1002 0.46283 0.526846 0.311187 -0.799757
H 6.20903 7.06397 8.84688 0.162198 0.620787 -0.874112
H 0.14609 0.24736 7.45969 0.088714 0.621328 0.548416
H 2.68642 1.45803 5.19367 0.144493 0.934592 -0.20481
H 1.54688 0.78505 1.53539 -1.041257 0.117523 1.192719
H 2.84197 11.7612 9.00755 -1.036913 -0.415309 0.656786
H 12.0812 8.60608 5.72888 1.425196 0.592841 0.357858
H 3.22791 3.55486 12.2775 1.053587 -0.928363 0.733086
H 3.40754 6.1234 6.56656 1.261497 -0.372035 -0.561434
H 1.85119 0.34955 5.6062 -0.660583 -0.665827 0.242336
H 11.6331 12.1995 5.32308 0.444853 -0.262667 -0.46937
H 2.46911 11.1619 1.21057 0.520063 -1.518665 -0.026939
H 3.51822 11.5844 4.74738 -1.48239 1.765339 0.775745
H 7.8203 5.01942 1.56634 -0.512319 0.347699 -0.698319
H 3.1084 4.78714 2.95135 0.059051 -0.474909 -0.000442
H 3.41325 9.93297 1.7539 -0.45555 0.738748 -0.75594
O 5.10664 10.3912 10.0542 0.525207 1.207433 -0.059226
O 9.90523 0.01891 5.06197 -0.543939 0.866545 -0.568198
O 0.19496 12.0074 5.14542 -0.284571 0.583529 0.483533
O 11.2416 8.06148 3.05609 -1.405153 0.265955 -0.192459
O 1.59717 7.88657 0.25422 0.617446 0.80232 0.443166
O 5.73983 7.5411 10.4319 -0.059998 0.900541 -1.006285
O 12.1442 3.22179 6.70818 0.296442 -0.441698 -0.480865
O 8.91499 11.1486 0.42707 -0.37788 -1.302176 0.754259
O 1.34516 2.66728 4.5795 0.423555 1.474868 0.066645
O 6.55725 5.96908 1.16613 -0.391272 0.078184 0.769048
O 2.94051 8.11653 4.5926 1.779209 0.067573 -1.132047
O 1.87138 3.2226 9.37732 -0.347508 0.737948 0.145607
O 12.1486 0.92496 8.06116 0.916065 0.87906 -1.777736
O 11.2708 2.86639 11.4148 1.063712 0.726755 0.811865
O 0.30472 0.89558 2.65265 0.313366 0.202936 0.815178
O 2.15625 4.60808 3.06286 0.772293 -0.726119 -0.103138
O 10.8784 6.07536 1.4334 0.033248 -2.510901 -0.590276
O 6.45179 11.3815 12.0129 -1.750755 -1.012039 0.365706
O 9.40369 10.1142 6.33186 0.250159 1.590673 -0.845248
O 11.7074 8.30684 11.5884 -0.323956 1.320892 0.13045
O 3.25772 0.93704 8.48874 -0.763404 1.098371 0.541797
O 8.6688 4.53381 1.68155 1.333014 0.099148 0.462075
O 4.36076 2.53333 0.87376 -1.574734 -1.567242 -2.012062
O 10.2793 11.7763 8.45304 -0.02537 -0.62584 -1.027275
O 5.29613 4.27372 2.84453 -1.133559 -0.526981 0.581881
O 5.04762 10.3264 2.1181 -0.895246 1.886119 -0.210853
O 10.4658 5.78477 6.44813 0.981451 -1.929842 -0.652371
O 9.23326 2.41158 5.96781 1.293133 0.902558 0.354061
O 8.76803 5.46286 8.2705 -1.57867 0.258478 -1.908484
O 2.61641 4.13764 11.8322 -1.412951 0.013949 -0.746582
O 0.55382 5.2872 8.04254 1.614167 0.681984 -0.353784
O 8.59988 8.49523 1.39065 2.356159 1.828762 -0.235406
O 2.75281 0.6679 5.7349 0.467808 -0.490653 -0.033761
O 3.73011 6.4989 11.7644 2.654662 -1.426464 -0.833428
O 7.21134 3.18623 7.47456 0.23383 -0.147255 0.304081
O 0.52752 10.1419 3.37225 -0.906309 -0.627045 0.335362
O 5.71236 10.3885 6.50641 -0.164457 0.084248 -0.822306
O 6.35955 4.59265 5.40153 -1.019517 1.539553 -1.706021
O 2.7868 6.64144 7.03977 -1.50847 1.684208 1.379182
O 10.1968 0.38063 2.24905 -0.464469 0.769302 -0.071862
O 11.22 8.252 5.62133 -1.501063 -0.574987 -0.48866
O 10.8152 10.8003 10.8975 1.791014 -0.532948 -1.263415
O 9.82489 5.03793 10.7495 0.002343 0.191112 0.168297
O 2.42436 10.9132 9.35977 1.075692 -0.337915 -0.762666
O 6.24835 8.02264 2.70604 0.124662 0.367253 -0.200433
O 2.57069 10.1455 1.25561 -0.343628 0.968771 0.294954
O 11.3716 7.05963 9.48303 1.244938 -1.47518 0.277437
O 6.60752 7.26123 7.93867 -0.356697 0.155375 0.57727
O 3.12245 9.31054 7.19334 0.896066 -0.281083 0.626762
O 5.38001 7.10338 5.38035 -0.407203 -3.094002 -2.733952
O 8.10937 6.82791 11.9251 1.13879 0.054954 -1.705425
O 7.61669 11.8686 8.55391 0.453559 -0.234683 -0.081526
O 0.74379 12.0599 11.0827 -0.907252 -0.656917 0.770308
O 8.63685 4.75997 4.46268 1.05841 0.477967 -1.056307
O 9.10473 8.68287 9.51897 -1.091505 -1.135981 -0.468228
O 3.92774 10.7547 4.63713 0.855765 -3.698647 -0.931235
O 2.18618 0.45505 0.90424 1.286778 0.006137 -0.958992
O 9.27813 2.24764 0.74373 0.910461 -0.867969 -0.854171
O 6.71568 1.62858 12.2113 0.51544 3.514499 -0.601336
O 0.35537 4.05407 0.98097 0.418884 -0.536999 -0.121874
O 1.3078 7.0281 2.98505 -0.663094 -0.147402 0.355073
O 5.6899 3.03146 9.77456 -0.243429 -0.020926 1.418542
Na 0.6423 1.61203 10.2174 -0.653554 0.052931 -0.264419
Na 7.62321 9.64893 7.71446 -0.093795 -0.225304 -0.004316
186
energy=-1002.79763866 config_type=nep2xyz pbc="T T T" virial="-24.356483352081067 -5.778730607104521 -4.440539969357098 -5.778730607104521 -13.316110110334707 -1.5651633639460028 -4.440539969357098 -1.5651633639460028 -18.667313733671065" Lattice="12.4 0.0 0.0 0.0 12.4 0.0 0.0 0.0 12.4" volume=1906.6240000000003 Properties=species:S:1:pos:R:3:force:R:3
H 10.7965 11.3227 11.3827 0.618879 0.440079 -1.297898
H 5.45758 7.7996 2.01923 -0.048797 -0.216304 -0.523834
H 5.46309 5.61357 6.22482 -0.126077 -0.321491 0.589469
H 4.92982 10.1248 4.43399 0.007398 0.865468 0.099875
H 11.2543 1.72078 5.78055 -0.675451 -0.394997 -0.76218
H 0.01553 4.83578 3.32998 0.497105 -1.86115 0.017595
H 1.14203 6.37368 8.63507 0.130381 -0.092592 -0.044558
H 9.73931 5.52231 8.98201 2.50163 -0.96382 0.681089
H 7.95631 4.98038 3.94216 -0.052754 -0.187383 -1.134618
H 9.44402 11.7809 0.98812 -0.334762 -0.246254 0.186753
H 6.05608 8.02221 10.4166 -0.370881 -0.362021 -0.70074
H 3.97046 4.10647 5.92088 0.06351 -0.433675 0.147547
H 0.0066 8.5487 6.60439 -1.207857 -0.494327 0.624787
H 0.61728 6.30198 3.38689 -1.531054 -1.22696 -0.349351
H 10.578 10.7017 1.12567 -0.163941 0.106722 0.65033
H 3.99985 0.09702 12.2913 -0.807517 -0.598377 0.407201
H 8.58712 7.96302 4.05421 -0.314291 -0.114478 -0.369853
H 2.34427 8.79344 0.39515 -0.449229 -2.294242 1.244954
H 4.55817 12.2197 2.16427 1.276787 0.972953 0.514172
H 5.23718 9.65326 9.61587 0.242221 1.115789 0.063685
H 10.3867 8.53198 10.2331 -0.085846 -0.798728 0.478778
H 1.85288 7.92877 3.75522 -0.872014 1.395561 0.502141
H 7.53148 3.26476 3.13195 0.285306 -0.501326 -0.417734
H 1.9548 9.81421 2.89206 -0.110861 0.23716 -0.114611
H 6.85335 6.03601 5.54681 -0.496682 0.09236 0.160324
H 11.7278 5.64893 1.55216 0.184825 -0.149682 -0.855097
H 7.1648 12.0593 7.54919 -0.312036 0.286338 -0.416838
H 1.98252 1.27357 3.16127 0.14965 -0.471309 1.165283
H 5.13193 3.25599 11.9658 0.240402 1.388689 0.501112
H 2.51037 2.59819 4.70129 0.402545 -0.362716 0.166971
H 0.52667 9.31972 2.5119 -0.935797 -0.089013 -0.827928
H 8.31682 4.15854 11.676 0.117077 0.0021 0.078959
H 1.97462 4.33288 11.3988 0.364557 -2.18105 0.046333
H 5.7977 1.53757 8.0586 -0.154388 -0.370926 -0.086321
H 6.99072 1.20913 5.57737 0.435938 0.430359 1.767292
H 5.24265 7.41022 5.33912 -0.45104 0.062712 0.178054
H 10.9768 6.38159 4.1817 -0.764941 0.762145 0.096423
H 7.42242 6.0383 11.7176 -0.523176 -0.20164 -0.255851
H 5.10266 1.84194 2.74673 -0.542827 -0.238391 -0.373395
H 2.59181 12.3014 9.06233 0.384268 0.014864 -0.320314
H 5.78779 1.47028 11.1847 0.5909 0.447963 -0.362313
H 6.51391 6.99465 0.1275 0.14458 0.060206 -0.221203
H 6.6282 11.8064 2.17051 1.298655 -1.186558 -0.889782
H 10.2756 4.07703 0.61054 -0.068784 0.124462 -0.188191
H 3.1652 11.9568 6.76665 0.053001 0.116746 0.788165
H 3.51652 11.4128 5.32712 0.20404 -0.326683 0.542937
H 10.5602 8.64299 2.36442 0.181163 0.204102 0.237476
H 6.62188 4.05737 2.11197 1.980642 -0.18011 0.562151
H 4.38987 3.10859 3.40087 -0.580599 0.252295 0.624136
H 10.5302 1.97784 0.0446 1.255656 -0.027475 -0.19604
H 8.50333 4.46838 7.5666 -0.045192 -0.508895 -0.495026
H 11.6826 3.32504 8.35869 -0.427679 0.073653 -1.010344
H 9.17948 7.38044 12.0033 -0.840877 0.51927 0.049426
H 8.32696 4.28497 6.01977 0.091916 -0.075697 -0.127533
H 1.77327 0.07986 11.1163 -0.21395 0.287849 -0.626335
H 10.4724 1.79342 7.94682 -0.119542 0.177933 -0.687485
H 12.2947 4.67908 8.92746 0.284901 2.378753 -0.638697
H 3.44622 8.47086 6.16291 -1.387057 -0.07587 0.233718
H 7.05035 3.6153 10.9592 -0.018892 0.822609 0.230134
H 12.34245 5.56344 0.0685 0.971209 0.11842 -0.620568
H 5.0016 11.6332 3.76451 0.568815 0.197387 0.153989
H 2.48145 4.04744 4.27452 0.369091 -0.131646 -0.025354
H 7.0414 1.06809 3.44748 0.099937 0.437682 0.02992
H 2.74853 7.40723 7.62199 1.14841 -0.867432 1.276731
H 6.83114 10.8876 5.31796 -0.648212 -0.067024 0.044918
H 8.88789 11.4421 3.27407 0.913842 1.346326 1.230345
H 11.8921 1.42054 0.5536 0.1812 -0.472982 0.78088
H 8.88676 5.92095 4.86609 0.175045 0.057931 -0.343545
H 0.32043 10.2268 4.66276 0.157263 -0.0168 0.469588
H 4.55781 11.1443 9.14567 1.801257 -0.959295 1.371395
H 7.19941 10.2727 1.85224 0.195454 0.915269 -0.10511
H 10.5693 6.87085 12.19 0.616956 0.034243 0.314217
H 0.38394 12.155 10.4915 0.198627 0.120945 -0.41677
H 9.85155 2.98014 7.0748 1.284134 -0.72316 -0.074721
H 6.23252 8.13928 8.87885 0.955533 -0.214274 -0.973848
H 4.98488 8.24038 4.03902 -0.881161 -0.094122 1.089957
H 10.8891 7.20754 5.48293 -1.008704 0.255339 -0.393956
H 6.66402 11.1564 8.78421 -0.859819 -0.080558 0.423387
H 8.41861 11.2232 4.78907 -0.055389 0.02296 0.614177
H 5.53357 2.30859 9.81244 0.122022 -0.037391 0.980565
H 10.6584 11.9146 9.87553 -0.481924 0.290893 0.028938
H 0.97374 2.79918 2.6862 -0.528594 0.10237 0.428293
H 8.83518 12.35243 8.65231 -0.588411 -0.096738 0.389584
H 11.3713 11.0138 6.42173 -1.100559 0.136535 -0.295307
H 8.06606 7.34971 8.3368 -0.91143 -0.261105 -1.289999
H 8.38514 0.88777 4.10714 0.724208 -0.556849 -0.174239
H 3.70648 5.06178 7.07981 -0.003763 0.332815 0.730643
H 3.88164 6.82681 8.67021 0.433956 0.659937 0.315977
H 4.7725 3.30847 1.08401 0.0186 0.750641 0.215077
H 0.91134 6.49783 10.5534 0.180313 -1.149102 1.370047
H 4.99614 2.77083 7.82952 -0.644994 -0.565845 1.005881
H 10.1437 12.2275 7.84474 -0.666205 0.582205 1.34111
H 5.60356 11.5985 11.1355 0.033896 -0.845203 -0.861502
H 7.63839 2.04421 6.79365 -0.658949 -0.830286 -0.441531
H 2.19477 7.99364 1.75859 0.176267 -0.292553 -0.103408
H 4.8126 5.68203 0.53655 0.412991 -0.791021 -0.083232
H 6.54334 8.57023 2.86145 -0.271945 0.07024 -0.289805
H 10.6978 9.88543 9.6661 0.380453 0.16392 0.06409
H 2.60043 9.63769 6.59987 -0.211237 -0.531614 0.352404
H 3.07555 3.34808 11.8757 0.894756 0.015022 0.445359
H 7.78238 9.21769 4.51165 -0.544133 -0.05164 -0.185233
H 12.2752 2.71337 3.88152 -0.00864 -0.095864 -0.467333
H 3.88786 6.74942 1.04213 -0.86034 0.635909 -0.014603
H 11.3075 8.45714 7.79393 0.104926 0.044376 0.410745
H 2.98684 2.06424 2.2401 -0.017945 -0.172679 0.28607
H 10.6601 8.77336 0.84005 1.027004 -0.032568 1.298081
H 6.30426 11.699 0.15185 0.047923 0.445024 -0.322542
H 6.90776 7.25293 7.06626 0.757451 -0.00571 1.143118
H 10.0678 11.5611 5.73294 0.007756 -0.133709 0.265115
H 10.7362 0.73575 4.47546 1.201748 1.617552 0.997452
H 2.79707 0.35014 0.91351 -0.183235 0.107582 -0.075849
H 3.73712 0.82801 8.53989 0.515298 0.412382 0.013503
H 8.27235 5.40812 9.59058 1.020523 0.116982 -0.222276
H 1.62656 6.64182 11.9964 -0.749413 -0.983508 -0.864632
H 12.207 6.69782 7.8411 0.765247 0.056961 2.332811
H 0.86018 1.13515 4.83588 -1.409241 0.141661 0.087068
H 0.98981 10.5175 6.08314 -0.818369 0.112146 -1.018043
H 3.46834 10.6449 1.16805 -0.527153 0.185286 0.123316
H 2.16123 0.38119 5.00879 0.639243 -0.926934 0.884948
H 8.82871 3.87525 1.25471 0.643385 -0.691142 -0.706205
H 3.20976 7.28359 3.99792 -0.566244 -0.116766 -0.192365
H 4.40243 9.61515 1.86517 -1.218712 0.079258 0.512622
O 5.34884 10.6818 9.67597 -2.303875 0.300118 -1.313378
O 7.69023 10.4915 5.48103 0.838753 -0.103577 -0.84692
O 0.12258 10.3344 5.63369 1.393763 -0.070697 0.559044
O 12.1619 5.75481 3.24685 1.118401 3.284126 0.246559
O 2.09699 7.88115 0.79612 0.306148 1.771543 -1.498906
O 5.55864 8.1316 9.56542 -0.653683 0.000216 1.754682
O 12.1421 3.77097 9.07223 0.065006 -2.404956 1.558539
O 11.113 9.10285 1.71396 -1.071971 -0.698005 -1.548426
O 11.3973 1.45412 4.81949 -0.489355 -1.173122 -0.329841
O 7.57878 3.99098 2.46928 -2.204174 0.41196 -0.095281
O 2.56203 8.64792 6.64098 1.58247 0.881788 -1.015882
O 2.21784 3.31821 11.4662 -1.258463 2.537104 -0.509564
O 10.413 11.2938 6.61969 0.534233 -0.081987 -0.200989
O 11.4775 1.7939 12.1879 -1.431667 0.589604 -0.556278
O 0.39328 3.32091 3.30371 0.269072 -0.231371 0.026686
O 3.11981 3.3699 4.57053 -0.574898 1.136599 0.271791
O 11.5576 5.42172 0.59487 -1.615577 0.083258 1.36819
O 5.84899 12.2064 11.8403 -0.161659 0.530827 1.089
O 10.3227 6.98748 4.69155 1.298155 -0.885622 0.280303
O 10.5545 8.95551 9.38829 -0.3218 0.434713 -0.948691
O 4.38376 4.44449 6.75254 -0.134035 -0.130677 -0.661726
O 9.4359 3.57967 0.50712 -0.55911 0.514222 0.718962
O 4.9184 3.91925 0.31734 -0.23318 -1.495471 -1.027871
O 9.75198 0.27707 8.72246 1.47822 -0.421369 -1.648819
O 4.66367 2.73354 2.56236 0.922236 -0.625758 -0.390072
O 7.46469 11.2145 1.71973 -2.142943 0.607259 0.977046
O 10.7282 2.43426 7.22732 -1.216336 0.228521 0.616828
O 7.70836 1.59448 3.9385 -1.468039 0.262514 -0.123484
O 8.51269 3.77819 6.84915 -0.102292 0.454187 1.003051
O 1.17518 5.96316 11.3754 0.738162 2.147236 -0.305862
O 3.09748 6.60645 8.17296 -1.601501 0.108446 -1.392531
O 5.67361 8.69044 2.34681 0.775274 -0.252357 0.933219
O 1.7965 1.18901 4.63711 -0.1099 0.310574 0.293311
O 4.81166 6.60104 0.85274 0.394147 -0.017609 0.153201
O 7.05254 1.25399 6.60466 0.239388 0.695852 -1.045458
O 1.05485 9.63281 3.2409 0.841217 0.116692 0.760586
O 4.96794 11.0862 4.63161 -0.487195 -0.846268 0.184867
O 6.08404 6.36996 6.11137 0.674182 0.009109 -0.867633
O 0.17651 6.36792 8.77938 -0.175055 0.080237 -1.889644
O 9.15001 11.9239 4.13609 -0.414231 -1.320578 -1.108655
O 8.87829 5.84058 8.91765 -3.500129 0.413423 -0.014001
O 10.3974 11.654 1.02325 0.410051 0.170773 -0.811879
O 7.24504 6.98802 11.8827 0.210186 0.467802 0.226738
O 3.42149 12.3142 8.51312 -1.094396 -0.658128 0.417143
O 7.73588 8.40795 3.8717 0.756026 0.487708 0.771382
O 3.44289 9.9414 1.85348 1.459245 0.341712 -0.463376
O 11.6947 7.98209 7.03126 0.731935 0.369445 -1.331478
O 7.44483 7.82682 7.71278 0.553477 0.490254 0.447356
O 2.76338 11.5401 5.99194 -0.064383 -0.46234 -1.061951
O 4.52589 7.99543 4.91689 1.337509 0.094996 -1.663144
O 10.0897 7.71237 12.0386 0.092042 -0.393297 -0.308243
O 7.41612 11.448 8.24902 1.405613 -0.130686 0.019728
O 1.21283 0.28497 10.3176 0.268373 -0.835641 1.028491
O 8.08262 5.34949 4.81968 0.277985 0.405845 1.073386
O 11.1968 11.3182 10.4517 -0.157218 -0.220817 1.592588
O 5.31252 0.23066 2.68198 -0.494108 -1.115513 -0.78325
O 3.09687 12.1623 0.18297 0.856589 0.519801 -0.233428
O 7.53754 4.47324 11.1563 0.417515 -0.922587 -0.577856
O 5.88663 2.36736 10.7651 -0.350444 -0.46535 0.269571
O 2.16059 1.53459 2.25693 0.311174 0.541181 -2.890133
O 2.36497 7.18789 3.47094 1.127167 -1.196027 -0.062066
O 5.02234 1.98711 8.46695 0.62781 1.315186 -2.150103
Na 0.4599 2.37364 10.5624 0.013645 0.148812 0.20832
Na 8.71453 9.75893 7.25604 -0.206708 0.040482 0.222712
186
energy=-1001.72327171 config_type=nep2xyz pbc="T T T" virial="-21.3741833499891 -0.19152199734912995 -1.2982297288932914 -0.19152199734912995 -22.745611277322464 -0.90903332505936 -1.2982297288932914 -0.90903332505936 -7.904572416751049" Lattice="12.4 0.0 0.0 0.0 12.4 0.0 0.0 0.0 12.4" volume=1906.6240000000003 Properties=species:S:1:pos:R:3:force:R:3
H 11.3243 10.6825 9.71164 1.409982 -1.203448 -1.226168
H 10.6305 11.0176 3.54385 -0.288529 0.041821 -0.147973
H 5.61866 6.22951 5.61901 -0.217925 0.583905 -1.055152
H 8.06348 12.0487 6.68294 -0.690374 0.373124 -0.149384
H 11.1532 0.71474 2.51302 0.409502 -0.684611 0.244371
H 2.10997 7.01415 5.19007 -0.191307 -0.646293 0.017361
H 1.40809 2.78644 9.84652 -0.138313 0.550738 0.44248
H 1.00151 8.76952 10.8355 -0.114609 -0.2029 0.894761
H 9.44355 11.2291 5.54515 0.224871 -0.624275 0.06749
H 10.993 10.4571 11.9162 -0.434334 -0.241099 0.759942
H 4.40735 7.86964 10.7468 0.37966 0.799083 -0.322318
H 3.04618 1.57792 5.78392 -1.078722 1.058504 0.048561
H 0.7536 10.3511 7.91113 0.090773 0.165424 0.159487
H 1.51898 5.52303 5.4421 1.111274 1.125161 -0.51626
H 0.3584 8.89663 3.46895 1.0074 -0.441398 -0.056795
H 6.14288 7.20181 3.75211 0.263649 -0.234514 -0.853203
H 4.79918 8.61908 5.19246 0.6981 1.491758 0.892632
H 3.26078 5.30679 0.84056 -0.921151 0.306271 0.988378
H 7.8135 12.3306 1.9594 0.509402 1.967191 -1.480349
H 5.49421 9.85033 11.6936 0.468783 0.471668 -0.215204
H 1.50936 1.70423 7.98592 -0.694317 -0.36982 0.606402
H 2.29694 3.73095 2.63288 -0.183118 0.778457 -0.875424
H 6.94523 11.1049 2.27627 0.750503 -0.150679 0.650231
H 2.30664 9.85654 0.33637 0.309557 -0.746705 0.899726
H 4.42327 6.29971 4.51534 0.392985 0.337472 0.56264
H 10.9924 7.36851 0.37655 -0.158682 -0.540211 -0.122151
H 8.17156 9.72194 9.74041 0.090278 -0.640504 -0.456956
H 0.76588 4.48464 1.11496 -0.549049 0.488946 -0.100486
H 2.20277 1.21231 1.09979 -0.864881 -1.267278 0.21671
H 9.72374 6.29877 6.37419 0.603223 -0.468505 0.455793
H 11.1188 11.1159 0.85384 0.563244 1.565454 1.317705
H 7.35626 2.80183 11.1716 -0.683769 -0.788907 -0.424336
H 0.37361 2.33479 11.8448 -0.142841 -0.034484 -0.443023
H 5.45377 2.81892 8.52935 -0.742325 0.059223 -0.454826
H 7.51103 1.28447 8.13278 0.293002 -0.106913 -0.133428
H 5.55064 2.77906 2.65315 -0.907066 0.021411 0.129948
H 12.2653 8.78763 9.33556 -0.012673 0.562724 -0.623384
H 6.56827 4.43287 9.50373 -0.234807 -0.361301 0.302219
H 3.66386 2.24784 1.45966 -0.081854 -0.071123 -0.659911
H 4.47286 0.31481 10.6337 1.375398 -0.5001 -0.316684
H 2.83207 0.88812 11.3454 0.083305 0.034006 0.217208
H 7.13247 5.93071 9.78176 -0.787084 -1.479394 -1.214437
H 11.2196 9.04282 1.40045 0.210314 0.223299 0.017743
H 8.12524 3.89485 11.5074 0.985477 1.512984 0.364854
H 5.95264 10.973 4.66277 -0.849406 1.910491 0.853376
H 6.47916 12.2321 4.02955 0.193117 0.303171 0.292489
H 7.98166 6.12298 11.8671 0.702832 -0.530312 -0.901151
H 6.56048 4.56936 1.73867 0.07446 1.127349 -0.876956
H 3.47569 1.57871 2.97397 0.0691 -0.033104 -0.058495
H 10.8998 0.03032 8.76142 0.034086 0.683421 -0.211344
H 7.06798 3.43082 5.7771 0.26747 0.956895 0.610527
H 11.6792 4.76343 6.70056 -1.570442 0.225334 -0.169925
H 9.12395 3.24432 8.80643 -0.268064 0.855539 0.589399
H 7.60842 1.90751 5.67903 -0.522231 0.706525 -0.086535
H 2.29091 10.7284 11.5712 -0.126778 0.179629 -0.717601
H 8.5843 8.23802 7.47691 0.03179 0.703368 0.412079
H 10.4844 4.78924 7.68983 -0.502625 -0.358799 0.034524
H 1.57735 5.08959 7.56127 0.682846 -0.077603 0.367886
H 5.08362 3.4269 10.3184 -0.345338 0.066385 0.270504
H 11.3462 6.01675 12.0986 0.480467 -0.637382 0.625334
H 6.43904 0.16367 6.29874 1.881689 -0.448663 0.271668
H 9.40147 7.40977 5.37448 -0.518709 0.40024 0.004821
H 10.6437 3.36953 3.39026 0.073654 -1.464587 -0.982019
H 1.19364 6.4133 9.02596 0.40001 0.045952 0.947729
H 5.10272 9.70431 7.49286 -0.238252 -0.154811 -0.86295
H 8.15991 2.38687 0.75041 0.774782 -0.266303 -0.993722
H 10.8855 1.04921 7.51529 0.000804 0.018992 0.563937
H 9.24957 10.4 6.93462 -0.340633 -0.629449 -0.122986
H 0.83662 12.2138 4.64552 -0.304136 0.244238 -0.253795
H 5.83479 11.4555 11.7734 0.812541 -1.725371 0.034788
H 10.7029 8.19567 2.60821 0.724038 -0.231849 -0.913507
H 9.25909 4.60016 9.69848 -1.411248 0.584315 1.337403
H 2.36641 0.41744 9.95397 0.268579 -0.111873 0.372488
H 7.36961 9.13563 7.82686 -0.28469 0.305467 0.1243
H 3.60421 9.1788 10.9636 0.871379 0.029802 -0.019044
H 6.58258 2.91212 3.85691 0.093907 0.08285 -0.463358
H 11.3307 9.08648 7.98657 1.186413 0.605427 0.793015
H 7.4316 10.247 11.0557 0.353251 0.50035 -0.101452
H 5.32375 9.17543 8.91604 -0.736271 -0.823935 1.320335
H 2.12916 12.1298 1.69133 0.224462 -0.041806 -0.150557
H 9.87467 10.9516 10.0761 1.507269 0.656493 1.21557
H 9.19155 9.17377 3.77363 0.013975 -0.647637 -0.215812
H 10.4678 2.90464 6.31616 0.469464 -1.648152 -0.608763
H 1.35467 11.3958 5.84224 -0.064454 -0.315847 1.44613
H 6.84774 5.22957 7.39697 0.070249 0.454817 -0.306365
H 9.74517 2.51502 2.40328 0.322203 -0.390597 0.402949
H 3.28123 2.60493 6.86663 0.822878 0.378468 0.687282
H 2.77937 5.97111 9.25253 0.078022 0.333766 1.014045
H 4.30509 2.22235 11.7056 -0.388692 0.170465 0.36776
H 2.29474 9.43858 2.54221 -0.707535 0.684631 -0.523869
H 5.62439 2.48341 6.97841 -0.848647 0.454768 0.498985
H 10.6451 2.06082 5.01579 -0.014471 -0.373331 -0.076607
H 5.839 8.76963 2.42844 0.459128 1.545982 -0.551379
H 7.11488 1.72835 9.60202 0.344709 0.402097 -0.678192
H 3.6509 4.06326 0.0125 0.088926 -0.310472 -0.033274
H 4.93274 5.83659 9.85089 -0.409429 0.590807 0.026381
H 9.12238 11.2593 3.18396 -0.599355 0.000312 -0.272981
H 0.23059 1.32016 8.98195 0.56131 -0.008873 -1.062355
H 1.69022 3.77369 6.53622 -0.242276 0.456822 0.513514
H 11.7496 2.9267 0.35572 -0.128875 0.113633 -0.142052
H 3.79605 9.48825 5.72651 -1.618822 0.429599 0.629457
H 8.2538 7.86368 3.40722 1.074166 0.626204 0.115571
H 3.93595 5.73534 11.0712 -0.049187 0.439675 -0.049567
H 2.15251 11.1626 7.91752 0.527001 -0.088601 0.531346
H 0.46305 4.4621 11.9819 -0.065486 -0.115342 0.188091
H 9.34364 6.31645 11.0987 0.229723 0.246837 0.601398
H 5.88278 9.94578 1.27118 -0.140732 -0.306762 -0.199167
H 7.75705 5.69373 6.16945 0.567857 0.671724 0.166055
H 7.42796 2.26441 1.98517 0.619963 -0.439398 0.839927
H 0.12395 0.22168 2.04516 -0.451796 -0.528464 0.187328
H 6.55348 6.73925 2.26683 -0.081738 -1.193508 -0.904188
H 5.64691 1.36641 10.6976 0.13455 -1.077131 -0.46516
H 12.1205 7.76211 11.0684 -0.942797 -0.436007 1.307084
H 1.09541 10.1166 4.1148 0.891445 -2.219581 -0.175131
H 2.31018 3.08711 11.0381 0.914734 -0.174254 0.786413
H 2.93208 12.225 4.38683 0.711091 0.988856 -0.081717
H 1.77828 8.74196 6.7274 0.398862 -0.381654 0.166223
H 3.60918 10.0049 2.4229 2.335461 0.379875 -0.014132
H 4.49218 0.27885 4.40081 -0.579599 -0.219922 0.027717
H 5.53175 5.21993 0.70317 1.97626 0.32497 0.681299
H 1.75021 5.17622 2.91438 -0.146777 0.89172 1.000527
H 2.48111 7.5487 7.49934 -0.157447 0.036769 -0.142447
O 6.20078 10.509 11.9942 -1.491577 0.995024 0.140452
O 5.5106 9.89795 8.34005 1.095715 1.228109 -0.684216
O 2.57035 8.17008 6.74273 -0.441181 0.419834 -0.053297
O 2.07731 6.10402 4.82075 -0.604525 -0.613081 0.194171
O 3.84653 5.04668 0.14382 0.979792 -0.577752 -0.792321
O 4.53146 8.87309 10.7138 -1.114135 -0.914518 0.440867
O 10.6507 4.86398 6.72767 2.356627 -0.347434 0.012366
O 8.48183 5.86167 11.0411 -1.08357 0.301331 0.793669
O 11.69 12.2813 2.49421 0.21405 1.23077 -0.417214
O 6.51621 5.32779 1.06155 -2.146294 -1.346984 0.176859
O 1.15173 4.52517 6.88923 -1.105609 -0.671241 -1.346864
O 11.8471 2.20302 12.1088 -0.40023 -0.54334 0.034326
O 1.43929 11.5056 4.88901 0.052141 0.315033 -1.205105
O 10.978 0.97831 8.50115 -0.070728 -0.479071 -0.074226
O 9.17671 8.17807 3.69347 -0.806596 -0.153604 0.105432
O 9.17356 7.09342 6.28258 -0.034825 0.215735 -0.543151
O 10.8518 6.82845 11.9463 -0.00935 1.165523 -0.056962
O 5.6714 9.76638 2.20693 -0.118625 -0.66039 0.695658
O 12.0673 9.47165 8.54147 -1.551004 -1.366841 -0.285017
O 1.21371 1.45806 8.9031 0.429243 0.105598 -0.179028
O 2.55999 2.29506 6.31101 0.385818 -1.486697 -0.560368
O 8.25479 2.95059 11.5167 -0.328575 -0.366141 -0.012099
O 3.45717 2.44703 12.13 0.433032 -0.128537 0.01456
O 10.6317 1.94919 5.98069 -0.526385 2.127801 0.62901
O 3.52018 2.38994 2.41371 0.238814 0.645552 0.573485
O 11.4656 8.25547 1.94878 -1.131052 -0.160821 0.920185
O 8.31896 9.05552 8.00779 0.384162 -1.078455 -0.800392
O 10.5854 2.47245 2.94279 -0.639482 1.768734 0.583423
O 7.02142 2.60665 5.29673 0.193262 -1.340198 0.010224
O 1.24727 9.10083 3.86939 -1.743419 2.106235 0.073359
O 2.03888 6.15412 8.65005 -0.452136 0.300755 -1.735408
O 9.71307 10.7826 3.79022 1.125936 -0.06729 0.924746
O 3.56205 0.60415 4.2477 -0.373264 -1.020331 0.474391
O 4.11774 6.27088 10.2432 0.668409 -1.120395 0.026574
O 7.87651 1.51748 9.01965 0.079677 0.135929 0.70642
O 2.19288 9.77935 11.773 -0.164741 0.720505 -0.734522
O 7.26654 0.28276 6.87289 -0.880505 0.111653 0.035897
O 5.20798 6.78573 4.86493 -0.471337 -0.883846 0.925365
O 1.52514 3.43614 10.6003 -0.754419 0.012407 -0.803368
O 8.23614 1.84798 1.5552 -0.783663 0.460998 0.338821
O 0.37392 8.11108 10.4728 1.13196 0.362934 -1.756349
O 10.8308 10.3022 0.48907 -0.243431 -0.97614 -1.969191
O 6.54247 5.35959 9.16789 0.861424 1.740214 0.720327
O 5.52728 0.35402 10.6314 -1.649313 1.363936 0.51584
O 4.72698 9.56746 5.58963 1.137966 -2.209289 -1.290035
O 2.81087 10.0494 1.92765 -1.796671 -0.689905 0.518293
O 1.31485 11.0525 7.48698 -0.350853 0.188964 -0.993269
O 6.89365 5.35925 6.41302 -0.942515 -1.035589 0.313372
O 5.92011 11.9916 4.80613 0.506133 -2.273851 -1.555785
O 6.40939 3.1423 2.89255 0.147804 0.070347 -0.102088
O 9.63601 4.05116 9.04589 1.42283 -1.636799 -1.737444
O 8.13439 10.4505 10.3616 0.026925 0.3952 -0.017919
O 2.92135 0.12112 10.7259 -0.551919 0.285221 -0.455722
O 9.34825 11.265 6.52528 0.083338 0.984499 -0.149705
O 10.847 11.2441 10.2964 -3.180186 0.425232 0.113033
O 7.68131 11.6877 2.62246 -1.706628 -1.401527 0.726164
O 6.63428 7.4542 2.89162 0.004336 1.016233 1.451973
O 5.89239 2.98984 10.0457 0.606176 -0.322706 0.415177
O 1.62258 0.3994 1.20291 0.611882 0.898335 -0.042029
O 0.02932 4.6385 0.44409 0.40629 0.063194 -0.479968
O 1.85716 4.53918 2.21727 0.919271 -1.506309 0.151303
O 4.95666 2.81091 7.6325 1.308978 -0.562393 -0.285063
Na 10.1082 1.76537 10.5495 0.093319 0.104079 0.027764
Na 6.73312 11.8024 9.00733 -0.033502 -0.442248 0.086729
186
energy=-1001.15427091 config_type=nep2xyz pbc="T T T" virial="-15.850188661565795 -0.5258346276168762 -2.44273253087245 -0.5258346276168762 8.221903445787454 -3.351896758253845 -2.44273253087245 -3.351896758253845 -5.680768069377539" Lattice="12.4 0.0 0.0 0.0 12.4 0.0 0.0 0.0 12.4" volume=1906.6240000000003 Properties=species:S:1:pos:R:3:force:R:3
H 9.76537 9.02257 8.51447 0.286738 0.120109 1.071344
H 0.40797 10.3353 3.7264 0.815866 0.415136 -0.274254
H 7.25996 4.37827 6.83228 0.501498 -1.118897 -0.413651
H 8.60253 10.8211 5.29691 -1.651056 -0.294285 -0.730077
H 11.1053 4.13308 2.15898 0.042787 0.264589 -0.4323
H 1.49376 6.38655 5.26794 -0.310476 0.476946 -0.023189
H 8.93042 0.35391 4.65752 0.391055 -1.331216 0.65605
H 11.3954 7.94688 6.74785 1.463366 -0.465325 -0.757395
H 6.41532 3.49878 3.64872 -0.487781 -1.188719 1.150391
H 0.46105 6.59213 9.16538 0.512583 0.863416 0.469386
H 8.78713 6.90103 10.6916 -0.09868 0.650445 0.624157
H 5.6398 0.90834 8.82157 -0.366477 -0.370858 -0.151908
H 0.8434 8.65506 7.10033 -1.227534 -1.287407 -1.175376
H 10.9255 10.3848 5.1316 0.883156 -0.376279 -0.423673
H 1.37143 7.83141 9.26982 0.566677 1.108081 -0.762915
H 11.8053 1.75151 4.19109 0.186833 -0.485727 -0.02711
H 8.45189 10.3498 1.2904 0.4307 -0.114493 -0.388022
H 3.47107 7.11808 1.98089 -0.437913 0.343345 -1.167925
H 4.43782 9.19339 4.52182 -0.3032 -0.450972 -0.400822
H 6.29666 8.70848 9.7252 0.149124 1.28405 0.019196
H 1.87108 6.41569 0.11733 0.407474 0.024169 0.130656
H 2.86223 5.70045 5.4427 -0.037974 1.462354 -1.601805
H 8.77046 8.64414 12.2374 -0.26706 -0.246648 -0.495415
H 0.61038 0.01788 2.86207 0.568333 -1.041072 0.31352
H 6.49203 4.84742 8.04619 0.018241 -0.081646 0.795659
H 9.46426 7.80247 3.85581 0.622354 -0.564512 0.734003
H 5.55197 10.2182 10.6831 0.451954 0.008249 0.208311
H 0.69263 10.7779 11.9743 0.741956 -0.841038 0.848016
H 3.25709 1.65176 1.09804 -0.476225 -0.111882 0.593305
H 0.06524 4.69084 2.8062 0.091082 -0.600369 -0.426776
H 0.64785 1.51557 2.61484 1.298446 1.051587 -0.621134
H 7.27416 4.98328 2.1362 0.149071 1.230784 0.056233
H 1.10795 5.27255 7.74822 -0.121733 0.183925 -0.576183
H 4.9631 4.38843 10.4514 -0.874053 -1.275167 -0.431471
H 7.22861 3.82345 9.79423 -0.386977 0.820493 0.274052
H 7.64102 9.49892 3.85769 0.875115 -0.75955 -0.243238
H 1.69577 10.4975 6.76065 -0.136708 -0.267776 0.706614
H 7.72572 1.86879 0.84123 -0.650231 -0.037316 -0.041285
H 1.33625 3.86326 11.8525 -0.125384 1.709054 0.252385
H 4.04802 11.9531 11.9052 0.011567 -1.370727 -0.047604
H 5.33559 4.11514 1.44195 -1.201084 0.638741 -0.45031
H 9.17224 1.55421 1.06895 0.389654 0.482602 -0.217143
H 7.82019 11.2844 2.27887 -0.108577 0.091037 -0.352271
H 8.34072 7.26686 2.37639 -0.15206 -0.746061 -0.458309
H 4.14858 8.5735 6.45332 -0.280848 -0.198901 0.342094
H 4.26849 7.79996 7.79659 0.581385 -0.194943 0.595201
H 6.78025 0.11268 0.93692 0.538578 0.090851 0.484193
H 8.18109 7.47455 0.38485 -0.491684 -1.599568 1.096648
H 2.47818 3.14845 11.0872 0.909586 0.639673 -0.52977
H 9.70051 3.72027 10.5114 -0.605805 -0.850098 0.551781
H 9.86345 3.56018 6.88055 -0.422428 1.870166 0.473176
H 5.77974 12.1087 7.0553 0.885851 0.446548 0.672402
H 11.7727 6.42983 0.74709 -0.195194 -0.277665 -0.36377
H 10.731 2.63308 6.14788 0.003546 -0.555511 0.878473
H 12.1739 12.3041 10.9135 0.107787 -0.50017 0.125003
H 11.954 9.10825 5.41157 -0.087421 1.876332 -1.449241
H 6.77985 0.89726 7.28044 0.430438 0.786696 -0.883925
H 4.99703 4.02381 5.02629 -0.987259 0.765908 1.069643
H 7.46004 3.62181 1.58176 0.331755 -0.785127 0.120617
H 9.4328 8.76861 2.56303 -0.680723 -0.1905 -0.195039
H 9.39674 11.5908 6.47808 -0.10762 -0.319859 -0.250176
H 2.15083 5.2462 2.98078 0.237651 -0.095749 0.681031
H 8.50609 2.32337 6.78912 -0.980797 -0.674642 0.294182
H 1.53739 3.17428 5.96156 -0.239299 0.184982 -0.547381
H 5.44135 0.63779 2.92489 1.074654 -0.245247 -1.371251
H 5.60465 0.88511 0.48533 0.219796 0.491077 0.81126
H 8.89183 2.5833 11.5083 0.603731 1.243886 -0.920578
H 5.68095 2.19605 4.25514 -0.586268 -1.356835 -0.578676
H 2.22639 0.38671 7.73576 -0.22355 -0.806866 0.084857
H 6.48582 7.28986 10.0721 -0.156642 -0.749696 0.77151
H 8.82857 10.2138 10.6305 1.233066 0.5091 -1.190547
H 10.7086 7.46268 1.13444 -0.574883 0.752721 -0.082378
H 11.3938 11.7958 12.1489 -0.92038 0.474375 0.917077
H 11.0653 5.99317 3.72517 -0.548364 -0.181565 0.07249
H 9.88078 5.90761 10.1003 -1.103291 0.676392 -0.255364
H 6.43795 10.1663 4.46197 -0.828178 -0.036793 0.554251
H 1.54074 11.2938 5.44837 0.558649 0.369537 1.011976
H 6.36203 11.2003 9.97189 -0.035559 3.088922 -1.643734
H 3.98838 1.03201 3.27256 1.38927 -0.237773 0.15695
H 4.16692 3.6767 0.45296 -0.040825 0.226373 -0.239436
H 9.24474 9.46264 7.19088 0.545522 -0.794 -0.20741
H 11.1331 0.4512 1.41366 -1.667586 -0.434962 -0.144377
H 8.49483 12.384 8.30886 0.134325 -0.411434 0.010815
H 0.84682 1.23529 9.37429 0.3444 0.064374 0.295248
H 10.6394 5.68411 7.12235 -1.687495 -0.753385 -0.226192
H 7.54113 2.65838 5.71757 -1.099439 -0.742671 -0.1386
H 4.04545 1.22486 8.89539 1.315331 -0.396173 0.754064
H 3.08962 3.58941 6.12835 -0.000427 0.253242 -0.062692
H 2.65596 2.68198 2.12354 -0.327541 2.395421 -0.037959
H 11.9179 3.92973 10.2416 0.924768 -0.200938 0.710094
H 4.59004 2.89767 9.942 0.40437 0.182634 -0.030803
H 9.76379 11.6212 8.92658 -0.94391 0.318964 -0.427027
H 2.95029 10.234 12.0678 0.527497 -0.063653 -0.525938
H 7.70399 5.30267 9.90822 -1.723879 -0.961264 -0.193336
H 3.83981 5.92562 1.06177 -0.433409 0.1314 -0.40706
H 6.49555 8.35608 0.042 0.272603 0.420755 -0.713053
H 1.29738 10.4155 2.31697 -0.201988 0.387586 0.912148
H 1.06043 6.36584 11.2102 -0.001543 0.146435 -0.034634
H 4.96336 4.96965 6.29018 0.043057 -0.010243 -0.035195
H 0.18993 6.54761 7.01912 0.204858 -0.219621 -0.168538
H 10.6672 9.48589 1.54543 1.097636 0.8423 -0.05235
H 9.72822 11.9964 1.22678 -0.787404 -0.929959 0.753077
H 5.20734 7.66358 0.43114 -0.464588 0.356308 -0.517966
H 2.28453 8.89888 7.58428 0.453986 -0.329108 -0.222389
H 1.0009 9.24611 12.279 0.455852 0.690107 0.170995
H 10.3925 10.4174 10.718 0.425496 0.206776 0.134343
H 4.35795 9.43314 12.0595 -0.290503 1.424437 -0.408144
H 9.95389 5.60249 5.82357 -0.33289 0.30277 -0.582614
H 0.72044 1.84803 10.8372 0.313247 0.254005 -0.183762
H 4.46652 0.08084 5.1659 0.586518 -0.091373 -0.37548
H 11.3377 3.21255 3.9727 0.262707 -0.047289 0.619775
H 4.35448 0.93072 11.2754 -0.027983 -0.161956 -0.505231
H 11.5094 6.9008 4.8884 0.144569 0.606364 0.812946
H 11.7939 4.59123 8.84983 0.235646 0.22275 -0.619386
H 9.84087 1.58498 4.30641 -0.069982 -0.311517 0.274231
H 3.51642 11.7962 6.20381 -0.036336 -0.381627 -0.027059
H 2.11991 1.85179 7.59673 0.362808 0.576169 0.489999
H 2.84264 7.79021 3.89759 0.284138 0.013658 0.443699
H 4.64812 10.4701 5.44353 0.200376 -0.218311 0.133529
H 9.0822 6.25272 1.41036 -0.313986 -0.090234 0.122116
H 1.67591 5.20179 1.58911 0.034965 0.529953 -1.620601
H 2.80478 9.23593 3.33621 -0.380058 0.341634 -0.124093
O 6.5609 7.88125 9.33706 0.145927 -0.889202 -1.289523
O 4.8777 0.73853 3.67431 -2.558589 0.837432 0.58704
O 2.21945 1.1675 8.30828 0.000998 0.248262 -0.661033
O 11.8021 9.99005 4.82426 -0.586927 -1.748227 1.69626
O 3.32395 6.78673 1.0479 0.885669 -0.312582 1.51366
O 9.0287 6.38573 9.90216 1.217137 -1.232195 -0.184097
O 6.52223 0.05213 7.66057 -0.949626 -1.119408 0.003308
O 9.65614 10.4382 10.0926 -1.601896 -0.932369 1.000132
O 11.5245 4.42547 2.9708 -0.120942 0.173412 0.308472
O 8.08903 7.96829 11.9621 1.31831 1.786309 -0.924474
O 4.34703 4.64114 5.60996 0.865108 -1.068796 -0.825634
O 0.22897 5.57178 7.45674 -0.049174 -0.22181 0.89867
O 0.23728 1.35436 10.1423 -0.873068 -0.563301 -0.153444
O 9.08996 2.94766 10.5611 -0.248147 -0.524712 0.683048
O 10.279 0.29288 0.8836 2.759908 1.260379 -0.114325
O 1.70707 4.65526 2.35516 -0.385713 -0.444095 1.318711
O 8.84922 8.30987 3.32911 -0.682918 0.243428 -0.109593
O 3.89172 10.2759 11.7146 -0.190912 -1.04875 0.714428
O 1.95653 11.3724 6.35037 -0.499068 0.588958 -1.607646
O 1.12731 5.94351 12.0977 -0.361243 -0.221919 0.28685
O 4.90714 1.15341 9.43482 -1.626748 0.751394 -0.317872
O 8.16406 6.53207 1.62703 0.524547 0.121052 1.066171
O 2.8866 1.79112 2.00263 0.639551 -2.454003 -0.363398
O 9.46553 12.2971 8.24968 0.295392 0.019493 0.190315
O 1.70908 3.0263 11.6387 -0.486633 -1.880063 0.323898
O 8.03735 11.241 1.31737 -0.086887 -0.127958 1.115646
O 10.7158 6.54503 4.45326 -0.053468 -0.378781 -0.672265
O 7.51308 2.27274 6.6189 2.190587 1.155581 0.098682
O 10.3004 2.73882 7.05713 0.468099 -1.178301 -1.142258
O 11.3247 4.07736 9.52132 -1.086406 0.243163 -0.133168
O 2.27667 3.23428 6.56202 0.006785 -0.333948 0.690106
O 1.25112 10.7312 3.26195 -0.52241 -0.647792 -0.979353
O 4.4698 11.8572 5.91496 -0.443302 0.807986 0.7865
O 5.54519 8.34445 12.214 -0.350002 -1.06087 0.998622
O 6.82952 4.7336 9.79934 2.181021 0.045964 0.278088
O 0.06048 0.8042 2.78176 -1.70654 -0.247534 0.067214
O 9.44443 10.9782 5.70767 1.579198 0.498926 1.246174
O 6.76627 5.11281 7.16113 -0.72701 1.529459 -0.345052
O 8.94854 1.20466 4.26601 -0.437148 1.679586 -1.086841
O 6.39359 0.99867 1.1161 -1.254016 -1.029222 -1.085831
O 12.2745 7.70244 6.29326 -2.033818 0.432801 0.583427
O 0.90796 7.20997 9.80894 -1.337372 -1.789787 -0.008867
O 8.59774 2.31647 0.80374 0.270403 0.038479 -0.321345
O 4.10382 0.4938 12.1024 0.319382 1.785984 0.486405
O 9.8164 9.14912 1.31508 -0.430911 -0.284683 -0.597617
O 3.37857 8.46651 3.42978 -0.170452 -0.459516 -0.332464
O 1.38248 9.27547 7.5756 1.027419 1.516149 1.757932
O 9.71665 5.44675 6.75811 2.011352 0.567158 0.784403
O 3.62359 8.06578 7.15006 0.194255 0.350858 -0.717688
O 7.32914 10.3587 4.15404 0.252912 0.92864 -0.176323
O 10.8079 6.54483 0.84373 0.699522 -0.438975 0.029129
O 6.45501 10.3577 10.3102 -0.650432 -2.628092 1.603743
O 11.9509 11.4732 11.4445 0.410955 0.518511 -1.554827
O 6.07123 3.02534 4.50124 1.120334 2.874608 -0.92918
O 9.60148 8.65626 7.64767 -0.567248 0.901348 -0.993061
O 4.92435 9.51821 5.29272 0.500334 -0.137671 0.255844
O 11.4075 2.4953 4.67017 -0.117621 0.334511 -0.328987
O 6.86901 4.10816 2.17629 -0.256867 -0.254417 -0.173415
O 4.41653 4.37481 1.07106 1.436494 -0.623067 0.582967
O 1.34746 10.1378 0.10485 -0.919256 -0.302234 -0.354168
O 2.36467 6.3856 4.85205 0.302095 -1.930037 1.044014
O 4.22301 3.72965 10.3006 0.342616 0.780743 0.586203
Na 10.3886 1.80319 9.10596 0.36497 0.214907 -0.127028
Na 8.13556 6.97967 7.85471 -0.185413 -0.276694 -0.095739
186
energy=-1001.62700857 config_type=nep2xyz pbc="T T T" virial="-14.154598984027992 -0.6170259452312904 -0.7553777994117915 -0.6170259452312904 -7.83634850654833 -3.8745659297196795 -0.7553777994117915 -3.8745659297196795 -26.716116708883117" Lattice="12.4 0.0 0.0 0.0 12.4 0.0 0.0 0.0 12.4" volume=1906.6240000000003 Properties=species:S:1:pos:R:3:force:R:3
H 9.0743 9.46181 6.8712 0.807297 -0.361092 0.562639
H 0.95625 10.5024 2.82329 -0.527134 0.224638 0.892299
H 6.10953 5.42775 6.82898 -0.511565 -1.410277 -0.626987
H 7.74705 10.2777 5.84041 0.516543 0.857476 2.432926
H 1.51169 4.76262 3.4669 -0.149012 -0.411234 0.331006
H 1.52949 7.19439 5.49087 -1.050646 0.903971 0.443149
H 9.34025 11.4988 6.04191 -0.68375 -0.223973 0.5616
H 12.0027 8.50413 6.74682 1.170625 -0.404649 -0.668834
H 6.08762 2.87977 3.12976 0.26729 0.220609 0.387941
H 11.6238 8.915 10.3114 -0.308838 -0.010034 0.094509
H 8.37048 5.97794 10.7927 -0.5274 -0.672522 -0.056951
H 4.85143 1.49966 8.4821 -1.362819 1.303621 0.625492
H 1.3566 8.96316 7.4011 0.282304 -0.097247 0.61751
H 11.4502 10.7954 5.12161 0.055174 0.664725 -0.281202
H 0.48325 8.74339 9.41922 0.793694 0.106461 -0.354683
H 0.02517 1.97693 4.51402 -0.018129 -0.787249 -1.366999
H 8.59751 10.6266 1.53132 -0.489799 0.063906 -0.12164
H 3.61231 7.0314 0.05826 0.697472 1.29433 0.204623
H 4.50957 8.91542 4.35033 -0.863792 -0.103339 -0.826398
H 7.15215 9.68692 9.73411 -1.325507 1.237045 0.126365
H 1.5129 6.23448 11.7788 -0.545065 -0.264357 -0.273221
H 2.98909 7.17109 5.98757 -0.430153 -0.722656 -0.34205
H 8.02784 8.58341 0.7602 -1.844691 -0.580174 -0.51436
H 11.8762 0.97567 1.96505 1.449018 0.316364 0.904217
H 6.41149 5.58832 8.389 -0.217922 -0.784415 0.063522
H 10.2768 7.5346 3.63712 0.389405 -0.354759 0.334069
H 5.20039 10.6972 10.49 0.021059 0.243071 -0.142784
H 0.38547 10.7585 12.1169 -0.645139 0.611667 -0.266811
H 2.63465 1.90802 0.80065 -0.059421 -0.114764 1.330904
H 1.64843 5.25685 4.91695 -0.157576 -0.356855 -0.155069
H 0.93241 1.47864 2.50238 -0.506655 0.067927 -0.571055
H 7.35936 4.37489 1.7262 1.784001 1.658616 0.127337
H 0.80158 5.91787 8.4281 0.634525 -0.716389 0.768293
H 2.42715 4.68165 7.9722 0.393457 0.82702 0.756544
H 6.81624 3.6935 9.41568 0.017149 0.679957 0.495054
H 8.28616 8.9451 4.09113 -0.116169 0.593131 -0.012475
H 1.77618 10.8494 7.4427 0.183433 0.196295 -0.851936
H 6.75641 1.13223 0.32024 0.648618 0.737598 -0.267357
H 1.05306 4.44881 11.0406 -0.090308 -0.360556 -1.137785
H 4.48908 1.12913 11.9383 -0.347489 0.72636 -0.156216
H 5.77038 4.03661 0.45221 -1.435942 0.750858 -1.376684
H 8.08014 1.3446 1.00175 0.829835 -0.204139 0.609799
H 7.53754 10.5595 2.69451 0.414104 0.77037 -1.152191
H 8.78775 6.3176 2.40373 0.103992 -0.595096 -1.043916
H 4.58609 8.31826 6.69634 -0.924298 -1.08384 1.122715
H 5.05614 7.20228 7.57828 0.695093 -1.034091 0.450958
H 6.3717 11.7485 1.10242 -0.855811 1.101385 -0.617067
H 7.5605 7.14111 0.79239 -0.260777 -0.347145 0.006944
H 2.04493 3.97084 9.91187 -0.95525 0.062288 0.427637
H 9.26905 2.52932 10.1021 -0.454428 0.075426 -0.054508
H 9.81364 3.73532 6.63828 0.757351 -0.968433 0.399513
H 5.47549 0.07843 6.72411 -0.35785 -0.095674 -0.519471
H 11.3872 6.64298 0.03504 1.829314 -0.109431 -0.016879
H 10.9048 2.90457 5.90668 0.19103 -0.260379 0.341154
H 0.33667 0.50489 12.1327 -0.333348 -0.654389 0.082233
H 0.0156 9.63711 5.23377 0.598952 -0.74862 0.017073
H 6.68142 0.99629 7.20141 -0.820476 -0.361484 -0.063187
H 5.3855 3.32336 5.3442 -0.395115 0.345641 -0.035883
H 6.96975 3.05813 1.02573 0.645079 -0.660035 0.189503
H 9.73265 8.49718 2.50138 -0.024761 0.247439 -0.304596
H 7.51656 11.2997 7.21089 0.114567 -0.35782 -0.119959
H 3.64254 4.79227 2.90227 -1.131183 0.283184 -1.57629
H 8.55909 2.05739 6.14155 0.443689 0.143115 0.085202
H 1.7561 2.77141 6.43345 0.935949 -0.030258 1.009754
H 4.65661 12.2841 2.50937 -0.008725 0.78154 1.060882
H 4.94717 11.54 0.35718 0.528475 1.866316 0.29209
H 8.1097 1.86016 10.8837 -0.536404 -0.155042 1.764224
H 5.36455 1.6848 3.75527 -0.239561 0.108624 0.237721
H 1.238 0.65112 7.50291 -0.81992 0.241384 1.330586
H 7.59528 8.28191 10.2604 0.259151 0.701963 -0.602275
H 9.40729 9.5184 10.1241 0.103072 -0.085269 0.530073
H 10.342 7.90585 0.47725 0.781499 -0.135361 -0.109769
H 11.2163 0.18183 12.22358 0.119585 -0.305033 0.075175
H 11.9554 5.70802 4.64906 -0.60247 0.135776 -0.33648
H 9.5344 6.922 10.7713 0.358258 -0.059475 0.13577
H 6.75473 9.17269 4.38778 -0.793087 0.009267 0.356721
H 1.32006 11.1186 5.93734 -0.551526 -0.146908 -0.3273
H 5.75258 11.5475 9.26636 0.019083 -0.353492 0.382928
H 3.51069 0.76135 2.66905 -1.12287 1.110621 -0.022803
H 4.64903 3.52435 11.7214 -0.045201 -0.918385 0.36627
H 10.2222 8.46202 6.33487 0.265157 -0.065348 -1.051566
H 9.90736 1.40164 2.67321 -0.597231 -0.637273 -0.521276
H 9.40463 0.53259 9.81617 -0.292023 0.254017 -0.301457
H 1.12871 0.96159 10.1571 0.22968 -0.256906 1.28877
H 10.9548 5.71584 7.32113 1.492615 0.083811 0.85894
H 7.48913 1.47612 5.15853 -0.285945 0.352226 0.006118
H 3.46019 2.34597 8.50119 -0.00711 -0.199308 -0.501739
H 3.28762 3.08011 6.63305 0.325041 0.239767 0.072311
H 2.53399 3.11187 1.72109 0.012974 -0.685747 0.725781
H 11.9736 3.23325 10.0014 -0.484054 0.460018 -0.447777
H 3.13962 6.0644 8.36551 -0.448869 -0.713886 0.227511
H 9.98996 11.489 9.88983 0.318857 0.643012 -0.694531
H 3.05487 10.6272 12.16331 -0.965881 0.463675 -0.109018
H 5.97704 4.47805 10.5491 1.387661 0.246622 -1.28652
H 3.84096 5.61261 11.9454 -0.241197 -0.11727 0.455848
H 5.58662 8.21477 0.71993 -1.573033 0.153776 -0.158901
H 1.30816 10.1214 1.33544 0.823244 -0.100015 0.985269
H 0.4025 6.79603 10.8458 -0.172795 0.032404 -0.229109
H 5.42732 2.78768 6.68059 0.362526 -1.020881 1.404124
H 0.44092 6.88452 7.37492 -0.210536 0.508172 -0.794687
H 10.682 9.88356 1.24529 -0.825253 -0.525223 -0.314265
H 9.27253 0.0561 3.05164 -0.312913 -0.222687 -0.522648
H 4.15108 8.3676 1.51688 0.229514 -0.115151 0.396533
H 2.79644 8.91646 7.97155 -1.046314 0.188919 0.89622
H 0.84952 9.28106 11.5826 -0.171168 1.173262 0.334097
H 10.0961 9.6254 11.5663 -0.488061 -0.079393 1.040453
H 4.2878 9.83958 0.1014 0.255702 -0.780595 0.03528
H 10.2046 6.00764 6.06786 0.151501 -0.136575 -0.160761
H 1.57542 2.03058 11.1263 -0.171981 0.774826 0.152201
H 4.11788 11.7568 4.7473 0.558784 0.336002 0.232279
H 0.65962 3.28361 5.02547 -0.005478 0.421366 -0.709597
H 3.58635 1.79324 10.8257 0.588699 -0.120393 -0.104353
H 11.8038 7.0881 5.29036 -0.456579 -0.279791 -0.499871
H 10.9025 4.13192 9.22315 0.42078 -1.069937 0.601397
H 9.77633 0.28033 5.13568 0.279364 -0.77302 0.713435
H 3.71928 11.4565 6.20262 -0.049188 -0.046752 -0.261416
H 0.88853 2.0129 8.2064 -0.040615 -0.537191 0.088613
H 3.08351 7.70085 3.5763 -0.18631 0.337137 -0.021206
H 4.99527 9.99108 5.37831 -0.299806 0.705167 -0.048011
H 9.45257 5.89832 1.05586 0.802448 0.479513 -0.598227
H 3.00176 5.52592 1.53464 0.407921 -0.580442 0.179936
H 2.69799 9.13569 2.87156 0.436694 -0.511084 0.272095
O 7.78766 8.99675 9.60571 1.431338 -2.256588 0.275849
O 4.19802 0.41783 3.23938 1.330365 -1.690704 -1.07292
O 0.67795 1.05757 8.25654 1.16744 0.071476 -1.175299
O 12.3199 10.5028 4.79546 -0.127552 0.209237 -0.02078
O 3.15065 6.20248 12.3407 -0.384866 -1.333633 -0.301831
O 8.88808 6.49676 10.1809 0.276804 0.542732 -0.212617
O 5.79009 0.61767 7.46607 1.286037 0.234074 0.553327
O 10.22 9.80324 10.6247 0.00992 0.232938 -1.379431
O 1.1228 4.60973 4.36635 0.558528 1.364195 -0.164644
O 7.19592 8.01445 0.55103 2.248156 0.914772 0.515523
O 5.08405 3.56177 6.26532 -0.184332 0.66137 -1.29744
O 0.16142 6.0291 7.72749 -0.519458 -0.116217 -0.087122
O 1.39084 1.08282 11.127 -0.391308 -0.578249 -1.774123
O 8.36557 2.14471 10.0245 1.178547 0.256534 -1.671165
O 9.27989 0.70991 2.3363 1.24219 1.381707 0.89845
O 2.90477 4.80125 2.22076 0.612776 0.17184 1.202882
O 9.49437 8.00964 3.33293 -0.561605 0.052474 -0.154698
O 4.01178 10.7233 12.1667 0.037204 -0.637863 -0.640464
O 1.88781 11.4507 6.64947 0.516753 0.267819 1.147072
O 0.60851 6.01956 11.4054 0.736695 0.389535 0.865955
O 4.27852 2.19386 8.98413 1.153291 -1.185653 0.082957
O 8.6819 5.72392 1.60388 -1.11127 0.41441 1.669712
O 2.42752 2.11858 1.76801 0.42485 0.529214 -1.995932
O 9.98594 12.3221 9.33424 -0.029164 -0.999595 0.872386
O 1.24017 3.67407 10.416 1.048013 0.311203 0.572878
O 7.77319 11.0856 1.85909 -0.175878 -1.381412 1.201779
O 11.2561 6.40494 4.76109 1.438125 0.506931 0.413669
O 7.88139 1.37277 6.03959 -0.165752 -0.316922 -0.221932
O 10.199 2.80498 6.58579 -0.787003 1.563049 -0.751425
O 11.0678 3.23087 9.60051 -0.171158 0.50849 -0.28089
O 2.4575 2.95666 7.13765 -1.261971 0.110642 -1.405331
O 1.69478 10.2255 2.28876 -0.007292 -0.386452 -1.446053
O 4.51681 11.4903 5.61602 -0.848997 0.386464 0.162528
O 4.55282 8.32445 0.62272 1.670546 0.096527 0.090394
O 6.64559 4.60544 9.74373 -1.235602 -0.648724 1.088055
O 12.3796 1.3816 2.73061 -1.070927 -0.385392 -0.309181
O 8.07847 10.5807 6.87056 -1.345104 -0.233148 -3.433552
O 6.33151 6.03386 7.51161 0.904815 2.032739 0.891834
O 10.1217 11.934 5.67881 0.565076 1.200671 -0.831986
O 5.59246 12.312 0.71581 0.910269 -2.084094 0.862303
O 0.39208 8.252 6.18351 -1.759 0.570319 0.981126
O 0.09323 8.45281 10.247 -0.259762 -0.288007 0.446037
O 7.55158 1.7747 0.3231 -1.548989 -1.084708 -0.475476
O 3.96335 1.93474 11.7133 0.033175 -0.729058 0.495849
O 9.88547 9.35982 0.98469 0.539246 0.306174 0.400048
O 3.46288 8.48859 3.13996 -0.712426 0.264054 -0.482171
O 1.87871 9.23339 8.23599 0.653816 -0.440464 -1.624366
O 10.0591 5.75921 7.00242 -1.938005 -0.482625 -0.582846
O 4.23527 7.69642 7.45567 -0.009106 2.170669 -2.137956
O 7.5969 9.65 4.2981 0.980458 -0.342815 0.186657
O 10.5193 6.99772 0.05313 -2.53964 0.332769 -0.001668
O 5.94138 10.7996 9.86665 -0.33476 0.527166 -0.222742
O 12.0648 12.2896 0.1934 -0.163128 0.822262 -0.175845
O 5.90476 2.47094 4.01076 0.109955 -0.379551 -0.842575
O 9.70653 8.71594 7.08384 -0.168261 0.622884 0.374048
O 5.10638 9.07046 5.08917 1.289585 -1.102613 1.024333
O 0.3235 2.41014 5.30455 -0.338433 0.012897 1.91833
O 6.64852 3.7761 1.62948 -1.863146 -1.236384 0.169256
O 5.17367 4.2796 12.0148 0.928695 0.885481 0.418214
O 1.0514 10.0667 12.1849 0.964362 -1.523602 -0.201446
O 2.35969 6.75089 5.34195 1.85156 -0.21824 -0.074184
O 2.54805 5.35274 8.71186 0.442307 -0.203855 -1.055239
Na 10.9631 0.99529 7.66228 -0.26809 -0.118758 0.143088
Na 8.57689 7.19381 7.91507 -0.66689 -0.682859 0.889665
186
energy=-1002.31591044 config_type=nep2xyz pbc="T T T" virial="-10.298406980237665 -2.610989615532531 0.484493294275825 -2.610989615532531 -7.536582189086879 -1.3723204431654228 0.484493294275825 -1.3723204431654228 -19.887097271031767" Lattice="12.4 0.0 0.0 0.0 12.4 0.0 0.0 0.0 12.4" volume=1906.6240000000003 Properties=species:S:1:pos:R:3:force:R:3
H 10.1983 0.02676 10.2211 0.14248 -1.329795 0.638206
H 8.36773 8.31133 8.14287 0.265489 -0.045425 0.193635
H 0.46568 5.35736 6.47487 -0.288375 -1.115473 -0.07994
H 6.96316 0.9782 5.81806 0.838088 -0.756236 0.024481
H 3.19496 5.23835 1.44691 0.219339 -0.512517 -0.329986
H 1.27173 7.45488 8.57189 -0.107533 -0.66308 -0.550323
H 4.48148 6.23207 9.79533 -0.467747 0.442956 -0.487695
H 1.23221 8.89688 10.5166 0.625008 0.944806 -2.156104
H 10.5332 8.94248 1.15783 -0.159576 0.084943 -0.270311
H 11.4172 10.8658 7.37181 0.746226 0.317915 0.457118
H 6.17995 10.5155 11.3425 0.643856 0.343893 -0.045796
H 12.062 1.81636 3.65755 0.379404 0.048664 -0.73097
H 11.7507 1.0178 7.32766 -1.334986 -0.4094 -0.494813
H 1.31768 7.52685 7.06512 -0.049411 -0.309342 -0.601387
H 1.70066 9.40238 0.62207 0.528695 0.252295 0.115079
H 6.78414 3.55455 1.30178 1.810913 -0.264502 1.53036
H 0.77868 8.66476 4.9749 -1.275461 -0.037961 -0.794164
H 1.53695 6.79266 0.51371 -0.274327 0.721116 -1.15777
H 7.99144 5.48382 1.77092 -0.904052 0.792769 -0.494799
H 6.15981 0.67447 9.63843 1.015074 0.018342 -0.315222
H 10.608 0.0063 6.66796 -0.105769 -1.033052 -0.241741
H 11.0799 4.97784 2.04562 1.241635 0.905434 0.712933
H 7.22831 6.63792 0.82107 0.82176 -0.670897 0.167563
H 2.77022 9.6237 2.55171 0.087704 -0.302562 -0.011779
H 12.0828 4.25538 7.23508 0.622763 0.062911 -0.02268
H 0.43662 3.30258 11.4998 -0.173194 -1.160052 -0.107911
H 2.96103 1.42499 6.92285 -0.087453 0.899695 -0.506404
H 4.05301 0.57363 0.0225 -0.451639 0.233314 -0.206902
H 9.78649 11.2511 5.09499 -0.194202 0.559299 -0.669162
H 2.55889 2.75232 5.17692 0.487791 0.753693 0.968381
H 10.0602 10.0024 6.58867 -0.257834 0.545097 -0.245042
H 7.774 5.75765 9.20206 -0.37766 0.539817 0.279189
H 7.89766 3.83719 8.05854 0.872509 0.272809 -0.17947
H 3.91204 3.83216 0.07206 -0.258334 0.398764 0.29822
H 5.70015 4.60731 7.91052 0.520502 -0.319275 1.31375
H 4.98578 0.61424 1.97159 0.058786 0.885195 -0.097272
H 0.42349 4.07563 9.59932 -0.997324 -0.701022 -0.76698
H 9.19845 7.22581 2.18492 0.4516 -0.112304 -0.240781
H 5.06354 11.0372 0.56034 0.129095 0.4338 0.180853
H 4.37498 11.5332 9.58132 0.477625 -1.44986 0.366542
H 11.1774 9.61826 5.0317 -0.288753 -0.158337 -0.396889
H 10.7901 6.91944 2.47851 -0.191009 -0.522747 -0.213889
H 0.46672 12.2963 3.41242 -0.003503 0.089717 -0.343687
H 7.70979 6.80339 10.3634 -0.380384 -0.181174 0.572642
H 3.00224 7.11079 7.80077 1.35944 -0.283808 0.731874
H 4.45162 6.57298 7.5419 -0.228567 0.199827 0.023541
H 10.3536 4.28049 12.287 -0.576904 -0.403271 1.74263
H 6.30254 2.51504 11.038 -0.180958 -1.390002 -0.749122
H 3.78313 11.0587 1.31115 -1.434419 -0.261603 0.760118
H 5.46253 4.92998 5.80609 -1.7512 -0.297519 1.728739
H 9.62892 5.95536 6.4844 1.470038 0.485557 0.530747
H 2.5409 3.48561 2.86061 0.981923 -0.472481 1.291418
H 12.0834 1.53769 2.03378 0.781979 -0.167135 1.36134
H 9.51239 5.27652 5.06489 -0.220109 0.362969 0.533812
H 1.71259 10.8327 2.44753 0.040277 -0.495403 0.224779
H 6.98192 0.7959 0.40363 -0.671873 0.646584 0.015401
H 1.89037 2.19973 3.07169 -0.50962 -0.724571 0.710249
H 7.55503 6.58042 5.52859 1.084827 -1.025324 0.234512
H 3.65995 2.69157 11.4321 -0.004362 -0.558235 0.199778
H 1.74871 4.01509 11.6466 1.057591 -0.06337 0.066882
H 8.34129 0.10179 5.62012 -0.209243 -0.102592 -0.888197
H 1.89521 3.48724 6.36217 -0.23285 0.071914 0.278627
H 11.7663 1.4965 0.04512 2.006015 -0.847625 -1.928105
H 12.2206 2.80204 8.7595 0.422672 0.388412 0.520783
H 11.1301 10.3018 9.4567 -0.683153 -0.042158 0.295118
H 7.99117 3.1728 10.6155 -0.166533 -0.156738 0.293327
H 4.05656 4.25742 6.42166 0.068377 -0.237267 -0.394665
H 10.3835 10.4718 0.73057 -0.089019 -0.258787 0.273664
H 9.56402 11.7443 2.54502 0.030232 0.374506 -0.492931
H 7.477 0.47249 10.4994 -0.417363 0.493668 -0.895027
H 12.1766 10.8682 3.73545 2.331477 0.53188 -0.379725
H 11.5892 3.44824 5.14127 -0.348489 -0.186374 -0.572462
H 12.2303 11.929 8.40556 -0.291208 -0.09435 -0.056741
H 8.09878 12.3314 0.84439 1.094307 -0.60437 0.279764
H 5.06393 9.56034 10.8534 -0.126017 0.336788 0.349449
H 4.28391 1.89836 2.53884 -0.047875 0.226618 -0.284888
H 10.9191 8.64002 3.73002 -0.720126 -0.282869 -0.282716
H 2.66526 12.2499 7.01033 -0.25071 0.674293 -0.055522
H 10.6361 9.86588 10.9126 -0.530338 -0.129035 -0.373917
H 8.61427 10.8875 4.17046 -0.999999 -0.829668 -0.430245
H 10.9176 1.0209 9.24216 -0.91133 -0.664683 0.858715
H 11.847 6.80888 7.64788 -0.778523 0.03739 -0.078504
H 8.87001 2.57631 4.43979 -0.209357 0.552712 -0.090164
H 10.287 0.23161 1.43116 -0.251628 0.002464 -0.149295
H 11.3534 7.05208 11.1575 -0.794071 -1.018033 0.01396
H 10.7585 2.42253 0.64882 0.020275 -0.528322 0.920088
H 5.33409 1.40638 4.14595 -0.055278 -0.040034 -0.952349
H 5.707 6.3957 11.4197 -0.814334 -0.025968 -0.067238
H 0.60492 1.15078 10.2563 0.513244 0.162039 0.418011
H 6.21462 6.63722 2.38666 0.074588 -0.276915 -0.068514
H 4.92921 2.19432 5.40045 -0.80717 0.59556 0.458282
H 7.35235 2.48433 4.54972 -0.512378 -0.094062 0.273825
H 4.0067 7.44031 2.75428 0.806904 -0.105797 0.775127
H 6.03053 4.50794 9.61459 0.167867 -0.165544 -1.722386
H 3.98415 4.97054 10.6631 0.716627 1.559504 0.465862
H 6.27491 7.84645 11.7498 -0.53825 0.959102 0.002401
H 9.59336 9.07205 8.73913 0.057103 0.33659 0.876819
H 11.0287 2.13485 5.57748 -0.440289 -1.504536 0.776512
H 6.87539 7.82166 5.05255 -0.676808 -0.979419 0.322709
H 8.91341 4.18993 6.88422 -0.228787 -0.406055 0.928183
H 1.76693 9.44017 5.82554 0.046625 -0.154955 -0.292535
H 10.3263 7.46552 7.52405 0.689873 -0.250127 0.506317
H 2.11187 7.16435 1.89923 -0.090604 -1.096116 -0.813053
H 0.95084 0.86608 8.25992 1.184797 0.321833 -0.206019
H 4.00863 0.54512 10.8126 -0.634698 1.284384 1.198995
H 9.22506 3.7185 0.88124 -0.090922 0.199467 0.187378
H 3.02632 8.13922 3.84891 0.070151 -0.469221 0.452868
H 12.1 5.72262 11.2115 -0.838921 -0.322564 0.077005
H 9.30905 2.26098 10.4737 -0.405987 0.365686 0.105004
H 4.47761 5.24807 2.16945 1.254388 0.120429 0.621845
H 7.71117 3.23619 2.73338 -0.467141 0.132296 0.003501
H 3.86716 0.20154 8.762 -0.282736 1.352936 -0.987963
H 0.98956 9.7447 9.00164 0.029093 -0.759295 1.024649
H 0.41103 9.15729 12.3368 -3.449583 0.791096 0.483191
H 1.86481 1.16737 11.2918 0.33188 -0.193963 0.05307
H 1.44607 11.5616 5.26968 0.033279 -1.101559 1.244644
H 3.20857 9.17383 9.46982 -0.406975 0.369082 0.423997
H 5.91403 6.47677 3.84872 -0.335416 0.011693 0.239013
H 0.79973 11.1513 6.72455 1.495514 0.021223 -0.659627
H 5.40057 3.64607 11.5781 1.085692 -0.605085 -0.157956
H 0.10659 5.67612 1.9354 -0.537083 -0.027227 0.684463
H 4.49015 9.05671 8.7713 1.075376 -1.166448 -1.566665
O 7.13245 0.91125 9.66862 -0.575273 -0.439578 1.357307
O 10.3222 10.044 9.99089 1.210628 0.193662 0.262788
O 4.11653 9.54617 9.47129 -0.759928 1.082844 1.165663
O 1.27482 6.82999 7.76796 -0.10178 1.694279 0.611257
O 1.89035 6.38412 1.2874 0.414715 0.47533 2.109394
O 5.58286 9.83821 11.6561 -0.228438 -0.65923 -0.146957
O 2.61271 2.71364 3.50071 -0.452754 0.857987 -1.893899
O 10.1918 3.9056 0.81341 0.335739 0.499274 -1.760509
O 3.97451 4.63698 1.62212 -1.64841 0.256184 -0.458915
O 6.33877 3.28548 11.5811 -0.704669 1.754971 0.621997
O 6.67086 6.89183 5.32982 -0.35952 1.874919 -0.474457
O 8.86984 3.77325 7.79512 -0.986491 0.614103 -0.864172
O 9.60716 11.9377 1.56609 0.193835 -0.416709 0.81338
O 4.84352 4.81505 6.61289 1.542676 0.565294 -1.453004
O 10.8758 6.63073 7.57448 -0.237276 0.103442 0.037496
O 2.72981 3.02068 6.15287 -0.154621 -0.306286 -1.448644
O 0.80683 4.16912 11.6288 -0.540755 1.347271 -0.071555
O 3.36002 8.13681 2.94362 -1.031708 0.348932 -0.413605
O 11.5635 9.11028 4.26476 0.895402 0.661295 0.632282
O 10.9587 0.89281 6.65119 0.728112 1.906032 0.537057
O 0.2412 1.44461 2.91799 -0.97154 0.405015 -0.251874
O 8.27242 6.47384 9.65292 0.18252 -0.430288 -0.941727
O 0.91738 1.34538 11.1843 -1.171462 0.207528 -0.3267
O 8.04627 3.08248 4.25243 0.893433 -0.584703 0.292059
O 4.52861 11.6363 1.13346 1.195333 -0.17938 -0.877452
O 0.69093 11.3418 3.59248 -2.243138 -0.282328 0.722687
O 7.41035 12.3766 0.16953 -0.622208 0.023152 -0.807611
O 11.2031 1.51141 0.78521 -1.610343 1.28828 0.915039
O 9.01874 5.6745 5.8106 -0.881101 -0.851715 -1.258387
O 1.29546 8.93087 12.2546 2.36899 -1.04598 -0.634443
O 12.0766 3.76326 9.01462 0.248371 0.163707 0.326271
O 9.20875 8.73387 7.91804 -0.1956 -0.276476 -1.103356
O 1.67618 11.1673 6.18678 -1.49893 0.56187 -0.581762
O 6.44241 6.91024 11.809 1.522191 -0.275626 0.340156
O 6.37444 4.42609 8.67488 -0.455007 0.315232 0.493013
O 2.36998 10.2739 1.95607 -0.201385 0.64174 -0.958478
O 7.83696 0.69498 6.18695 -0.594675 1.014943 1.207926
O 0.206 4.40269 6.41123 0.123276 0.8753 0.0307
O 4.40986 5.90375 10.699 -0.49356 -1.480353 -0.389203
O 8.95206 3.16886 10.6221 1.059431 0.08838 -0.231928
O 1.43054 8.98202 9.48363 -0.494028 -0.206923 1.265594
O 10.54 10.7413 6.1518 0.010968 -1.19652 0.685738
O 10.1015 7.60328 2.32133 -0.141639 1.244064 0.341643
O 4.53322 0.06948 9.4659 -0.064574 -0.272761 0.316065
O 1.59734 8.53999 5.44943 1.28716 -0.036039 1.073273
O 5.44567 6.48793 2.98572 0.093151 -0.041465 -0.225328
O 0.08197 1.10971 8.57426 -0.294226 0.299836 0.673831
O 11.1765 6.0771 11.1328 1.57054 0.980506 -0.069074
O 3.9558 7.16466 8.14259 -0.615093 -0.308799 -0.829939
O 5.12037 1.59577 2.14254 -0.124953 -0.937676 0.595646
O 11.0326 2.70132 4.80284 0.66567 1.598649 -0.621926
O 2.87771 0.68254 7.51876 -0.062283 -1.650647 0.944928
O 12.1407 10.9682 8.14512 -0.277755 -0.720992 -0.434506
O 10.7157 9.59604 0.43753 0.394359 -0.039163 -0.207814
O 10.0376 0.7945 9.70168 1.192589 1.719188 -1.102519
O 7.77456 6.45889 1.65119 -0.118744 -0.335569 0.13492
O 7.6289 3.68717 1.85502 -0.959273 0.436129 -2.28097
O 3.68738 3.67581 11.5254 -0.374645 -0.250693 0.194807
O 9.16227 11.6486 4.2844 1.222423 0.025416 0.881427
O 3.66331 1.07743 11.6581 0.701908 -1.199324 -1.070768
O 11.728 5.59062 2.54611 -0.402486 -1.183603 -1.411734
O 5.60716 1.64942 5.03283 0.8441 -0.336481 0.244938
Na 9.93277 5.01978 9.39248 0.665593 -0.054152 0.142203
Na 8.8028 1.63967 8.15736 -0.403886 -0.715556 -0.67381
186
energy=-1001.39192085 config_type=nep2xyz pbc="T T T" virial="-2.9185981721050216 3.4145751700866938 -1.1000079126981592 3.4145751700866938 -9.647084626633058 -3.4780389958517564 -1.1000079126981592 -3.4780389958517564 -9.508649470974897" Lattice="12.4 0.0 0.0 0.0 12.4 0.0 0.0 0.0 12.4" volume=1906.6240000000003 Properties=species:S:1:pos:R:3:force:R:3
H 10.1851 0.9417 8.15258 2.785573 1.680295 -0.435176
H 8.03256 8.19289 3.09569 0.958714 -0.454659 -0.01715
H 5.18163 6.77506 2.99987 -0.140503 -0.215771 0.456487
H 8.7349 10.0234 4.98246 -0.241028 -0.4557 -0.75307
H 9.62772 3.31326 3.01569 0.277969 -0.258801 -0.434118
H 1.6676 5.92343 10.4388 -0.622354 0.579104 0.114607
H 8.74761 7.69989 9.41558 -0.271723 1.24167 0.199213
H 0.50359 8.04867 9.69884 0.563996 -1.308408 0.06023
H 10.513 10.7658 10.3422 0.803995 0.475981 0.278959
H 12.3525 9.69019 5.55252 0.272712 -0.928362 0.085137
H 4.63296 9.89721 10.9333 0.352493 -0.241702 -0.001516
H 2.73325 0.22621 6.47664 -0.482405 -0.712991 0.159551
H 10.2905 9.68855 6.58392 -0.439393 0.193337 -0.191451
H 2.81564 3.14566 8.35245 0.247437 -0.137288 0.304951
H 0.37595 10.7555 11.7442 0.437998 0.250139 0.385712
H 3.87814 6.30462 3.62257 -0.745035 0.288987 -0.208327
H 4.67019 6.72269 7.85419 -0.128138 -0.579337 -0.875641
H 6.46138 7.20027 11.4467 -0.591076 0.142318 -1.389226
H 5.34007 9.06481 1.69104 0.433515 0.834853 0.065139
H 5.57317 11.6714 10.1497 -0.076279 0.02735 0.102776
H 11.4123 3.24156 0.33505 1.101041 -0.625636 0.938536
H 0.64449 10.498 1.69545 0.154773 0.375494 0.786615
H 6.43996 10.2032 1.50712 -0.032569 -0.054851 -0.160041
H 0.46156 10.7083 3.93725 -0.061865 -0.236645 -0.086132
H 4.52181 5.92456 5.65054 -0.158518 0.455357 -0.601595
H 2.35988 5.60563 1.62841 -0.007599 0.134757 -0.551693
H 6.50626 10.4314 7.88246 -0.567169 0.765996 0.330093
H 3.09994 4.20211 1.58485 -0.574728 0.084185 -0.988331
H 9.74671 12.2786 1.97001 0.156572 0.631233 0.857435
H 1.41026 4.76333 5.54486 0.208223 0.582478 0.515562
H 1.26423 8.79759 4.71176 -0.549764 0.041875 0.647063
H 5.75984 4.31759 11.326 0.46936 -0.12003 0.200074
H 6.80222 2.28853 11.3496 -1.645734 0.815746 -0.028945
H 4.88426 0.08536 7.27326 -0.048797 -0.948198 -0.317968
H 6.99006 1.77483 5.53765 -0.028238 0.515451 0.377836
H 4.24714 2.13496 1.4833 -0.617131 -2.12957 -0.094204
H 8.0185 5.66184 6.16613 -0.197677 0.576711 0.024942
H 8.1642 6.75549 1.51552 0.747266 0.101637 0.600415
H 4.10509 12.3955 0.8011 0.722089 -1.039044 -0.321219
H 1.0793 10.4614 9.90304 0.842247 -1.551267 -0.011439
H 12.0066 6.48104 8.15148 0.906515 0.347764 1.132198
H 9.49326 7.60976 1.53472 0.287725 0.14346 0.01618
H 5.98006 6.44528 0.76621 -0.026265 0.296923 -0.124852
H 4.09949 5.31445 10.277 -0.383208 -0.921632 0.056456
H 4.82933 9.01914 7.66817 -0.109982 0.607904 -0.370545
H 3.87272 10.3197 7.36559 1.011649 -0.687143 -0.224336
H 10.3898 10.3075 0.9045 -0.18851 -0.291396 -1.058354
H 4.45984 8.03915 12.26022 0.48347 0.563635 -0.214023
H 3.17068 0.26977 2.11318 0.427206 -0.501329 0.783575
H 10.9594 3.57001 7.65799 -0.010075 -0.679017 0.107033
H 5.60234 4.49628 3.72767 0.511541 -1.095319 0.13594
H 0.48745 2.57075 4.28963 0.193531 -0.167762 1.018729
H 2.97794 1.72558 6.66058 0.83004 1.803558 1.107065
H 6.92195 3.64693 3.71165 -0.937667 0.153931 -0.514541
H 1.09251 11.9774 3.45372 0.411453 0.241231 -0.372391
H 9.92949 6.50475 11.0757 -0.334388 0.643161 -0.071927
H 1.41704 1.99595 5.48303 -0.615778 0.394558 -0.561925
H 3.73627 4.02012 7.42655 0.396553 0.527402 -0.51999
H 4.95812 1.52416 7.63534 0.056976 0.346521 0.170171
H 1.81862 7.73494 1.57175 0.718513 -0.885437 0.524465
H 9.67326 11.3068 4.93583 -0.777681 -1.012327 0.497336
H 0.75778 5.83702 6.53713 0.775007 0.049082 -0.665701
H 8.52681 4.62552 4.37412 0.278261 0.777897 0.101851
H 1.56545 2.09198 10.7401 0.056216 0.972027 -0.670488
H 7.40372 7.94704 5.78936 0.59116 1.915425 -1.775428
H 8.24481 4.78598 9.92223 -1.534324 -0.223382 0.57576
H 10.8572 5.10836 7.57242 0.258842 0.520203 -0.359551
H 9.11013 10.3101 10.1395 -0.03996 0.118731 -0.52118
H 10.9716 12.0783 3.52989 -0.05271 0.662036 0.144421
H 6.25336 11.4421 11.5228 -1.690702 -0.343378 -0.782499
H 6.99931 5.36018 0.22622 -0.372762 -0.574215 -0.089874
H 1.74536 3.67504 10.2138 -0.471311 -1.893055 0.008884
H 11.4941 7.29921 6.98847 -0.090304 0.379883 -0.543439
H 10.0475 8.15592 11.0435 0.326689 -1.749396 0.126957
H 4.46576 8.29161 10.6003 0.947676 0.592539 -0.228847
H 4.97586 3.23307 2.37562 0.205333 -0.622032 -0.136155
H 9.23277 4.62507 6.55519 -0.630565 0.009299 0.196774
H 7.81729 10.2345 8.57639 -0.411472 0.820997 0.134
H 6.66261 7.35465 6.93716 -0.362075 -0.481736 0.36523
H 10.2681 0.2713 0.48744 -0.666462 -0.511985 0.856086
H 9.5201 12.1214 8.7317 -0.271647 0.225156 0.203666
H 2.0716 7.3438 3.46528 0.551511 0.68911 0.386568
H 12.2427 2.09177 6.96098 -0.188555 0.193525 0.094566
H 10.0887 1.04693 3.75769 0.285041 -0.720873 -0.655819
H 9.1205 3.18739 0.45414 0.702473 -0.684734 -0.475136
H 8.9503 5.69824 3.2368 -0.249899 -0.413552 -0.00687
H 5.6812 11.612 4.8669 -1.104297 -1.145245 0.094963
H 8.09105 9.73422 0.12164 -0.15154 0.210859 -0.004251
H 0.57455 1.86834 0.21225 0.353004 -0.187894 0.153012
H 2.80278 0.5294 4.51513 0.651289 -0.523264 -1.081158
H 6.50712 0.1479 4.00218 -0.247027 -0.217614 1.357023
H 12.3006 2.31496 8.51561 0.797996 0.021104 0.678546
H 4.85584 9.97199 3.79312 -0.163732 0.196372 1.163199
H 7.75831 3.16986 5.9469 -0.13132 -2.077927 0.541329
H 7.52667 8.30165 10.0389 -1.448205 -0.449933 0.389568
H 8.21188 11.2525 0.40281 -0.232199 -0.504697 0.180206
H 7.09626 9.31468 3.31316 -0.981118 0.764097 -0.294492
H 0.4178 3.64344 1.0156 0.708768 0.71465 0.117809
H 3.18904 5.69712 6.60095 0.719937 0.157194 -1.350089
H 8.02763 1.74924 11.4736 2.345676 -0.518947 0.493843
H 5.37858 7.50276 8.94987 0.868903 0.052874 0.349223
H 1.78843 6.92495 5.02549 -0.149558 -0.592096 0.393202
H 5.38964 6.13681 10.4211 1.221511 -0.23181 -0.392399
H 10.9626 9.14325 7.91415 -0.100284 0.425699 -0.510384
H 2.23578 5.15305 11.7288 0.014146 0.030708 1.058141
H 11.3363 9.36162 0.14579 0.788904 -0.368353 0.184089
H 4.48248 9.94349 5.44415 0.24996 -0.4993 0.126454
H 9.51664 3.54818 11.4651 -0.057737 0.6823 -1.111915
H 9.53942 4.9923 9.54045 0.997543 -0.167148 0.503769
H 10.7032 2.58203 2.06986 0.195415 0.24016 0.29815
H 3.82733 7.56822 1.11627 -1.637513 -0.630969 1.489045
H 2.40476 9.53122 10.0454 -0.70656 -0.167654 -0.257083
H 11.8816 6.97671 10.1993 -0.032052 0.170346 0.490478
H 0.74764 12.2701 11.4004 -0.37806 -0.960583 -0.105193
H 1.95365 1.08728 0.49456 0.59771 -0.239146 0.030432
H 1.85175 10.2374 6.23986 0.20599 0.386028 0.49538
H 7.09626 4.0852 7.71819 -0.119391 0.748031 -1.378861
H 3.47869 11.6283 3.87646 -0.245914 0.154148 0.411932
H 2.03951 10.4391 7.83008 -0.511101 -0.373949 0.447725
H 5.60138 3.73811 0.36406 1.085062 -0.340766 -0.693755
H 1.64059 9.50441 1.02643 1.90964 -0.778431 0.367196
H 6.05967 4.26392 8.97578 0.635064 0.173404 -0.490306
O 5.34759 11.4137 11.0605 1.709925 0.17231 0.548969
O 7.30649 7.14363 6.23567 -0.203685 -1.573903 1.311441
O 6.93691 3.92696 8.63167 -0.480333 -0.415557 2.148551
O 2.19429 5.18739 10.7692 0.653643 -0.556727 -1.086863
O 6.10068 7.30329 10.5152 0.481121 0.563809 1.093412
O 4.05636 9.09461 10.9738 -1.433073 -0.090497 -0.16145
O 0.65489 2.60407 5.25923 0.374312 -0.170498 -0.437288
O 10.4189 9.61931 0.18747 -0.695635 0.432398 0.7168
O 10.0087 2.43955 2.73332 -0.510104 0.617396 0.45283
O 6.32882 3.89356 12.0658 -1.532853 -0.110701 0.422922
O 4.16159 5.54248 6.44849 -0.531457 -0.651676 1.951402
O 7.25388 1.51442 10.9958 -0.613085 -0.27925 -0.636897
O 10.0597 0.05214 3.66524 0.35764 -0.426736 0.520914
O 10.3252 4.31732 7.72157 -0.750722 0.625863 0.307854
O 2.06862 7.65868 4.46524 -0.086801 0.48806 -1.216197
O 1.60201 5.61803 6.0046 -1.302773 -1.060629 0.366126
O 2.5637 7.25054 2.00827 -1.432275 0.409737 -0.249778
O 4.55387 10.4489 4.62007 0.109303 0.17052 -1.542761
O 8.34501 4.74322 6.10022 0.372924 -0.987868 -0.200434
O 12.168 2.94019 0.95669 -2.167526 0.471945 -0.924866
O 2.75497 1.07538 6.01436 -0.541535 -1.036407 -0.689152
O 5.05456 5.14435 10.1964 -0.76409 0.290273 -0.115769
O 1.26501 1.26231 12.2376 -0.515649 -0.276471 -0.925107
O 11.7062 2.22857 7.76675 -0.011586 -0.565919 -0.599437
O 3.42028 0.49728 1.20578 -0.861247 1.653195 -0.61965
O 6.92779 6.25485 0.60453 0.584186 0.692815 0.484265
O 10.532 7.27683 11.0421 -0.412987 0.807441 0.139699
O 8.58724 4.79916 3.40901 0.25741 -0.671579 -0.015443
O 5.94086 3.54553 3.67576 0.273211 1.434355 0.43511
O 0.37455 11.4033 11.0209 -0.133927 0.978372 -0.302888
O 3.55955 3.12535 7.7212 -0.547617 -1.094327 0.28104
O 7.90832 8.96267 3.67209 0.180321 0.037466 0.846053
O 2.38133 10.7108 6.96681 -0.150258 0.385714 -0.71318
O 7.54474 10.5199 0.29502 0.706937 0.550763 -0.201879
O 7.65774 2.14782 6.15059 -0.062145 1.803678 -0.784951
O 0.3294 11.4189 3.23713 -0.606723 -0.009692 -0.030969
O 9.23387 10.6195 5.55128 0.968681 1.447668 -0.06517
O 4.8239 6.26949 3.75567 0.875264 -0.17138 -0.361442
O 8.38739 8.58249 9.69548 1.107412 -0.937327 -0.58392
O 9.0563 5.00906 10.4008 0.550798 -0.060854 -1.37304
O 0.35917 7.04397 9.76334 0.059342 1.180634 -0.665426
O 0.78728 9.6982 5.05382 0.453997 0.450575 -0.057547
O 8.95222 7.05818 2.11162 -1.185112 -0.304927 -0.940884
O 1.53237 9.57984 9.55816 -0.061352 1.599476 0.294744
O 5.2757 7.45945 7.97955 -0.111424 0.590042 0.659961
O 2.9056 0.0004 3.66385 -0.45778 0.281192 0.719354
O 11.0007 9.12065 6.94035 0.513975 -0.598252 0.661019
O 9.70304 2.86656 12.1155 -0.662113 0.248769 1.590183
O 4.82957 9.9724 7.35381 -0.664374 -0.183555 -0.04314
O 4.4619 3.04252 1.55461 0.552926 2.722124 0.181319
O 1.50108 2.7005 9.93811 0.249091 1.100368 0.234975
O 7.16429 10.9596 8.39312 0.899881 -1.437004 -0.531547
O 11.878 6.42992 7.19935 -0.595293 -0.124988 -0.285648
O 9.76893 10.9227 9.75896 -0.270112 -0.701997 0.433835
O 9.35676 0.5552 8.22407 -2.588757 -1.418649 0.083826
O 5.76147 9.86974 2.13608 -0.817021 -1.031389 0.166442
O 4.70183 7.66888 0.72734 1.471354 0.105861 -0.168466
O 5.46016 0.6966 7.71666 0.113561 0.956469 0.422111
O 9.6894 12.0828 1.02786 0.282077 0.018191 -1.661077
O 2.36742 4.72269 1.14854 0.085195 -0.116702 0.883789
O 0.84962 9.97405 0.90883 -2.117864 0.46798 -1.037622
O 6.29374 12.3442 4.95481 1.671019 1.590823 -1.653319
Na 7.40684 1.72196 8.64173 -0.045171 -0.259724 0.255833
Na 8.01235 12.38023 6.45998 -0.04528 -0.5063 0.299469
186
energy=-1000.43800373 config_type=nep2xyz pbc="T T T" virial="-12.329023300708867 -2.0088151337467304 2.1960887557352518 -2.0088151337467304 -12.093422921467033 -1.6880925445484949 2.1960887557352518 -1.6880925445484949 -20.763512117482083" Lattice="12.4 0.0 0.0 0.0 12.4 0.0 0.0 0.0 12.4" volume=1906.6240000000003 Properties=species:S:1:pos:R:3:force:R:3
H 9.35564 10.1348 9.31187 -0.251803 0.141747 -1.454121
H 8.92949 10.7538 4.17555 3.702679 1.84319 -0.114429
H 7.23415 6.50328 7.69341 0.060875 1.970308 1.434969
H 5.9528 10.7252 6.162 0.316617 0.140409 -0.267193
H 11.0867 1.68585 2.2467 -0.11687 0.082849 0.56975
H 2.07863 8.46378 9.31269 -0.017265 -0.904683 0.265906
H 2.17703 4.81212 10.413 0.260367 -0.560591 0.293781
H 1.65213 10.0867 11.0368 0.246493 0.045458 0.164417
H 9.13184 8.64949 5.77425 -1.412792 0.56269 -1.435124
H 9.17561 9.91537 0.89104 1.714052 -1.235383 -0.469401
H 4.96639 9.62858 11.2837 -0.62494 -1.423098 -0.297264
H 3.8622 1.62767 6.23945 -0.111073 -0.401909 -0.257225
H 0.54251 11.1803 6.5444 0.21957 -0.033201 0.676213
H 2.43895 6.81004 9.07261 -0.476915 0.71042 -0.018398
H 10.8927 7.96334 10.5541 0.866843 0.871447 1.267673
H 6.00089 7.28231 5.5219 -0.134897 -0.466397 0.16472
H 2.34572 8.16979 5.76148 0.092309 0.94867 0.88892
H 1.18691 6.69444 0.58783 0.725217 -0.007971 0.288424
H 6.80625 12.2065 1.91437 0.162644 0.886983 -0.099885
H 6.80457 10.2057 11.8002 -0.369335 0.331374 -0.348983
H 0.53429 2.05744 8.19194 0.642029 0.783702 -0.584434
H 12.0067 5.55485 12.2936 -0.214749 -0.9108 0.17179
H 7.32357 10.9142 1.07729 -0.805695 0.849631 1.295143
H 2.52739 10.4592 1.11798 -0.385523 -0.073841 -0.403578
H 6.24387 5.36969 7.38705 -0.742655 0.222202 0.442773
H 11.6293 5.01271 10.5023 -0.231768 -1.119662 0.445877
H 8.04598 11.7381 11.2251 -0.26059 1.799063 -0.399827
H 0.61696 4.00578 11.7437 0.269266 0.253716 0.198818
H 1.49638 1.40483 12.2877 -0.638099 -1.462651 0.412558
H 1.02056 4.87867 5.08254 -0.901337 0.516471 -0.117117
H 10.2213 8.92495 1.55891 0.162335 -0.500495 0.918383
H 7.07919 3.11433 11.2287 1.029886 0.742808 0.962168
H 11.8172 1.22137 10.0806 -0.438543 0.460106 -0.313774
H 6.67891 2.05685 8.71237 0.249244 -1.095679 -1.434697
H 9.43479 4.25705 8.52262 0.209761 -0.0323 0.495618
H 4.95119 3.29788 3.47096 0.916774 0.661518 0.395109
H 0.22843 8.14787 6.25597 0.56919 0.482254 0.175172
H 5.30984 5.84485 9.32676 -0.484484 -0.192358 -0.881664
H 3.29479 2.45977 2.20305 0.100849 -0.103732 0.525544
H 4.97534 0.56338 9.93621 0.176086 0.775577 1.385955
H 1.13409 10.9682 9.22055 -0.379049 -0.541262 0.462752
H 5.99409 5.01758 10.3879 -0.040574 1.596346 -0.277919
H 10.7072 6.42552 1.54549 -1.2998 -0.478238 1.323638
H 8.03475 4.14865 12.0333 0.262187 1.569172 -0.100662
H 3.56163 10.1098 5.9009 -0.139501 -0.327042 -0.335329
H 4.53048 10.3068 4.64344 0.212588 -0.783477 -1.196398
H 6.88253 6.18927 0.54396 1.768241 0.43975 -0.714021
H 5.17962 5.45573 2.56751 0.146986 -1.018416 0.149315
H 3.28345 1.67613 3.59249 -0.296738 -0.811999 0.477521
H 10.3234 0.13501 5.87911 0.288813 0.279912 -0.121913
H 7.57617 4.23575 6.51627 0.694425 -0.92949 -0.648744
H 2.4284 3.63717 4.62487 0.356335 0.153719 -0.106105
H 2.55218 2.71701 7.81066 0.353766 -0.308672 0.011519
H 8.4419 3.01765 5.76802 0.393186 0.897987 0.170148
H 3.45684 10.9574 0.00193 -0.317946 0.115164 -0.076401
H 8.31562 7.10615 10.9875 0.487477 0.989482 -0.344756
H 2.20463 3.83983 6.18534 0.036647 0.870398 -1.066877
H 3.65888 4.90869 8.31815 1.766874 -0.016756 -0.799528
H 5.70243 3.158 9.71515 -2.161593 1.13011 -0.665814
H 11.057 5.65088 9.1626 0.065498 -0.070838 0.668499
H 7.51562 10.6729 5.71453 -1.240545 -0.386301 0.111562
H 12.2912 5.26118 4.01613 -0.248733 -0.229097 -1.287928
H 9.95362 4.17989 2.6885 0.25293 2.081507 -0.426067
H 0.9554 5.44768 9.1307 1.131366 0.036636 0.602412
H 5.93043 8.78199 8.70425 -0.273149 -0.283783 0.271429
H 7.34327 2.14137 1.39371 0.125487 -0.374205 0.242797
H 10.2598 1.69114 6.29492 -0.346049 -2.200466 0.337167
H 10.5276 8.17034 6.12192 -0.037394 -0.128917 0.493362
H 11.092 12.3999 3.69656 -0.510881 -1.10716 0.618903
H 8.08808 9.38465 11.3051 -0.346538 1.272276 1.068642
H 9.43904 6.72576 2.68884 0.119541 0.788289 -0.193103
H 1.74627 3.98581 8.45502 0.408084 -0.628153 -0.945375
H 0.89125 12.2538 8.31388 0.080268 0.425245 0.327344
H 8.21413 7.70392 9.55061 0.084688 0.137932 0.079876
H 5.01945 11.0956 10.8942 -0.304972 1.165954 -1.488638
H 6.19115 3.69964 4.43815 0.020056 -0.118507 0.276749
H 12.2167 6.98415 5.24888 -0.242764 -0.105568 1.44456
H 6.95431 0.42631 11.3301 -0.32205 0.316412 -0.365569
H 6.63289 9.27238 7.47496 0.361529 0.437044 -0.691305
H 1.48778 12.2451 0.2319 -0.150858 0.540869 -0.277417
H 9.43167 9.54324 7.86021 0.348676 -1.10539 -0.918871
H 8.13665 8.69854 3.37914 -0.043104 0.046126 0.406089
H 10.6823 3.89906 5.53478 0.701112 1.00628 0.134406
H 11.5144 11.2598 4.69406 0.294958 0.1257 0.132926
H 9.46989 5.79894 7.05939 -0.383188 0.325914 -0.080807
H 9.12513 2.94262 2.46298 -0.329429 -0.382708 -0.195132
H 5.04915 1.81691 7.309 0.253197 -0.413196 -0.290885
H 3.87494 8.099 10.0969 0.034805 -0.534172 -0.051705
H 4.15699 1.92068 12.3518 1.201806 -0.758769 -1.037492
H 2.2435 8.13552 2.09227 0.019876 0.569526 -0.04094
H 7.35301 2.14719 7.30589 -1.372825 -0.739494 -0.054178
H 10.0273 3.0425 4.33067 1.115305 0.116922 1.589521
H 5.42069 8.77524 3.40526 0.632033 -0.891203 0.367612
H 8.15268 3.67462 9.27417 2.146541 0.948659 0.486135
H 2.61984 5.13323 11.9599 -0.048862 -1.107535 -0.462723
H 5.1134 7.36685 10.7779 -0.19226 -0.51235 -0.139664
H 7.58847 10.7674 3.44342 0.458569 -0.450312 0.617678
H 11.6089 1.28373 7.63669 1.166718 -0.335533 0.847451
H 4.571 3.90491 7.46968 -0.137536 1.088531 0.572084
H 11.6429 0.84304 11.5565 -0.472788 1.390956 -1.140307
H 2.3323 8.68217 7.26647 0.194294 -0.513659 0.058754
H 7.43068 7.32914 3.62853 -0.474876 0.218397 0.550396
H 2.49233 7.48524 0.04392 -0.482709 -1.787844 1.942127
H 1.25258 10.3728 5.4549 0.123411 -0.013071 0.255432
H 11.9585 2.96047 11.4937 -0.744186 0.629993 0.2375
H 8.41029 6.16015 0.9222 0.493459 0.089033 0.418436
H 5.66026 10.0045 2.41691 -0.116171 0.073458 0.428749
H 10.9201 6.23158 7.05661 1.11796 0.98912 -0.746955
H 6.59272 2.37481 2.69188 0.897396 -0.694586 -0.035304
H 12.0525 0.89793 1.44747 0.670522 -0.735905 0.194288
H 5.46868 6.68451 4.07565 -0.326153 0.092838 0.37692
H 5.80924 1.84777 10.482 -0.99203 -1.885933 0.616932
H 0.41781 9.25157 10.65 -0.32483 -0.2608 -0.099547
H 10.8658 9.04632 11.7825 0.491147 -1.088866 -0.220391
H 3.01271 2.97873 12.2019 0.574354 -0.156158 0.318051
H 1.95357 0.3252 5.15145 -1.211893 -0.936563 0.356752
H 3.22623 11.6366 9.15749 -0.581706 0.4949 0.013177
H 3.41152 8.97458 2.61304 1.111476 0.337699 0.263302
H 3.43649 12.0753 5.03741 -0.9134 -0.021813 0.302984
H 3.85358 6.24244 2.44925 -0.46763 -0.133274 -0.303345
H 11.7801 7.07804 11.9765 0.725051 -0.725129 1.742457
H 4.25018 10.9765 8.34514 0.562096 0.318646 0.193837
O 7.79559 10.231 11.8284 0.884033 -1.901551 -0.793726
O 6.19876 8.48166 7.82929 0.020823 -0.400557 0.570414
O 4.19856 11.5531 9.12842 -0.105384 -0.711982 -0.396204
O 2.6561 7.78523 8.87497 0.128363 0.492213 -0.316046
O 2.1843 6.83242 0.79189 0.176042 1.700002 -2.119856
O 5.23851 10.5006 11.5863 0.47079 -0.082746 1.835797
O 2.3502 4.34548 5.29435 -0.18429 -1.278516 1.250729
O 7.81359 6.35273 0.18807 -2.057764 -0.558596 0.182472
O 11.5828 0.85133 2.30267 -0.388855 0.790174 -0.575976
O 4.80336 6.3323 2.52783 0.293 0.692674 -0.054308
O 4.61791 4.79431 7.95498 -2.128819 -1.290789 0.041938
O 11.2497 1.47907 10.8488 1.529412 -1.944876 1.156296
O 10.7258 11.7398 4.38411 0.012428 0.758107 -0.77995
O 10.1699 0.70842 6.6729 -0.106533 2.181516 -0.453115
O 8.19485 7.74611 3.21077 0.87892 -0.204109 -0.733227
O 0.0535 5.29343 4.94457 0.671105 -0.076947 0.766875
O 11.5744 5.81161 9.98507 -0.110249 1.284518 -1.547484
O 5.09698 9.62711 3.12423 -0.553954 0.700546 -0.403354
O 11.9277 7.53039 6.05639 0.192634 -0.515394 -1.215188
O 0.0074 1.25014 8.2587 -1.974355 -0.747105 -0.219283
O 4.14907 2.09515 7.03571 0.044529 0.78917 0.563431
O 7.68144 3.27872 12.0798 -1.028946 -2.092834 -0.388867
O 3.39441 2.24929 0.38792 -2.008651 1.136842 0.694897
O 10.289 3.05773 5.33745 -1.468498 -1.207471 -1.718231
O 3.37986 2.54485 3.19371 0.36441 1.010223 -0.986636
O 9.99312 6.08476 2.20619 1.249934 -0.643972 -1.259305
O 8.66825 7.84662 10.3964 -0.690403 -0.707819 0.531118
O 10.0327 3.24216 2.61244 -0.366071 -1.633994 0.51845
O 7.58688 3.31008 6.1265 -0.678111 0.600737 0.220481
O 11.4722 8.43731 11.2432 -1.533723 -0.053007 -1.318595
O 1.92514 5.23114 9.26099 -1.163011 0.699302 -1.353142
O 8.12374 10.3278 4.18287 -3.53994 -0.978166 -0.910961
O 2.85929 0.48201 4.96002 2.267991 1.41687 -0.681764
O 4.41603 8.03099 10.915 -0.069207 1.236519 0.373393
O 9.16892 3.93926 9.40552 -2.652298 -0.87996 -0.960005
O 2.50361 10.9303 0.24569 0.694246 -0.597879 0.562561
O 6.87735 10.6854 6.48793 0.507359 0.308934 0.009885
O 7.07325 5.78633 7.1321 0.46324 -2.069352 -1.984175
O 2.50073 4.33631 11.3676 -0.321085 1.078651 1.354485
O 7.25002 1.72097 2.28456 -0.764884 1.236952 -0.567226
O 1.20911 9.68959 10.2656 0.137711 -0.129011 0.480199
O 10.0318 9.38762 0.75786 -1.822791 1.794373 -0.451431
O 5.80118 5.97115 10.1329 1.105532 -1.458298 1.127735
O 5.18063 1.07199 10.7918 0.765689 0.529265 -1.556262
O 2.22136 8.97331 6.33384 -0.015821 -1.030667 -0.858811
O 2.4623 8.99767 2.53142 -1.137835 -0.559903 -0.379587
O 0.72716 11.1704 5.60511 -0.50174 0.104182 -0.848288
O 10.3301 5.59655 7.43157 -0.708875 -1.272423 0.643097
O 4.17527 10.7055 5.43546 0.3496 0.857055 1.351627
O 5.8508 3.79283 3.53891 -1.327004 -0.778643 -0.715409
O 1.71888 3.20349 7.73117 -0.313752 0.839151 0.670118
O 7.86562 0.33676 11.0082 0.791511 -1.871308 0.445885
O 1.50287 11.5175 8.52493 0.620192 0.271371 -0.994412
O 9.63267 8.37284 6.50956 0.700617 -0.231377 1.13954
O 9.14907 10.308 8.35504 0.055453 0.714865 2.473794
O 6.84164 11.2446 1.90544 0.978144 -1.45382 -1.041254
O 5.97282 7.36703 4.5645 0.200704 0.457094 -0.29479
O 6.61996 3.038 9.8029 1.622651 -0.381313 0.518547
O 0.88653 0.61321 0.01207 0.639723 0.955458 -0.021215
O 12.0417 3.8895 11.8565 0.964406 -1.096873 -0.655029
O 12.0839 6.40276 0.33337 -0.926298 1.938185 -1.0568
O 6.74726 1.48898 7.79244 0.95911 1.410445 1.302836
Na 9.23697 2.16756 10.7306 -0.415586 -0.121069 0.226399
Na 8.22387 12.1314 7.65576 -0.226347 0.344803 0.040266
186
energy=-1001.76207936 config_type=nep2xyz pbc="T T T" virial="-19.39320280999157 0.30107534068180614 2.4359613107598825 0.30107534068180614 -10.218187657252052 -4.639463898006785 2.4359613107598825 -4.639463898006785 -15.332696081925912" Lattice="12.4 0.0 0.0 0.0 12.4 0.0 0.0 0.0 12.4" volume=1906.6240000000003 Properties=species:S:1:pos:R:3:force:R:3
H 10.5839 12.067 9.92541 0.344315 0.123031 0.05447
H 10.9094 10.7376 3.56381 0.219536 0.969167 0.720291
H 4.90638 4.58405 6.32725 -1.86275 -0.715596 1.003757
H 7.37066 0.12431 5.33466 -0.330806 0.350549 2.671818
H 1.10576 1.46986 3.26535 0.332953 -0.930947 0.252902
H 0.93136 7.99534 4.10417 -0.233817 -1.270294 -0.391341
H 1.74767 2.96576 11.9272 -0.289642 0.258149 -0.042575
H 12.1161 8.15204 10.3939 0.057386 -0.489642 0.075462
H 9.45155 8.96589 5.89302 0.354758 0.128858 0.699214
H 12.1367 10.411 10.4368 0.147575 -0.452936 0.802094
H 4.15409 8.06274 9.16329 -0.769182 0.075877 -0.079214
H 2.66033 3.46988 6.70302 -0.279558 -0.577155 -0.114347
H 0.40096 9.48672 6.96001 -0.834747 -1.033107 0.487719
H 1.54939 6.81343 5.05664 -0.745628 0.260211 -0.401483
H 0.15597 8.89227 2.27612 -0.963481 -1.034155 -1.921187
H 6.29305 7.66087 4.00656 -0.473829 -0.359761 0.941217
H 5.06679 6.53226 5.49795 0.832458 0.925574 -0.135084
H 3.06896 6.08074 0.78994 0.884656 -0.402232 -1.327224
H 7.52155 0.47334 3.17204 -0.293023 -0.708447 0.84608
H 4.9029 10.3274 10.9711 -0.479844 -0.580956 -0.342287
H 1.3823 0.70691 7.60755 -1.280433 -0.800602 1.009955
H 2.34956 5.01853 2.29398 -0.986327 1.367869 0.086142
H 6.44383 11.7396 3.56794 -0.070126 -0.33921 -0.253709
H 3.08068 9.98954 12.2001 -0.240902 0.791339 -0.392928
H 6.45966 4.67266 6.36248 -0.06149 -0.11059 -0.456747
H 10.7124 7.26326 0.25818 0.223841 0.783854 -0.081316
H 7.11538 11.3551 9.82631 -0.950713 -0.387753 0.925942
H 0.09559 4.16436 0.17991 -0.382802 1.049478 2.004868
H 3.0483 0.80019 0.83281 0.719417 1.800187 -2.25619
H 11.9608 6.00214 4.6873 -0.851503 0.31662 0.268468
H 1.02115 9.78486 11.3346 -1.057875 0.37222 -0.846222
H 6.98342 2.97337 11.7285 0.923874 0.584546 0.397251
H 11.8381 2.02178 11.4309 -0.69651 -0.19952 -0.414865
H 4.32322 2.90818 9.62999 -0.784278 -0.422027 0.103121
H 7.51027 2.21596 8.23761 -0.259494 0.386229 0.023326
H 4.7438 3.80087 2.76182 1.258604 0.005201 0.723048
H 11.7669 7.95102 8.36902 -0.002453 -0.428252 -0.102087
H 5.93095 4.36061 9.97099 0.786857 -0.056507 -0.447597
H 2.91243 3.4347 1.59777 -0.001934 -0.626264 -0.327935
H 3.49975 0.77886 11.2631 1.825343 0.222171 0.681476
H 1.27188 1.19096 10.9977 0.311955 -0.220877 -0.1568
H 6.96566 5.52405 10.1713 -0.209461 -0.361802 -0.986378
H 11.6846 9.48734 0.09981 -0.020075 -0.942748 1.233491
H 8.11465 3.96816 12.3265 -0.163172 0.913682 -0.221354
H 4.25463 11.4359 7.1265 0.798195 1.102289 -0.101133
H 5.4517 0.12355 7.38889 -0.2001 -0.471359 -0.322752
H 7.32028 5.83236 12.3689 0.271895 0.225879 -0.572886
H 5.95297 5.1657 1.84354 0.557898 -0.15862 0.343683
H 2.46254 2.90235 3.09122 -0.607875 -1.132876 0.64746
H 10.1278 1.72413 7.61253 0.088647 -0.395911 0.522688
H 8.72462 3.10722 6.72861 -0.089992 -1.094837 0.113546
H 0.01863 4.51903 8.09177 0.248173 -0.015523 -0.089789
H 9.56305 4.94862 10.5916 -0.350368 0.484137 0.258932
H 9.76263 2.52993 5.80067 1.343218 0.303565 -2.091119
H 2.51516 11.0877 11.0307 0.163282 -0.243665 0.93227
H 9.73518 6.85754 6.92561 -0.794785 -0.097439 0.611188
H 11.6615 5.00097 6.83688 -0.216313 0.004176 -0.305125
H 2.35574 7.50153 7.29234 -1.014508 -0.737584 -0.093732
H 5.07352 3.51823 11.3816 -0.588691 0.383371 0.643226
H 11.0974 5.83547 0.25911 1.199725 -1.93331 1.061852
H 8.03304 0.88535 6.60183 -0.206267 -0.081661 -0.402786
H 10.4306 6.36845 4.6694 0.050301 0.520119 -0.018118
H 11.9965 2.7842 2.06493 -0.09263 0.094859 0.199311
H 0.81677 5.94183 10.0106 1.416315 -1.107461 -0.602602
H 5.98534 8.30745 6.63446 1.312115 0.116416 0.498578
H 8.11529 2.25916 1.74984 -0.835947 0.133033 0.979505
H 11.1964 2.4334 8.31167 0.562193 0.778798 0.274792
H 10.4332 9.04698 7.12371 -0.614062 0.110443 -0.449139
H 0.56529 12.1102 3.88776 0.318238 -0.294838 0.415776
H 5.30176 11.5743 11.649 -0.020375 0.87826 0.137006
H 10.7994 9.35603 1.43938 -1.006418 0.753236 0.562883
H 10.5181 4.85399 9.38733 0.311794 0.375991 -0.79085
H 1.45279 0.32121 9.71877 -0.160629 -0.026699 -0.197263
H 8.18713 7.12269 7.10541 0.444775 0.15348 0.359119
H 3.31032 9.38947 9.33075 0.298027 -0.47906 -0.243897
H 5.55725 4.19616 4.07181 0.474411 -0.11486 -1.28636
H 0.12463 7.27503 7.26417 1.643405 -1.237738 -0.486217
H 7.47863 0.29058 9.11187 -0.161482 0.005137 0.047482
H 6.14828 8.51502 8.16301 1.26782 0.388653 -1.516207
H 3.30072 11.8157 1.38748 0.314816 -1.124962 -0.26748
H 9.35925 11.161 9.82245 2.282786 -0.260027 0.058888
H 9.52225 8.9869 3.77475 0.216248 0.622632 -0.547381
H 10.6066 4.26717 4.47685 -0.071388 -1.330802 -0.573095
H 0.24413 11.0524 5.05948 0.389428 -0.253088 0.382056
H 7.20852 4.54681 8.06978 0.379124 -0.014995 0.493852
H 11.2916 1.92133 3.14323 0.053375 0.480161 0.070377
H 3.16894 4.23348 7.91012 -0.197792 -0.333146 -0.192371
H 2.31629 5.45936 9.90206 2.260822 0.978229 0.265893
H 3.60278 2.50919 0.03 0.508127 -0.33059 -0.083646
H 2.78678 9.60072 1.94138 -0.024568 0.253214 -0.62802
H 3.23777 1.81213 9.8913 -0.082217 1.409092 -1.148426
H 9.66766 3.3666 3.50244 0.259893 -0.128406 0.564966
H 6.12357 9.08148 2.83042 0.498879 0.462955 -0.369719
H 6.70217 2.41646 9.6653 0.98676 -1.009332 -1.147475
H 3.54024 4.74148 0.031 0.183431 0.836009 -0.056027
H 4.88417 5.98191 9.47781 0.426702 -0.083607 0.501013
H 9.23392 11.0691 3.56194 2.151549 -0.729254 -0.627566
H 12.2421 0.66834 8.16474 0.976173 -0.49839 0.298163
H 2.20981 5.92502 7.27323 -1.067671 1.096297 -0.769048
H 11.1213 1.49829 0.18311 -0.34863 -0.486267 1.288068
H 4.52982 8.07757 5.38281 0.939233 -0.652145 -0.171339
H 8.49399 7.77501 4.01411 1.036325 0.915035 -0.066407
H 4.02456 6.36476 10.8128 0.310281 -0.118271 -0.553943
H 0.547 11.0722 7.06011 0.461568 -0.800371 0.30703
H 0.49568 5.14187 1.45653 0.330374 -0.03575 -0.409054
H 8.78142 6.26841 11.944 -0.221107 -0.175063 -0.398679
H 6.50056 10.267 1.80086 -1.593556 -0.859085 1.704298
H 8.40224 4.96269 7.15724 0.06067 0.812601 0.299904
H 7.07137 2.67743 2.93227 0.569742 -0.195392 -0.654613
H 2.37748 0.4965 3.1682 -0.388993 0.389952 -0.389232
H 6.60495 6.99554 2.60393 0.708592 1.247717 0.820831
H 4.8762 1.65488 11.2246 0.657164 0.77025 -0.660566
H 11.4075 6.69772 10.5177 0.928523 1.631024 -0.582954
H 0.4871 9.90698 3.2352 0.568288 0.95352 0.912129
H 1.24284 3.61254 10.6673 -0.5128 0.281161 -0.477214
H 2.31222 1.48727 5.49831 -0.05768 -0.60569 -1.160192
H 2.81875 10.1621 6.1161 -1.152366 0.04061 0.171759
H 4.2883 9.89914 1.91094 1.328724 0.030642 0.008517
H 3.22636 1.30485 6.75192 2.637206 -1.226095 0.740888
H 5.27609 6.07526 0.87777 -1.070131 0.260249 -0.936316
H 1.65621 6.46993 2.66819 0.011263 -0.036266 0.514317
H 3.88364 9.65546 7.09848 -0.139192 -0.980859 1.839813
O 5.68771 10.7813 11.2682 0.69129 -0.084237 0.05918
O 6.68065 8.62318 7.30462 -2.324753 -0.637773 1.157964
O 3.73936 9.93489 6.21101 1.049946 0.293874 -1.945086
O 0.94447 6.98538 4.2897 0.875383 0.238465 0.777151
O 3.74998 5.76523 0.06717 -0.870986 -0.084102 0.91891
O 3.77033 8.83673 8.66011 0.15456 0.280974 0.485049
O 11.7426 4.25529 7.44737 0.094981 0.037729 0.615618
O 7.95467 5.85567 11.5875 -0.090139 0.109907 1.223905
O 1.72137 0.87236 3.79999 -0.324436 1.249936 -0.064908
O 6.15296 5.92878 1.25515 0.805677 -0.11548 0.733425
O 1.71513 6.78318 7.01805 2.507362 -0.567932 0.595227
O 11.0093 1.49831 11.6409 1.148185 0.701437 -0.708516
O 0.16429 11.2363 4.11524 -1.031638 0.11473 -0.660324
O 10.7469 1.59225 8.40361 -0.478043 -0.274837 -0.432316
O 9.38918 8.16904 4.27034 -1.083513 -1.659789 0.728109
O 11.0542 5.72831 5.04252 0.768555 -0.327745 -0.263373
O 10.614 6.45392 12.1358 -1.42387 1.210367 -0.911996
O 5.83905 9.99128 2.53314 1.159579 0.636018 -1.496393
O 11.8841 7.94827 7.39278 -1.986064 1.968241 0.543503
O 0.73874 0.19378 8.24698 0.190573 1.391014 -1.711885
O 2.98731 4.34584 6.95702 0.649073 0.61334 0.7157
O 7.91476 3.05372 12.1595 -0.763986 -1.70976 -0.183507
O 3.0798 3.29933 0.17683 -0.563948 0.28322 0.362685
O 10.395 3.30029 4.15631 -0.393025 1.32254 0.354726
O 2.85213 3.61701 2.62465 1.236153 1.465068 -0.51699
O 11.5164 8.94707 0.97783 0.333635 0.049787 -1.904465
O 8.92735 6.55907 7.41385 0.57241 0.035883 -0.869322
O 11.9582 1.88257 2.44093 0.441916 -0.133752 -0.524907
O 9.16054 2.23808 6.45856 -1.295418 0.539246 1.635933
O 0.8202 9.05034 2.92771 1.415689 0.407947 0.96401
O 1.44779 5.15982 9.77603 -3.66972 0.306496 0.021644
O 10.0379 10.5575 3.18944 -2.593833 -0.006034 -0.208082
O 2.40114 1.58378 6.44066 -2.582662 1.547601 0.599074
O 4.14437 6.51327 9.82564 -0.666744 0.165507 0.428217
O 7.37113 1.84481 9.11507 -0.830047 1.227318 1.327123
O 2.70002 10.1552 11.2872 -0.087029 -0.382661 -0.667474
O 7.31183 0.24741 6.41951 0.328148 -0.424606 -2.905053
O 5.64336 4.82123 5.80177 1.194371 0.716821 -1.14126
O 0.88345 2.99075 11.3354 0.596148 -0.244347 0.757122
O 7.87071 2.12655 2.70879 0.053942 0.125869 -0.642528
O 12.0207 7.27279 9.92838 -0.914808 -0.915401 1.17502
O 0.02707 9.73857 11.1005 0.850665 -0.102308 -0.055949
O 6.41644 5.0899 9.44436 -0.066485 0.287557 0.922243
O 4.40216 0.97812 11.7273 -2.584177 -1.815634 -0.060375
O 5.34455 7.49094 5.32752 -2.239078 0.02076 0.424321
O 3.49836 9.94957 1.35314 -1.538959 -0.351884 0.645091
O 0.85839 10.245 6.60875 0.525868 1.944194 -0.591009
O 7.71888 4.26663 7.261 -0.404005 -0.299733 -0.118881
O 4.49731 12.3432 7.45205 -0.510248 -0.161235 0.121115
O 5.69685 3.98058 3.0841 -1.873595 -0.139384 0.838202
O 10.0169 4.34302 10.0091 -0.157431 -1.006501 0.348999
O 7.6416 11.7194 9.12568 0.965964 -0.527679 -0.548961
O 1.78133 0.42012 10.6499 0.342309 0.186621 0.33104
O 9.55973 9.36776 6.80456 0.43363 -0.24167 -0.77997
O 10.3895 11.1211 9.96147 -2.535829 0.383919 -0.384144
O 7.3485 12.0325 3.72782 0.801429 1.343228 -0.30306
O 6.92828 7.71264 3.28226 -0.30836 -1.39567 -2.010499
O 5.62132 3.03227 10.7725 0.814573 -0.165277 -0.447832
O 2.90854 0.26367 1.55897 -0.953248 -0.961656 2.817366
O 12.1516 4.64103 1.04752 -0.003978 -1.434909 -1.914129
O 1.93148 5.9075 1.92296 0.64051 -1.130305 0.099876
O 3.38987 2.65993 9.38062 0.4062 -0.753853 0.405103
Na 9.27913 2.23381 10.5071 0.136725 0.120936 -0.292483
Na 7.79866 10.5775 7.1154 -0.001028 0.104275 0.408461
186
energy=-1002.48278526 config_type=nep2xyz pbc="T T T" virial="-18.72662438576427 -1.1635550399408805 3.8198011582644353 -1.1635550399408805 -12.73479669859694 -0.9890979453007509 3.8198011582644353 -0.9890979453007509 -11.431045271755966" Lattice="12.4 0.0 0.0 0.0 12.4 0.0 0.0 0.0 12.4" volume=1906.6240000000003 Properties=species:S:1:pos:R:3:force:R:3
H 9.17188 9.04299 7.43884 -0.991929 -0.247076 -0.413081
H 0.16448 8.28846 4.35917 -0.372233 -0.294579 0.047154
H 6.94949 5.00746 6.55311 -0.221336 0.127622 -0.179113
H 7.27156 10.2109 7.07994 -0.799481 0.055838 -0.002438
H 1.06618 5.64168 3.18669 -1.135722 -0.370325 0.657923
H 0.30812 8.01816 7.03391 0.496251 -0.549377 -0.491552
H 10.2799 10.2782 5.10453 -0.772502 0.491738 -0.07621
H 10.7908 8.45319 6.25035 -0.690629 1.943229 0.587429
H 5.62851 4.14777 3.29419 1.475628 0.048433 -0.710894
H 11.0936 7.28916 11.4913 0.01356 0.247371 -0.267999
H 5.30063 5.66975 8.99523 -0.279041 -0.801622 0.38845
H 7.76391 12.2882 10.4525 0.092594 -1.764521 -1.18103
H 1.36598 8.50036 8.85716 0.073859 0.21816 0.000179
H 11.9124 0.25699 4.91998 0.351033 -0.116993 -0.406318
H 11.6502 8.29719 10.4153 -0.29308 -0.496595 0.128114
H 0.82918 3.91995 6.14141 0.015498 -0.810439 -0.242298
H 10.8336 10.2358 2.64187 0.219344 0.306348 -0.062187
H 3.3089 6.93818 12.1233 -0.097766 0.246121 0.444419
H 4.56748 9.70891 2.64176 -0.767076 0.094357 0.367405
H 7.58974 7.92475 11.2172 1.29191 0.259905 -0.569371
H 1.64269 5.80386 11.7467 1.166521 -0.104164 0.642291
H 1.91538 7.90041 6.87867 0.279614 0.494674 -0.544766
H 10.5399 8.23593 1.20221 0.354299 0.442282 0.600183
H 0.14285 1.54739 2.82325 0.651521 0.018883 -0.865042
H 7.91179 6.13422 5.99173 -0.405329 0.169115 0.057921
H 9.18381 7.50455 4.31249 -0.977504 -0.405923 1.052599
H 6.1735 10.6463 9.89068 -1.465478 0.223988 -0.056209
H 0.2384 11.7145 11.8098 -0.038133 0.420942 -0.283849
H 0.55756 1.58281 0.6185 -0.502992 -1.946281 -1.704781
H 11.9342 6.19789 3.58399 -0.164644 -0.128837 -0.129992
H 0.0237 2.06568 4.27346 -0.414288 -0.592188 -0.62995
H 7.86378 4.80157 1.70486 -0.194413 -0.005951 0.316161
H 11.0674 6.46041 9.12016 0.120014 0.386134 -0.152398
H 2.45463 4.73649 7.67381 -0.637971 0.001564 0.284685
H 4.54626 7.63455 10.1504 0.381147 0.466496 0.199192
H 6.40481 9.34812 2.46464 1.804281 -1.684099 0.26275
H 3.03739 10.6281 6.36877 0.040872 0.078741 -0.280371
H 6.76782 1.10074 0.9706 0.997445 0.522978 0.395372
H 0.26966 4.51428 10.7136 0.061973 0.227137 -0.026064
H 4.88039 1.69958 10.6626 -0.762029 -0.134053 0.106778
H 5.91679 4.48617 0.35128 -0.500671 -0.057655 -0.485502
H 8.33448 1.20206 1.55095 -0.075787 -0.176151 0.001355
H 9.13739 10.2517 3.52077 -0.199978 0.128674 0.198527
H 9.92312 5.57537 2.69669 0.703936 1.56654 2.083388
H 3.69795 8.74598 5.08206 -0.434848 -0.341807 -1.724722
H 4.67489 9.2058 6.1435 -0.05327 0.016865 0.232723
H 5.37073 11.8237 1.28834 -0.048847 -0.079516 0.451793
H 10.2785 6.63227 1.20646 -0.034129 1.07335 -0.403523
H 0.05551 4.32564 9.15692 0.623724 -0.894002 1.268517
H 8.9596 1.69017 10.4303 -0.937529 -0.273174 -0.381247
H 10.1424 2.86814 6.81469 0.810025 -0.385524 -0.383065
H 5.8328 0.60238 5.01581 -1.021957 -0.186975 -0.546843
H 11.9914 4.63155 1.88466 0.621447 0.375608 1.359166
H 11.5955 2.68781 6.20159 -1.086926 -0.470531 -0.30468
H 1.51389 12.0951 9.77009 -0.267725 0.287734 -0.060423
H 11.7848 11.2169 5.44818 -0.714599 -1.454959 -0.106978
H 7.35523 0.58054 5.38309 0.255159 0.494035 0.274858
H 5.03367 3.65076 5.40605 0.968305 -0.108234 0.355258
H 7.31475 3.41396 1.47797 -0.326443 -0.455557 0.148357
H 7.75329 7.76778 3.91872 -0.908486 0.36401 -0.053442
H 6.42588 11.5043 6.61129 -0.042419 -0.116177 0.049395
H 3.65115 5.31265 3.28784 0.339179 -0.468798 0.396297
H 9.65655 0.9347 5.72913 0.72764 0.510638 0.098161
H 3.75963 3.4744 9.0155 0.576131 0.690349 -0.462206
H 4.21665 1.43961 1.82456 -0.429763 0.234027 -0.335419
H 4.72701 0.16501 0.13521 -0.100548 0.296023 -0.578224
H 8.09034 1.71371 11.688 -0.706653 -0.372332 0.280443
H 4.2408 3.49762 2.93397 0.6314 -0.020393 0.557147
H 2.28727 0.22372 7.8274 0.871186 -0.481834 -0.706792
H 9.11329 8.09653 11.4243 -0.471287 -0.40692 -0.705659
H 9.60792 9.87566 10.9929 1.376933 0.602321 -0.520731
H 12.3428 4.77512 0.42597 0.065349 0.638445 -0.770629
H 1.53355 10.6733 10.2082 -0.008454 -1.348122 -0.02233
H 10.8915 7.95203 3.21871 -0.539597 -1.734715 1.032882
H 5.73044 5.678 10.5916 -0.10699 0.344408 -2.020701
H 6.89265 8.03339 1.776 -0.34325 -0.810592 -1.653532
H 1.69985 11.2694 5.87449 1.252108 0.786592 0.562271
H 5.41598 10.4662 8.58416 -0.440314 0.204568 0.539544
H 2.75263 2.21643 1.84456 0.444901 -0.607449 0.123358
H 5.1538 3.85564 11.4209 0.507912 0.130814 0.534509
H 8.0792 8.40647 6.48437 0.544143 0.186843 0.350301
H 10.447 1.11595 2.46489 -0.944199 -0.914814 -0.211238
H 10.1374 0.34807 8.79462 -0.177078 0.817555 0.072264
H 2.50299 2.16622 11.3412 0.268863 -0.25224 -0.548792
H 10.1791 4.91031 7.63233 -0.876462 -0.833513 0.544111
H 9.50724 12.1042 4.65722 -0.62329 0.55418 0.529275
H 7.48366 11.5287 9.08249 -0.006707 0.445439 -1.535013
H 4.58766 3.69751 7.65402 -0.40171 0.89591 1.183279
H 0.28079 2.95784 1.13499 -0.035586 0.338765 0.340413
H 11.2922 2.68066 9.66389 -2.127348 -1.263943 -0.391961
H 1.27659 5.78402 7.51792 0.056763 0.109382 0.032899
H 10.3215 11.3334 9.26693 0.007682 -0.986722 0.809467
H 3.03645 12.2967 10.9461 -0.687527 -0.343912 0.275396
H 4.61201 9.1634 10.683 -0.256196 -0.513599 -0.820673
H 3.95309 5.56564 12.38953 -0.63696 0.002645 0.300811
H 6.15815 6.79464 0.34249 0.230391 -0.54507 0.080999
H 0.12981 9.34225 3.1531 0.055922 -0.559843 0.678525
H 0.35759 6.54157 11.1408 -0.117942 -1.390133 0.676958
H 5.87585 2.50011 6.148 0.217689 1.498862 -0.443016
H 11.1386 6.51264 7.4332 -0.234082 0.599542 0.944716
H 11.8884 10.2157 1.34026 -0.530865 0.218518 0.346849
H 9.70048 12.1471 2.66275 0.218261 -0.255002 0.235688
H 5.53752 7.93375 11.9693 0.704777 0.015721 0.326877
H 2.44532 8.71416 9.96534 -0.233935 0.111412 0.071371
H 11.2366 12.2119 0.22539 1.045155 -0.5374 -0.1777
H 11.0277 10.5803 11.4221 -0.345611 -0.091259 0.131291
H 4.41074 11.9178 10.4473 0.238784 -0.057253 0.090877
H 8.70926 4.40525 7.13494 0.711727 0.236466 0.34181
H 1.42733 2.8358 10.4385 1.099664 -0.762901 -0.985932
H 3.82974 0.80014 3.63278 -0.393589 1.22204 -1.149959
H 0.11947 4.18409 4.82842 0.271121 -1.078664 -0.025309
H 6.34935 1.91841 10.3665 -1.345683 1.846908 0.197353
H 10.9948 7.36237 5.25941 0.167985 -0.436752 0.336546
H 9.98222 2.6761 8.74686 0.173219 0.062468 0.037322
H 10.2238 10.8548 6.65576 -0.011403 -0.000812 -0.301844
H 3.39729 12.303 4.75043 -0.185462 -0.562354 0.96806
H 2.24149 1.18313 9.16296 0.523499 0.544962 0.096746
H 3.04389 7.39459 3.1552 0.639086 1.241889 -0.267052
H 5.05086 11.1586 3.20734 -0.56738 -0.727198 -0.223683
H 10.2868 4.51646 1.64216 -1.766214 0.816772 0.424952
H 2.98691 5.65647 1.95347 -0.244287 0.489226 0.079954
H 2.2862 8.68521 3.19415 -1.84994 0.944189 0.446321
O 8.44986 8.08954 10.6914 -0.827255 -0.31916 1.457402
O 3.59223 2.02618 2.32334 -0.163622 0.318644 -0.165578
O 1.76674 0.72809 8.45073 -0.613832 -0.163058 0.126958
O 12.224 12.031 5.59851 1.12173 1.317603 0.895035
O 3.15326 6.13553 0.25422 0.886455 -0.278126 -1.036517
O 5.82846 6.12578 9.66601 0.249526 0.324337 1.735856
O 6.44543 0.81359 5.71494 0.800047 -0.245646 0.682081
O 10.5389 10.1135 10.7092 -1.137486 -0.581967 -0.026107
O 0.11821 5.38715 3.43943 1.133423 0.002252 -0.509423
O 10.5356 7.43283 0.67565 -0.448843 -1.437431 -0.720315
O 5.733 3.5156 6.10353 -0.962728 -1.396232 0.121057
O 10.914 6.00491 8.2704 0.383055 -0.268791 -0.597841
O 2.25379 2.21345 10.399 -1.205965 1.547056 1.464505
O 8.03082 1.44413 10.7374 1.620768 0.61627 0.370949
O 9.78944 0.49839 2.02889 0.975641 1.122007 -0.115296
O 2.83031 5.6912 2.91954 -0.700789 0.657067 -0.532244
O 8.2209 7.54986 4.74302 1.890412 -0.204691 -0.35437
O 3.96802 0.13205 11.0813 0.83576 -0.065257 -0.411852
O 2.61685 11.5066 6.23896 -1.68866 -0.595606 -0.293277
O 0.70192 5.68076 11.6244 -1.076342 1.305464 -0.886683
O 7.72213 11.3426 9.97312 0.076703 1.241471 2.446478
O 9.5059 5.03283 2.06144 0.892122 -1.886514 -2.431583
O 0.83278 2.14186 1.29958 1.120653 1.020458 1.288004
O 10.4791 11.9007 8.5143 0.356346 -0.224128 -0.983879
O 0.13836 3.80374 10.0242 -0.703615 0.211109 -1.595302
O 9.87693 10.8371 3.74231 0.30818 -0.450868 -0.812362
O 10.6423 7.11887 3.74609 0.571432 1.846633 -0.769054
O 9.04067 0.40377 5.22102 -0.593529 -0.975487 -0.602197
O 10.7851 2.15294 6.48535 0.496202 0.283711 0.287702
O 10.4597 2.07487 9.3586 1.736743 1.7185 0.956761
O 4.12704 4.18214 8.42733 -0.068798 -1.285075 -1.096343
O 0.67035 8.97365 3.92744 0.559073 0.845299 -0.440569
O 4.17965 0.21395 4.28523 0.914625 -0.819032 0.203315
O 6.39294 7.67516 0.03515 -1.199973 0.107186 -0.642853
O 4.23401 8.25966 10.8433 -0.052533 0.01103 0.228784
O 12.0839 1.36946 3.64333 -0.325943 0.912321 1.309301
O 6.36394 10.6178 7.03639 0.381033 0.111778 0.048802
O 7.53965 5.74016 6.81803 0.0187 -0.243118 -0.30666
O 10.3638 10.0734 6.09111 0.388106 -0.504888 0.837279
O 5.29093 0.32505 0.92268 -0.010858 -0.153133 0.244358
O 11.1678 7.5843 6.26353 0.661733 -1.475441 -1.34494
O 11.4968 7.33546 10.5752 0.221741 0.598178 0.311493
O 7.59014 1.67549 1.1023 -0.681973 0.005693 -0.670875
O 5.45919 2.44469 10.4478 1.886348 -1.448306 -0.171116
O 11.4696 9.68841 2.05252 -0.171682 -0.209842 -0.204381
O 3.18594 8.4104 3.14688 1.734284 -2.061488 0.073022
O 1.5667 9.02332 9.67428 0.319851 -0.156587 0.25038
O 9.57635 4.09497 7.48564 -0.546267 0.073102 -0.082804
O 3.74212 8.97162 6.001 0.444846 0.348482 1.469476
O 7.10897 8.56641 2.51032 -1.134748 2.908219 1.600522
O 11.85 4.19691 1.03204 -0.45488 -0.326639 -0.21986
O 5.1919 10.5627 9.55847 1.909157 -0.271133 -0.01305
O 1.55341 11.5598 10.5909 -0.334813 0.778939 0.25521
O 4.7134 4.15992 3.51696 -1.553191 -0.486062 0.422944
O 8.23581 8.723 7.41766 0.474884 -0.10691 -0.384536
O 5.10625 10.4992 2.47026 0.808183 0.415026 0.10061
O 0.39559 3.39279 5.40261 0.292487 2.387426 0.217138
O 6.99897 4.32523 1.67285 0.09879 0.097671 -0.54654
O 5.21161 4.64722 12.0334 0.576865 -0.083606 -0.042783
O 11.9428 11.5303 0.07508 -0.771413 0.305806 0.524276
O 1.15811 7.69119 7.42558 -0.467969 -0.204893 0.672541
O 1.46727 4.83292 7.62265 0.433841 -0.13481 -0.371139
Na 12.2308 0.78694 7.74833 -1.254458 -0.127199 -0.722759
Na 7.84954 6.87633 8.76453 0.118494 0.133459 0.049202
186
energy=-1001.84656941 config_type=nep2xyz pbc="T T T" virial="-11.176273652441468 5.379752229751204 -0.20590935256194826 5.379752229751204 10.1236166796869 -5.476572347213147 -0.20590935256194826 -5.476572347213147 2.0149199420380257" Lattice="12.4 0.0 0.0 0.0 12.4 0.0 0.0 0.0 12.4" volume=1906.6240000000003 Properties=species:S:1:pos:R:3:force:R:3
H 12.3562 10.7716 10.8541 0.95237 -0.320128 0.601933
H 9.62838 10.9926 3.26467 0.348889 0.896097 -0.500284
H 6.08947 6.44442 5.91172 0.846151 -1.14458 0.823981
H 7.0304 0.40911 6.02568 0.046035 -0.726334 -2.420686
H 10.7441 0.56689 2.12229 -0.397318 -0.116652 0.374827
H 2.52674 6.85632 4.33941 -0.345668 -0.279471 -0.265433
H 3.20094 4.88101 10.7737 -0.28654 0.855648 -0.855992
H 0.82988 8.51572 10.7271 0.379427 0.265031 0.177314
H 9.19343 11.1622 5.41737 -0.196659 -0.844883 -0.103502
H 8.25553 10.8319 1.21747 0.286774 0.029395 0.240128
H 4.32781 8.86475 9.77082 0.318855 -0.841731 -0.027869
H 2.69841 1.28188 6.19479 0.05504 -0.098735 -0.288738
H 11.6972 11.4884 6.56836 -0.371337 1.362216 -0.506421
H 3.07382 6.04774 5.67715 -0.179799 0.620673 -0.462901
H 0.53928 7.66709 2.42002 1.246633 -0.495312 0.561435
H 6.26948 7.5325 3.73865 0.541849 -0.159961 -0.241884
H 5.52706 8.33424 6.18954 0.520274 -0.424731 -0.28807
H 4.46712 7.00867 0.4301 0.97284 -0.323093 -1.136632
H 7.09155 0.74932 3.38766 -0.570633 -0.463305 -0.401871
H 4.80142 10.4289 11.7927 0.130802 -1.012643 0.041041
H 0.20836 2.50804 8.29614 0.285051 0.367294 -0.86409
H 1.51411 4.12087 3.14404 0.242549 -0.425951 -0.319993
H 6.19942 11.8898 4.05122 -0.153666 0.655994 0.084
H 1.99546 9.44737 12.1723 -0.217427 0.724491 -0.377705
H 4.78846 6.97739 5.14659 0.589883 -0.363167 -0.173407
H 10.8301 7.07048 0.04946 -0.118337 0.679642 -0.174707
H 7.39062 10.8294 10.0157 -0.234265 -1.371438 -0.492869
H 12.0536 4.32819 1.53068 -0.141228 -0.512917 -0.407717
H 1.39748 0.60935 0.85236 1.012234 0.578327 0.029559
H 10.5062 6.16446 5.74677 -1.030589 0.697963 0.245329
H 9.61864 11.6012 1.01752 0.030142 -0.307838 0.800353
H 6.78186 1.85678 11.3073 0.264464 0.294967 -0.130174
H 12.1476 2.31191 10.675 -0.188952 -0.009178 -0.859415
H 5.07235 2.51499 8.12791 -0.044226 0.072218 0.950135
H 9.87214 1.08772 8.45196 -0.103539 0.321109 0.095433
H 4.79005 3.32789 3.02135 -1.435244 -0.378351 0.028792
H 12.39524 8.46364 8.97314 -0.604905 -0.133877 -0.076502
H 6.81432 3.72517 9.38791 -0.416411 0.121514 0.542503
H 2.68488 2.54977 2.14202 0.53137 0.395774 0.372467
H 3.06837 0.67381 10.6138 1.29962 -0.079868 0.932398
H 2.20842 12.1952 8.36368 0.850403 -0.391249 -0.092169
H 7.5799 4.92177 10.1468 -0.492241 -0.947716 -0.611587
H 11.4224 9.01569 1.33166 0.00244 2.193684 -0.176468
H 8.11542 2.47558 11.9024 -0.743274 -0.006494 -0.173174
H 4.80934 10.1962 5.31504 0.551416 -1.140043 0.447581
H 4.88647 10.6278 3.7143 -0.405608 -0.491834 0.951246
H 7.87824 4.71493 0.02915 -0.902079 1.063449 2.056062
H 6.25434 4.75057 1.78542 1.454263 0.966098 -0.570539
H 2.64754 2.40867 3.68987 -0.602038 -1.672169 2.440781
H 9.9919 12.3495 6.88144 -0.227741 -0.254596 -0.445242
H 7.22441 4.15218 6.00858 0.013569 0.190863 -0.370999
H 12.058 4.59097 4.69563 -0.035478 0.081203 -0.7701
H 1.197 2.91755 6.43613 1.089504 0.141461 -0.033339
H 7.81405 2.93192 5.26551 -0.467726 0.233715 -0.010698
H 2.43764 10.1348 10.9486 0.4908 0.077583 -0.963954
H 9.50515 8.31459 7.25168 -0.221315 0.44203 0.691931
H 12.0243 4.42768 6.2098 -1.040643 -0.151857 -1.08337
H 3.01589 5.71624 8.05969 -0.795235 1.169378 1.121938
H 5.06551 2.9791 10.5521 0.292469 0.284083 -0.586034
H 11.2007 5.69425 12.3249 0.619404 -1.839822 0.579121
H 8.13637 1.41067 6.66243 -0.895522 -0.832676 -0.64379
H 9.65398 7.17693 4.9448 -0.227751 0.533984 -0.772396
H 10.3025 2.87082 2.11974 1.530458 2.918127 -1.585524
H 2.14017 6.80913 10.196 1.247478 -1.674078 -1.975015
H 6.53464 9.54569 8.35392 0.95452 -0.523342 1.764759
H 7.19272 1.52896 1.17354 0.085829 -0.102805 -1.133161
H 10.3625 1.42596 6.47519 -0.282541 0.839585 -1.008254
H 9.28177 10.4634 6.91304 -0.14177 -1.300404 0.153419
H 0.27768 10.7067 3.49349 0.120607 -0.911689 0.427827
H 4.76011 11.8693 11.8029 -0.211159 1.385888 0.292104
H 10.5656 7.97503 2.18816 0.453837 0.456852 -0.507522
H 1.59757 4.1575 7.38398 1.39318 0.483545 -0.203816
H 1.29427 0.70096 9.02445 -0.293794 0.941748 0.735729
H 8.49059 8.97011 8.32347 -0.443476 -0.122849 0.80389
H 4.38148 10.3662 9.84651 1.430225 1.880127 -1.409668
H 5.9656 3.4906 4.10844 0.111077 0.073264 -1.034662
H 10.8534 8.94679 8.42859 0.72752 -0.282218 0.61598
H 7.43908 11.5714 11.3413 -0.057268 0.063717 0.615667
H 6.54237 8.60276 9.63523 0.692324 0.619134 -0.751741
H 0.9156 11.6727 0.05706 -0.063774 1.722572 1.033056
H 11.8358 10.4092 9.46543 -0.364485 0.31148 0.675928
H 9.13859 8.88115 3.46097 0.191722 -0.755655 0.042832
H 10.3081 3.13411 5.17281 -0.097629 0.547831 0.550766
H 0.13801 10.1233 4.8983 -0.170809 0.125929 1.021909
H 7.56552 5.3461 7.77887 0.16921 -0.062193 0.906253
H 8.92693 2.21753 2.37279 0.207 -0.419157 -0.12869
H 3.31992 2.7027 6.06772 -0.629424 -0.936097 -0.198002
H 3.68703 6.6686 9.73827 0.447532 -0.032434 0.089125
H 3.12096 1.68225 0.11456 0.647499 -0.710162 -0.238108
H 2.42702 8.41964 1.5926 0.918633 -0.168399 0.292707
H 5.51614 2.85124 6.68062 0.464294 -0.011253 -0.230755
H 9.81676 1.98287 4.38334 -0.253733 -0.185445 -0.451719
H 5.96719 9.44067 2.29191 -0.180441 -0.348522 0.178219
H 9.52543 2.20025 9.48547 0.525365 2.225499 0.36936
H 4.30067 5.06285 11.8453 0.231763 0.775446 0.091256
H 5.83154 6.52515 9.50856 0.127912 -0.291965 -0.255026
H 8.02286 11.285 3.73137 1.290125 -0.025469 -0.332199
H 11.906 1.08522 8.26074 -0.756143 -0.06062 -0.756729
H 3.88146 4.64608 7.55456 0.274033 -0.604194 -0.715792
H 0.13994 1.61171 11.9502 -0.253518 -0.282809 0.342208
H 4.24894 8.81621 6.77654 -2.086241 -0.458026 0.441627
H 8.54212 7.51713 3.09109 -0.56849 -0.022647 -0.159109
H 5.41689 7.04778 11.0386 -0.837445 -0.028934 -0.23852
H 11.9831 10.2367 7.23596 0.888205 -1.02628 0.331345
H 11.3256 3.44682 0.28207 0.902044 0.91043 0.866934
H 9.333 4.66908 11.7431 -1.269774 0.142498 0.37515
H 5.33226 10.5647 1.35805 -0.400175 -0.091594 0.552984
H 8.43018 6.16662 6.6583 1.135066 0.466119 -0.238889
H 6.75479 2.56443 2.36044 -0.079096 -1.094848 -0.167461
H 11.9312 12.0859 1.63958 -1.644577 -0.131164 0.437865
H 6.56445 6.91319 2.31653 0.387798 0.448305 0.29057
H 4.42755 1.39202 10.7244 1.59844 1.106262 -0.925896
H 12.2769 7.25298 10.8396 1.156477 0.015544 -0.579102
H 1.3967 8.31579 3.46505 -0.081883 0.478902 0.439511
H 2.32465 2.90543 0.08409 -0.126923 1.01561 -0.063309
H 1.95406 11.2459 6.31563 -0.058174 0.332365 0.39037
H 4.39711 12.0985 9.20298 0.172777 0.300318 -0.392166
H 3.95468 8.94262 1.41486 0.335785 0.527348 0.848001
H 3.27276 11.5436 5.65897 1.384079 -0.198063 -1.41747
H 6.19462 5.91539 0.68861 0.22819 -0.182709 -0.008234
H 0.99323 5.53063 3.00997 0.062751 0.906793 -0.121181
H 4.77946 11.525 7.82623 -0.39125 -0.117023 -0.584517
O 5.21608 11.1552 12.2722 0.294439 -0.536263 -0.268722
O 7.11207 9.33697 9.1799 -2.32528 -0.644486 -1.559123
O 5.11902 11.6665 8.70918 -0.049904 0.290155 0.83073
O 3.22812 6.74729 4.98134 0.543597 -0.353831 1.038855
O 5.17516 6.5825 12.2712 -0.563749 0.460362 0.485244
O 3.92656 9.63487 10.1802 -1.47619 -1.22965 1.340907
O 11.3982 4.56665 5.40398 1.138508 -0.069443 1.645573
O 8.38941 4.37298 11.7138 2.328935 -1.021418 -2.183178
O 10.9833 12.0132 2.07006 1.595158 0.359857 -0.553019
O 6.87849 5.38362 1.28597 -1.72909 -0.72854 0.624552
O 3.19515 5.25977 7.23629 0.320931 -0.849258 -0.709804
O 11.8306 2.15487 11.5687 -0.19489 -0.072884 0.374849
O 0.41302 9.87728 4.00997 0.109541 0.742842 -1.405325
O 10.5819 0.72816 7.0915 1.241129 -0.112955 1.507079
O 9.39292 7.91218 3.35188 0.262756 1.023042 0.074915
O 9.78744 6.8669 5.84801 1.276722 -0.876401 0.731917
O 10.971 6.41042 11.7479 -0.270807 1.325379 -0.734241
O 5.19103 10.0306 2.20269 0.678284 0.189164 -0.484211
O 11.8428 9.1256 8.49727 -0.017628 0.279984 -0.440953
O 12.3618 1.72736 8.8038 0.462412 -0.113281 1.738612
O 2.62478 2.10257 5.6689 0.458444 0.633807 0.400507
O 7.56602 1.65685 11.8872 0.246511 0.175498 -0.069214
O 2.43086 2.12941 0.63965 -0.367656 -0.248123 0.01797
O 9.68515 2.3795 5.26081 0.189861 0.113962 -0.082295
O 2.97533 2.94776 3.01775 0.251122 1.552334 -2.344814
O 11.2823 8.11118 1.47225 -0.416657 -2.632787 1.062865
O 9.40986 8.97829 7.99498 0.389034 -0.686519 -1.997084
O 9.90706 2.16762 2.5484 -1.70055 -2.756047 1.448546
O 6.95864 3.3907 5.43011 0.418001 0.057995 0.359274
O 1.44358 7.53489 2.89227 -1.839655 0.267626 -1.092738
O 2.83435 6.20225 9.62542 -1.791235 1.872577 1.707256
O 8.81967 10.6233 3.61148 -1.226671 -0.519317 0.869856
O 2.78805 11.7453 6.44434 -1.386572 -0.095129 1.097547
O 5.38575 7.288 9.89652 0.343895 0.365314 1.069505
O 9.31901 1.32986 9.24927 -0.744114 -2.007686 -0.391999
O 1.61221 10.0196 11.4319 -0.326491 -0.683849 1.854279
O 7.31199 0.89051 6.76568 0.744017 1.601586 3.388261
O 5.79023 7.06529 5.26504 -1.378386 1.052713 -0.811416
O 3.6544 4.43787 11.4811 0.03951 -2.022663 0.958621
O 7.26366 1.71132 2.11537 0.264221 1.213746 1.579805
O 0.69991 7.62923 10.347 -1.458796 -0.521567 0.77513
O 8.76905 11.3689 0.60767 -0.076891 0.215413 -0.664292
O 7.07385 4.66669 9.3259 0.570894 0.949102 0.109762
O 3.87128 0.79868 11.246 -2.762012 -1.257149 -0.40703
O 5.14944 9.04667 6.7461 1.477732 1.36939 0.27136
O 3.12107 8.74768 0.98203 -1.552366 -0.49229 -1.077537
O 12.3773 10.8242 6.56316 0.20904 -0.252902 -0.154118
O 7.71244 5.57 6.85209 -1.779384 -0.794129 -0.610419
O 4.76845 10.9041 4.68116 -0.219383 1.493995 -1.57663
O 5.7229 3.47017 3.12531 1.265695 0.686446 0.815803
O 0.90937 3.56548 7.10178 -2.407799 -0.183532 0.22327
O 7.82542 11.5443 10.4676 0.389252 1.245548 -0.206359
O 2.19162 0.33701 9.16412 -0.160467 -0.48745 -0.39986
O 9.34348 11.2464 6.37184 -0.240715 0.588031 -0.376029
O 11.7036 11.0527 10.2322 -0.984636 0.548615 -0.940949
O 7.00691 0.04066 4.08768 0.552911 -0.614278 0.390489
O 6.72512 7.71929 2.88088 -0.372378 -0.377506 -0.374311
O 5.5473 2.35168 9.97612 0.213077 -0.501904 0.302437
O 0.63046 0.10173 0.5995 -0.295027 -2.624254 -1.386185
O 11.2875 4.23029 0.91502 -0.503459 -0.642697 -0.344052
O 0.69449 4.62249 2.95733 -0.105799 -0.363809 0.443685
O 4.77964 2.92877 7.3018 -0.387461 0.291275 -0.551057
Na 9.90298 0.23048 11.1259 -0.273654 -0.519887 -0.173678
Na 6.9136 0.68887 9.01805 0.188231 0.31665 0.156497
186
energy=-1002.42489475 config_type=nep2xyz pbc="T T T" virial="-13.83484031192838 4.602430441081813 3.1334921840430474 4.602430441081813 -19.596517916534992 0.7146314766254476 3.1334921840430474 0.7146314766254476 -15.98676738429327" Lattice="12.4 0.0 0.0 0.0 12.4 0.0 0.0 0.0 12.4" volume=1906.6240000000003 Properties=species:S:1:pos:R:3:force:R:3
H 10.9723 11.3515 11.115 0.785577 -0.365001 -2.092613
H 5.74618 7.94276 1.21629 -0.148255 -0.444346 -0.699157
H 5.48738 5.41177 6.29781 -0.077954 -0.790807 0.254195
H 5.10108 9.90863 4.26485 0.623769 -0.816117 -0.670526
H 11.6233 1.89898 5.94175 -0.408269 -0.043755 0.917404
H 12.141 5.16872 3.30181 -0.258061 -0.114917 0.177721
H 1.5577 6.453 8.56113 -1.016944 -1.225825 0.722808
H 10.5376 4.87662 9.83346 -1.459571 0.30497 -1.324276
H 8.12024 4.84205 4.03986 0.505034 0.35492 1.211069
H 9.35437 11.1236 0.43122 -0.157774 0.541514 -0.083882
H 6.25809 7.52891 9.39782 -0.226494 0.990715 -0.212028
H 3.84489 4.01808 6.46425 -0.538714 0.685667 0.310338
H 12.2321 8.70386 6.99034 -1.094846 -0.421199 0.657192
H 0.26303 6.56234 3.24702 3.609194 2.216984 -0.183678
H 10.737 10.6499 0.85045 -0.744087 1.539544 -1.088549
H 3.83653 0.05137 0.2003 0.618704 0.007658 -0.45317
H 8.8669 7.75634 3.37617 0.396021 0.161007 -0.536622
H 1.89057 8.50255 0.73835 0.518907 0.006535 0.369466
H 5.18328 0.01134 2.02981 0.262342 0.925658 1.556565
H 5.23326 9.79338 9.50318 -0.057336 0.723924 -0.162309
H 9.68021 8.70358 10.0576 0.067326 -0.456381 0.855373
H 1.52864 8.44099 3.23343 1.377959 -1.189722 0.570924
H 7.75632 2.62633 3.59254 0.272657 -1.510512 1.17442
H 1.245 10.3877 2.8321 0.72624 -0.003554 -0.175013
H 6.95611 5.69568 5.52781 -0.483944 -0.233657 0.268552
H 11.0909 6.36844 1.59064 0.264131 -0.122795 -0.194869
H 7.05215 0.13784 7.96438 0.853591 -0.328163 0.559593
H 2.07299 1.38493 2.75066 -0.618152 -1.095483 0.969902
H 5.45815 3.74987 12.2166 -1.250413 -0.014877 0.699213
H 2.21989 2.50265 5.10339 0.798815 1.369539 -0.10004
H 12.2498 9.81017 2.71727 -0.28011 -0.354242 0.014202
H 8.67338 3.77017 11.6626 -0.503534 0.789337 -0.262456
H 2.33387 4.58583 11.6249 -0.242578 -1.530335 -0.381717
H 5.70626 2.12706 8.00959 -0.845041 0.79584 0.309894
H 7.0445 1.24425 6.07433 -0.395149 0.753249 0.649813
H 5.26267 7.17783 4.73481 0.10538 0.208814 -0.99116
H 10.7842 6.85794 4.31669 -0.595149 0.513281 0.949601
H 7.2652 5.69614 10.7993 -0.283106 0.585122 0.07168
H 4.95352 1.89166 2.94103 0.185965 -0.422362 -1.034264
H 2.46923 0.53164 9.40625 0.704889 -0.80167 -0.530693
H 6.03126 1.51576 11.5994 -0.387745 0.639984 -0.659924
H 6.07984 6.73603 11.2439 1.120223 -0.158515 -0.219791
H 7.36202 11.6361 2.32411 -0.121099 -0.292128 -0.687199
H 10.1193 4.13807 1.05222 -0.750339 -0.170828 -0.9417
H 3.12753 11.8446 7.03197 -0.102992 -0.418797 -0.151382
H 3.62661 10.9936 5.71159 -0.327382 0.430918 0.047638
H 10.1331 8.9433 1.83682 0.472753 -0.180503 -0.108289
H 6.73524 3.41434 2.85654 -0.663372 0.054886 -0.281717
H 4.3427 3.20697 3.49716 -0.022398 0.502429 -0.177087
H 10.7259 2.34423 0.77489 -0.213698 -0.147153 -0.248152
H 9.23526 4.37826 7.73954 -0.28367 -0.497197 -0.457783
H 11.7216 3.29797 8.97324 -1.44478 -1.878872 -1.534004
H 8.48299 7.43394 11.3958 -0.816237 -0.649544 -0.102778
H 8.78483 4.39302 6.21583 -0.138723 0.125591 -0.465261
H 1.81762 12.3257 11.2811 -0.273019 -0.029659 -0.681949
H 10.7945 1.56253 8.01441 -0.182481 1.360167 -0.707628
H 0.2487 4.30437 9.21831 0.023954 0.281582 1.191548
H 3.56493 8.21651 5.37895 0.396585 0.024682 0.08892
H 7.28661 3.47817 10.9806 0.03178 -0.042346 0.057773
H 11.6583 6.12013 0.07935 -0.60343 -0.390154 0.6696
H 4.91956 11.5569 3.76116 0.314596 0.130476 -0.514702
H 1.88414 3.98669 4.74361 -0.707876 0.251916 -0.392989
H 6.68259 0.82318 3.8419 -0.664454 -0.451674 -0.522657
H 3.17459 7.44039 7.58432 0.380787 -0.337028 -0.109651
H 6.83675 10.891 4.48692 0.420003 -0.149598 0.184323
H 9.92435 11.9907 3.21812 -0.196206 0.281621 1.775895
H 11.0877 0.90361 0.32136 -0.336088 -0.344286 0.258763
H 8.94647 6.0802 4.91078 -0.701573 -1.000247 -0.059928
H 0.4996 9.98636 5.05445 -0.049189 0.042352 0.126539
H 4.45745 11.2597 9.26272 -0.084339 -0.419074 0.490338
H 6.84236 10.2976 1.73685 -0.200942 -0.407421 -0.18821
H 9.93918 7.08091 12.0002 -0.941925 0.025058 -0.197387
H 0.50285 11.9584 10.3473 0.306644 -0.098819 0.077197
H 10.5435 3.02385 7.26087 -0.310909 -0.862223 0.256228
H 5.85983 8.08473 8.01421 0.256584 -0.224864 -1.697662
H 5.38067 7.94722 3.25068 -0.250531 -0.230435 0.513824
H 10.4766 7.65006 5.6597 0.851624 0.553188 1.887325
H 6.5372 11.6356 9.11444 0.619796 -0.46821 -0.047078
H 8.4369 10.9532 4.36814 0.082464 0.539763 0.313011
H 5.61839 2.45336 10.3427 -0.435785 -0.27291 -0.676492
H 10.9898 11.925 9.61782 -0.689199 0.666813 -0.727288
H 1.11797 3.09043 2.63825 -0.886248 0.197581 0.601894
H 9.02772 0.082 8.86318 0.698979 0.322265 -0.575998
H 11.0236 10.4765 6.1495 -0.847959 0.385452 1.546631
H 8.5078 6.77607 8.11771 -0.174041 1.461166 -0.40544
H 8.24794 0.61601 4.2774 0.174602 -0.137634 0.043117
H 3.9057 5.24817 7.55035 -1.004945 0.628053 0.138034
H 4.01042 7.28122 8.8831 0.050078 0.165304 0.13544
H 4.88069 3.71402 1.32531 -0.292028 0.592377 -1.123525
H 0.32213 6.19455 10.3642 0.659655 0.21028 0.61823
H 4.62814 3.31546 8.31279 0.366141 -0.120082 -0.437636
H 10.0084 12.0277 7.74647 0.41156 -1.225396 -1.342052
H 5.63227 11.4877 11.2338 -0.103351 1.440433 1.209873
H 7.51509 2.36378 7.04559 1.005051 0.986261 0.207718
H 2.44119 7.1702 1.3398 -0.151453 0.044693 1.214808
H 4.95555 5.8776 0.2012 -0.226506 1.151934 -0.044939
H 7.07673 8.23852 2.05221 -0.640109 0.557716 -0.241299
H 10.4337 9.96601 9.51498 0.874479 0.827753 0.702459
H 2.70959 8.92672 6.47856 0.0295 0.233368 -0.324815
H 3.10095 3.32208 12.0959 -0.342463 0.550623 -0.709591
H 8.38579 9.07926 3.59086 -0.853331 1.819894 1.002074
H 0.0485 2.61857 3.69285 -0.549646 -0.182966 0.392146
H 4.21098 7.2716 12.2287 -1.271615 0.241645 0.022792
H 11.1191 8.24786 8.15348 -0.103919 0.810649 0.019593
H 3.04895 2.32708 2.27029 1.273506 0.773512 -0.292681
H 10.6676 8.57777 0.46797 -0.18691 -0.210214 -0.630182
H 6.468 11.94 0.13317 0.550539 -0.581807 0.833767
H 7.31817 6.79109 7.21871 -0.044338 0.813186 -0.461203
H 9.9606 11.4601 5.77889 -0.243138 -0.768834 0.567698
H 11.1632 0.73924 4.85606 0.032484 1.633684 0.22012
H 2.61364 0.8432 0.81079 0.135204 -0.194134 -0.160597
H 3.90727 0.97931 8.83303 0.177211 0.884523 -0.083466
H 8.90595 4.92723 9.74363 1.550806 0.019071 -0.233745
H 0.97599 6.87824 11.7102 0.709099 0.606735 -0.117125
H 0.11571 6.70702 8.12663 -0.034939 -1.047025 0.550007
H 0.93825 1.04984 4.93861 0.286357 -0.634748 -0.390611
H 1.17837 10.5697 6.39242 -1.745377 -0.953841 -1.054909
H 2.55328 11.1669 1.03114 0.438015 -0.411081 0.092855
H 1.98996 12.32486 5.29113 0.485325 -0.284586 0.227834
H 8.80631 3.37153 1.34011 -0.351825 -0.129707 0.422251
H 2.86101 7.67466 3.8817 0.478239 0.203651 0.017889
H 3.41569 9.98127 1.69454 -0.434544 0.325199 -0.016816
O 5.16175 10.7594 9.74926 -0.019547 0.065736 -0.098282
O 7.6607 10.3905 4.64392 -0.198697 -0.248023 -0.098717
O 0.3364 10.0816 6.02243 1.959568 0.842165 0.677529
O 11.8778 6.11878 3.34369 -3.053998 -2.268632 0.028991
O 2.35715 7.67507 0.53762 -0.217187 0.058821 -1.761516
O 5.75817 8.28305 8.92203 -0.214747 -0.731629 2.242007
O 12.0798 3.68652 9.75209 1.426567 1.604561 0.569432
O 10.9626 8.99041 1.2817 -0.553947 0.778951 1.183191
O 11.6239 1.63986 5.01359 0.246512 -1.689754 -1.37224
O 7.68448 3.35462 2.98984 0.38161 1.716741 -1.125512
O 3.10363 8.0817 6.2223 -0.34654 0.566756 -0.213989
O 2.37206 3.59531 11.4827 0.463098 1.019512 0.954259
O 10.1739 10.8532 6.57575 0.836976 0.451984 -2.331086
O 11.4624 1.77331 0.48677 0.781549 -0.172311 -0.180199
O 0.44613 3.40908 3.30605 0.586187 0.820685 -0.859871
O 2.58983 3.44638 5.08578 0.679804 -1.866634 0.572796
O 10.8467 6.05491 0.69933 0.572871 -0.03469 -0.759414
O 5.71876 12.194 11.9936 -0.954856 -0.72271 -1.948473
O 10.0662 7.30205 4.89246 -0.293068 -1.537685 -2.708294
O 9.99913 9.15343 9.26903 -0.874292 -0.806029 -1.469556
O 4.37136 4.53123 7.11865 0.560137 -1.044765 -0.483218
O 9.49727 3.45597 0.66476 0.899183 0.753213 0.993319
O 4.74939 4.15523 0.41622 1.233505 0.002252 0.356091
O 9.93853 0.23745 8.47363 -0.94647 1.002561 1.993107
O 4.74754 2.88837 2.66763 -0.190266 -0.550596 1.608745
O 7.27822 11.1286 1.48803 0.644467 0.602389 0.573116
O 11.2219 2.38953 7.60672 0.103677 -0.394444 0.103012
O 7.3823 1.09977 4.45912 0.814461 0.305686 0.505777
O 8.93176 3.8049 6.97436 0.543727 0.014032 1.407001
O 0.51075 6.12539 11.349 -0.995876 -0.755881 -0.191008
O 3.23968 6.92165 8.42048 -0.152655 -0.540095 0.26756
O 6.16272 8.57621 1.81656 0.875037 0.025205 1.028727
O 1.82092 0.65372 4.67661 -1.098376 1.449927 -0.368556
O 5.06473 6.8887 0.0007 0.722206 -1.842878 0.50272
O 6.8809 1.65434 7.00027 -0.3157 -1.675425 -1.046993
O 0.61378 9.82463 3.30946 -0.458875 0.1239 0.14861
O 4.68294 10.7512 4.33324 -1.259997 0.674137 1.465018
O 6.16604 6.04763 6.03687 0.347196 1.676663 -0.317433
O 0.63447 6.02207 8.67938 0.964711 2.270183 -1.206609
O 9.69721 12.1301 4.1876 -0.14326 -0.31593 -1.412973
O 9.75389 5.1881 9.25189 -0.166352 -0.449703 1.197045
O 10.2632 11.477 0.39301 0.938057 -2.142321 0.854261
O 6.92649 6.628 10.6829 -0.417357 -0.19396 0.039794
O 3.25626 0.26843 8.83248 -0.199493 -0.438143 -0.176617
O 8.62218 8.54524 2.84354 0.615204 -1.893701 -0.545561
O 2.51217 10.3024 1.52591 -0.120038 0.021066 0.023643
O 11.6025 8.00317 7.345 0.995527 -0.411152 -0.854391
O 7.97113 7.44459 7.59424 0.577822 -2.178108 0.574955
O 2.85127 11.2315 6.30614 0.401799 -0.167164 0.374938
O 4.78 7.62608 3.97949 0.287767 -0.00207 1.021919
O 9.35465 7.77862 11.5941 1.474708 0.545558 0.280449
O 7.37497 11.8349 8.61108 -1.096082 0.632414 -0.604587
O 1.3158 0.11552 10.4431 -0.378592 0.525817 0.881664
O 8.28001 5.28647 4.93654 0.834361 0.702536 -1.618767
O 11.385 11.2248 10.1479 -0.257224 -0.12903 3.287929
O 5.23935 0.40325 2.95339 0.030286 -0.560173 -1.141473
O 2.87126 0.10661 0.18493 -0.506733 0.474957 0.525261
O 7.98905 4.16606 11.0443 0.252592 -0.43197 0.042213
O 5.95774 2.45463 11.254 0.737986 -0.621659 0.637342
O 2.20451 1.96005 1.99929 -0.194489 -0.137255 -0.694157
O 2.12658 7.60507 3.27829 -2.243729 0.515117 -1.075627
O 5.01529 2.48613 8.65574 0.621755 -1.08398 0.464679
Na 0.53672 2.31962 11.3091 0.125616 0.147042 -0.129276
Na 8.40136 9.83732 7.73901 0.065328 -0.334522 -0.206437
