200
energy=-1088.36989513 config_type=nep2xyz pbc="T T T" virial="-14.31473 -2.87046 -3.05262 -2.87046 -10.47362 -0.31903 -3.05262 -0.31903 -13.5045" Lattice="12.865844727 0.0 0.0 0.0 12.865844727 0.0 0.0 0.0 12.865844727" volume=2129.6827699647333 Properties=species:S:1:pos:R:3:force:R:3
H 10.58396 4.92512 12.27736 0.017871 0.945531 0.770986
H 9.84331 6.23367 12.25306 -1.099877 0.41814 -0.091298
H 5.99751 0.67175 1.71858 0.420196 0.777921 1.582512
H 5.90045 0.67572 3.27292 -0.30758 -0.118537 0.05959
H 3.08043 9.72221 5.1696 -1.739465 1.477214 -0.66403
H 4.06036 9.48283 6.39184 -0.256525 -0.252507 -1.143961
H 8.69366 5.02997 4.66601 0.782526 -0.61206 -1.172567
H 9.82949 4.95167 3.52514 -0.777137 -0.281875 0.438175
H 7.56935 4.15353 2.7742 0.254307 -0.398819 -0.192973
H 6.8145 2.76407 2.35145 1.653086 1.873072 -0.817688
H 7.7969 4.189 7.68062 -0.071306 0.223107 -0.500178
H 7.95574 5.5239 8.45694 0.440742 1.860882 -0.480074
H 11.71516 10.67096 7.12727 0.321605 1.187743 0.483122
H 12.36776 9.45136 6.43134 1.934952 -1.008111 -0.241859
H 9.90487 9.24794 6.19116 1.341747 0.473347 0.246399
H 8.56175 9.18157 5.47527 0.601039 -0.290598 0.980672
H 6.42093 1.3277 11.75986 -0.629997 -0.276686 -0.361671
H 7.54937 1.24512 12.75586 0.428735 0.383908 -0.165561
H 8.74606 7.53178 2.51819 -1.501896 -0.425445 -2.117761
H 8.88439 8.59684 3.58298 -0.476597 1.343168 -0.029227
H 3.71659 5.04061 0.44628 0.698925 0.89724 -0.185762
H 2.97843 3.87296 12.78036 -0.180741 -1.717079 -2.065496
H 8.95272 7.44495 10.57486 -0.510732 1.505415 0.243852
H 9.42165 6.14104 10.29206 0.141256 -0.937691 -0.424691
H 1.38864 7.07041 6.34246 1.569181 -1.667516 -1.210161
H 12.68746 6.97177 6.70956 1.066542 -0.345054 -0.194174
H 7.68373 10.53556 8.76521 -1.692494 0.121198 0.784615
H 8.51118 9.91347 7.72341 0.466731 -0.784897 -1.281309
H 2.78318 9.38127 9.97592 0.222496 0.963231 0.11139
H 3.71627 10.34466 9.25999 -0.815792 0.103998 1.11961
H 11.27096 2.34082 6.19824 1.456807 0.431021 0.709125
H 12.48276 1.99765 7.19339 -0.074004 -0.363677 0.412839
H 6.28841 2.14991 8.59024 0.160859 -0.350283 -0.053774
H 4.78208 1.93472 8.87026 1.552789 0.156381 0.898852
H 11.64366 12.12526 4.11399 -0.904962 -0.043676 -0.332968
H 12.45056 12.32186 5.398 0.126355 -0.250076 -0.114702
H 9.52377 11.95866 11.59996 0.048658 -0.015664 0.563811
H 9.27863 0.33022 10.86956 -0.400977 0.884135 -0.58471
H 7.16723 11.31486 12.83716 -1.219555 0.593635 -0.131748
H 7.85683 9.96879 0.05979 0.132935 1.02006 0.255757
H 9.6548 9.4918 9.95993 -0.887965 1.478566 -1.428661
H 9.16815 9.59335 11.52016 -1.320805 1.294164 0.289263
H 5.3075 6.42038 6.69231 0.297487 1.153481 0.583065
H 5.76528 7.86147 7.36969 -0.514765 0.856179 -0.47259
H 12.69366 0.55301 10.58246 -1.450485 1.547512 2.277561
H 1.14303 0.37379 9.90787 -0.268082 -0.130575 -0.56796
H 0.15388 2.31712 1.43684 -0.377169 0.374186 -0.231887
H 12.71296 2.69635 2.81546 -1.234851 0.033443 -0.704786
H 12.70596 2.81912 11.41966 0.451899 -1.484367 0.984115
H 1.02003 1.84547 11.63816 -0.415923 0.567449 -0.062329
H 5.67897 10.11726 1.21326 0.163061 1.191538 0.317501
H 4.44406 10.74416 0.75132 -1.241465 0.237181 -0.41321
H 8.96446 12.55156 0.99638 -0.039603 -2.647417 -1.670193
H 8.28238 0.48518 2.03675 0.977726 0.59044 -0.579431
H 3.42546 12.30076 6.0669 -0.142925 -0.160444 -0.0956
H 2.50637 0.52499 6.60176 -0.117992 -0.486425 -0.069635
H 10.39876 12.19986 2.48852 -0.454337 0.081869 1.994187
H 9.83769 0.35283 3.6084 0.490918 -1.637475 0.425682
H 9.78389 2.50096 4.06179 -0.18722 -0.504094 1.485653
H 8.83874 2.0692 5.24126 1.253962 -0.478392 -0.511972
H 7.71314 6.58014 6.39649 -0.844888 -0.324176 -0.078799
H 9.02167 7.30762 6.38826 -0.160917 -0.341171 -0.018104
H 1.452 2.73892 4.35971 0.770986 0.231226 -1.176138
H 0.59284 2.28791 5.34749 -1.248134 -0.634946 0.169348
H 0.35152 6.35759 2.76855 0.137099 0.029448 -0.208018
H 1.91051 6.48834 3.08035 -1.220402 0.873069 -0.751664
H 2.0176 7.49885 8.30461 -0.428919 0.058077 -0.4246
H 3.07211 6.61701 9.04686 -0.357871 0.742569 0.307379
H 5.37796 11.41636 9.87306 0.047016 -0.480842 -0.051409
H 5.69479 0.0187 9.88168 0.362637 0.518681 -0.061965
H 0.86683 8.83563 4.36095 -0.454225 -1.424801 1.031535
H 0.45815 10.40776 4.27989 -0.311954 -0.485006 0.348753
H 1.24269 10.69006 2.0538 -0.386162 0.978861 -0.375451
H 1.57076 11.48596 0.80215 1.392279 -0.256623 -1.596318
H 3.8019 3.68759 3.95734 0.158878 -0.412064 0.971951
H 3.37123 4.16718 2.62341 -0.158533 0.554995 -1.541192
H 12.45076 6.29658 10.58696 0.912783 0.953544 -0.06643
H 0.92155 7.07246 10.29516 1.057236 0.012035 -1.03091
H 5.61267 6.03203 4.50689 -1.399415 1.288248 -0.786438
H 5.79079 4.71766 5.1794 -1.029017 -1.345204 0.660099
H 5.46178 2.72262 5.81248 -0.139175 0.034956 -0.305349
H 4.17769 3.16375 6.42286 -1.442951 -0.107743 1.436389
H 0.24607 10.60186 12.25106 -0.102569 -0.087505 -0.216563
H 12.80306 11.12616 10.84776 0.321254 0.632847 -0.86314
H 11.39676 5.72923 8.37987 0.404599 -0.555645 0.859938
H 11.47026 4.6763 9.57182 -0.324037 -2.422812 -0.03087
H 11.83306 12.65306 8.40333 0.382566 -0.072982 -0.05101
H 10.52856 12.38676 7.6388 0.678578 0.110774 -0.199059
H 3.41446 10.16896 11.99926 -0.10587 -0.396401 -0.98171
H 2.87576 9.2648 0.3912 -0.095038 0.676178 -0.702519
H 8.72233 12.54846 8.71603 0.072339 -0.77836 0.329368
H 8.50807 0.9722 8.0354 -0.310881 0.593924 -0.199117
H 11.68206 4.43217 7.00082 0.350268 1.433636 -0.615318
H 10.63466 5.5042 6.56828 0.079332 0.240286 -0.198665
H 8.93007 3.6551 12.15426 1.493433 -0.112503 0.257693
H 10.08476 3.14722 11.16446 -0.720594 0.785158 1.250887
H 2.03926 1.58846 0.8222 0.114686 -0.411578 2.902677
H 2.46722 2.13219 2.25638 0.290959 0.637638 0.100185
H 11.60086 4.35711 1.93045 0.170153 1.725876 0.298415
H 11.13246 5.7953 1.4581 -0.260551 0.077326 -0.749909
H 7.35546 5.74173 12.71216 0.014594 -1.863404 -0.819763
H 7.28467 4.26211 0.48523 0.010619 0.656311 -1.219583
H 4.91252 7.47202 2.3981 -0.116274 0.088419 0.101413
H 4.1166 8.17116 3.52499 0.135308 1.661597 1.055055
H 5.28472 6.33024 9.04868 -0.649373 -0.482245 0.482765
H 4.66989 6.35164 10.51456 -0.018464 0.837574 1.141752
H 6.38006 10.83096 6.17321 -0.772932 -1.30372 1.152459
H 6.72077 12.32546 6.21374 0.120279 -0.059898 -0.22239
H 12.20496 11.67386 1.39563 -1.667975 0.041466 -0.779168
H 11.19136 11.56046 0.13928 0.189831 0.078717 1.145691
H 12.31836 8.61855 2.02079 0.856134 -0.008163 0.691889
H 10.81326 8.35595 1.92466 0.734689 0.367716 -0.399962
H 3.56485 7.29401 12.83098 0.368522 -0.032918 -0.085262
H 5.13345 7.70533 12.83886 -0.637795 -1.168623 -0.477987
H 9.17709 3.65606 9.24874 -0.458132 0.41402 -0.122649
H 9.83368 2.25681 9.39258 -0.273121 -0.839331 -0.402143
H 1.56989 7.33487 1.17361 0.093974 0.201963 0.516267
H 1.43563 7.89722 12.59416 -0.824658 -0.356043 -1.229982
H 3.04069 2.68817 10.11346 -1.66823 -0.975315 2.264766
H 3.25794 1.66953 11.35416 0.030011 0.390516 -0.015684
H 5.27858 11.95326 4.38876 0.140352 -0.232464 0.756928
H 4.79161 11.42056 3.06127 -0.514538 0.67601 0.253822
H 9.25208 11.01686 3.47842 0.265859 0.116182 0.147795
H 8.086 11.05146 4.43595 0.076293 -0.897021 -0.580131
H 3.40337 0.04639 12.57196 -0.407498 -0.231725 0.858817
H 4.39695 12.72086 11.48916 0.886946 0.282988 0.066173
H 3.38639 7.40232 5.38812 -0.365091 -1.918223 0.026047
H 2.78381 5.89624 4.87954 0.689452 0.732966 0.332897
O 10.67636 5.90248 12.57846 0.624534 -0.857582 -0.617822
O 6.35504 1.12614 2.54788 -0.368389 -0.970609 -1.765394
O 3.75449 9.16593 5.47824 1.630397 -1.674457 1.18768
O 9.08784 4.44064 3.94804 0.23165 1.430747 0.789723
O 7.43384 3.54127 2.02185 -1.825428 -1.481829 0.560849
O 7.7637 4.61256 8.54062 -0.458683 -2.496457 1.136824
O 11.56776 9.87219 6.63791 -2.343563 -0.605038 -0.341821
O 9.02661 8.88333 6.31288 -1.525165 0.721773 -1.255601
O 7.256 1.73633 11.96826 0.32982 -0.021354 0.432061
O 9.1662 7.7326 3.31548 2.047047 -0.721034 1.643233
O 2.97246 4.47231 0.6178 -0.334807 0.979316 2.114228
O 8.58772 6.56291 10.53376 0.543377 -0.570539 -0.165536
O 0.65838 7.48488 6.73217 -2.25213 1.974265 1.239585
O 8.57478 10.49696 8.47555 1.341716 0.837216 0.64284
O 3.09326 10.32766 10.06146 0.542555 -1.351312 -1.098175
O 12.09836 2.70764 6.677 -1.665229 -0.125714 -1.137394
O 5.70062 1.99743 9.35632 -2.139959 -0.027082 -1.09664
O 12.53726 12.00916 4.4811 1.29442 0.088333 0.606707
O 9.81268 0.01999 11.59786 0.478934 -0.589871 -0.047752
O 8.04386 10.96226 12.80236 1.116877 -1.767528 -0.043058
O 9.66438 9.18422 10.84136 2.081851 -2.756599 1.078882
O 5.75168 6.91051 7.42881 0.182078 -1.978224 0.082785
O 0.20519 0.10978 9.87117 1.534543 -1.631357 -2.012166
O 12.26476 2.73259 1.90626 1.487069 -0.778512 1.254966
O 0.06713 1.9623 11.90356 -0.022076 1.351515 -0.839412
O 5.2414 11.01786 1.22173 1.704261 -1.390036 0.585266
O 9.07702 0.49255 1.42751 -1.743355 2.645132 1.771492
O 2.48592 12.53286 6.10372 0.169747 0.456508 -0.220955
O 10.14706 12.25566 3.50777 1.059478 2.016823 -2.232856
O 9.74021 1.85543 4.8341 -0.818599 1.042285 -0.829776
O 8.64766 6.38959 6.4671 0.987427 -0.276227 0.147438
O 0.76133 2.0653 4.41131 0.680846 0.668196 0.524988
O 1.11073 6.98698 2.73351 0.755864 -1.382419 0.790593
O 2.44375 7.37793 9.15725 0.515851 -0.58208 0.350885
O 5.72024 12.10526 10.45726 -0.346592 0.057427 -0.143485
O 0.94042 9.63976 3.89749 0.630367 2.307388 -1.59604
O 1.08064 11.56906 1.59179 -0.886471 -1.349561 2.472873
O 3.01361 3.77487 3.40735 -0.278397 -0.375197 0.630454
O 0.2315 6.98892 10.93996 -1.438495 -0.638193 0.92125
O 6.26588 5.4286 4.78788 2.172874 0.090947 0.02098
O 4.66235 3.26567 5.62453 1.504415 0.067862 -1.350779
O 12.45256 10.57306 11.53966 -0.204976 -0.708193 1.137741
O 11.45786 5.57988 9.38133 -0.298259 2.843382 -0.162232
O 11.50546 12.36856 7.53115 -0.769954 0.230034 0.32272
O 3.11087 10.18236 0.04386 -0.463167 0.073936 1.048737
O 8.91841 0.61822 8.84255 0.239849 -0.064056 -0.19859
O 11.57396 5.4381 6.83239 -0.8109 -1.644186 0.181773
O 9.92653 3.41947 12.15036 -0.807234 -0.435561 -1.283526
O 1.99687 1.39667 1.83987 -0.101029 0.280889 -2.966651
O 11.53036 5.33215 2.19923 0.370905 -1.570952 0.833994
O 7.35049 4.75233 12.43836 -0.197106 0.793346 1.916117
O 4.16783 7.39157 3.01434 0.171416 -1.758464 -1.252515
O 4.76673 5.81089 9.74023 0.617403 -0.343649 -1.493356
O 6.68209 11.53916 5.63601 0.686513 1.713357 -1.318928
O 11.22536 11.78856 1.10504 1.919382 0.05664 -0.477439
O 11.60386 8.65802 1.39889 -1.601964 -0.493814 -0.327793
O 4.46175 7.0183 12.53336 0.175629 0.596389 0.206091
O 9.95888 3.18487 9.57985 0.826659 0.082167 0.146522
O 1.99731 7.89924 0.48595 0.646854 0.074307 0.576249
O 2.6476 2.39796 11.05566 1.355688 0.475688 -1.952289
O 4.49707 12.00276 3.81717 0.347055 -0.440916 -1.072074
O 8.54357 10.43336 3.80116 -1.435728 -0.32637 1.091132
O 4.15117 0.50626 12.19666 -0.229344 -0.312914 -0.729055
O 3.28338 6.38583 5.56736 -0.283964 1.393083 0.05518
Na 11.54976 8.2117 11.83526 -0.124304 0.224222 0.367657
Na 10.93756 1.62297 0.36522 -0.607015 -0.327025 0.117357
Na 6.0594 4.02227 10.37916 0.532177 0.356762 0.293831
Na 1.77104 12.80776 3.66483 -0.048711 0.031346 0.343827
Cl 5.26394 10.02086 7.80839 0.192997 0.091826 0.593379
Cl 2.73692 2.11764 7.89228 0.299603 0.228429 0.381743
Cl 7.12751 1.66729 6.50896 0.109909 0.153419 0.214544
Cl 7.16007 8.02924 0.41281 0.19503 0.296691 0.278414
200
energy=-1088.68226005 config_type=nep2xyz pbc="T T T" virial="-18.77118 9.91502 2.68578 9.91502 -28.17399 2.25559 2.68578 2.25559 -13.23749" Lattice="12.84683609 0.0 0.0 0.0 12.84683609 0.0 0.0 0.0 12.84683609" volume=2120.2572126794894 Properties=species:S:1:pos:R:3:force:R:3
H 0.62707 11.17536 5.94315 -0.065273 0.281522 0.747276
H 0.12121 10.12286 4.91554 -0.214362 0.303181 0.256551
H 12.52176 1.81497 11.90716 0.301697 -0.037259 0.078904
H 12.71246 2.21854 0.59485 -0.055845 0.229135 -0.485819
H 2.79287 0.92783 4.29585 0.419076 -0.803066 1.161748
H 3.71458 0.21145 5.4176 -0.785571 0.347444 -0.187124
H 11.49136 8.698 6.61577 -0.15418 0.554227 -0.27303
H 12.57156 8.56626 7.71938 0.149526 0.0768 0.107701
H 10.57926 9.10044 12.39166 -0.211395 0.213593 0.257454
H 9.70162 10.32226 12.02956 0.096452 -0.646116 0.557669
H 5.64223 11.60366 3.11003 0.343782 0.024047 -1.450577
H 5.40247 11.86176 4.49032 -0.471395 -0.581855 0.220772
H 5.17788 0.30125 7.25835 -0.431042 0.988071 0.451554
H 5.88595 12.07826 6.4499 -1.985194 0.269437 0.375188
H 10.13046 11.50556 8.44592 -0.905283 0.275101 -0.176784
H 11.20726 10.39366 8.3076 0.003473 0.674246 -0.009424
H 5.45367 0.30733 11.59216 1.493269 0.852909 1.373273
H 6.06672 1.68664 12.11316 0.457389 0.526737 -0.033247
H 5.11506 6.68264 11.86286 -1.24699 -1.432724 0.309512
H 5.19623 8.21523 11.67356 0.102407 -0.697966 0.12064
H 4.30679 11.69476 10.19156 0.466158 -0.461124 -0.733658
H 2.81862 12.08576 10.23016 -0.650616 -0.21318 -0.287324
H 1.83384 6.22219 4.96383 -0.059669 -0.002416 0.567319
H 1.35691 6.81347 6.32095 -0.134329 1.574107 0.936008
H 10.74826 6.98803 7.37232 1.036097 -1.382699 -0.655159
H 10.21436 5.60808 7.49205 -0.831564 -1.237273 0.497224
H 11.60886 1.79397 4.35896 -0.122586 1.458223 0.602034
H 10.52456 1.46256 5.30912 0.553508 2.430508 -0.084454
H 3.5624 4.53511 9.25776 1.313633 -2.264637 1.048265
H 3.23881 3.12344 9.8967 -0.916323 -0.578918 0.275273
H 3.72126 10.01896 10.99666 -0.021568 -0.327732 0.687698
H 3.85727 10.02976 12.51556 -0.468019 0.744941 0.978194
H 7.29856 7.25869 5.99811 -0.443641 -0.500574 0.435841
H 7.73697 6.41711 7.17522 0.177158 -0.123159 1.196729
H 2.02976 3.07662 5.43119 -0.319781 -0.373676 0.441615
H 1.52084 1.68784 6.00226 -0.074059 0.847419 -0.364703
H 0.46888 1.62619 2.53049 0.480256 -1.975172 0.925325
H 1.50284 2.82396 2.50177 0.908687 -0.243465 -0.283878
H 5.22722 9.68545 9.138 0.070741 1.069161 -0.710672
H 5.42484 11.18546 8.39297 -0.240817 -0.40765 -0.882091
H 8.52579 10.05116 2.1165 -0.011549 -0.305126 -0.384546
H 8.25931 10.72826 3.54869 0.612972 0.262484 -1.471765
H 9.99396 11.72686 1.84161 0.841541 -0.475357 0.020237
H 10.98046 12.25646 0.769 -0.050787 0.223455 -0.48981
H 12.8308 8.19541 1.26921 0.084567 -0.819293 -0.347223
H 12.22086 9.50387 1.53538 -0.779469 0.055318 0.028543
H 1.85052 8.22072 12.82916 -0.708974 -1.498856 0.874244
H 2.08829 7.23298 1.17614 0.102222 -0.168055 0.331482
H 6.7546 10.89006 10.69716 -0.705886 -0.181733 -0.923761
H 7.79089 11.71596 11.42856 0.460697 0.212369 -0.147917
H 11.29886 11.96566 10.52746 -0.032975 -0.199115 -0.240881
H 10.62476 0.15439 11.43616 0.815408 -0.789812 -0.197668
H 7.42679 11.95546 1.99506 0.539392 -0.591862 -0.368447
H 6.453 0.02029 1.01824 0.557435 -0.298054 0.424517
H 0.25343 12.10106 3.99033 0.576294 -0.004898 0.554864
H 12.42546 12.56236 2.75449 -1.2122 -0.337988 -1.155979
H 8.57916 0.88976 4.77866 0.134504 -0.69521 0.011203
H 8.31614 0.97762 6.18438 0.4235 -0.286218 0.835317
H 8.37634 4.2183 8.69843 1.507388 -0.467337 -0.293423
H 9.8772 3.88815 9.14275 -0.383496 -0.259793 -0.010379
H 2.98873 5.67705 7.27016 0.235807 -0.76552 -0.442629
H 2.5065 6.64007 8.27416 0.525756 -0.405919 0.626281
H 7.17445 3.64708 6.7931 0.836617 1.4562 1.262894
H 6.1628 3.40096 5.7241 0.228134 -0.110957 0.040749
H 5.17994 8.9433 5.93148 1.652459 -0.419132 0.193333
H 6.004 8.82913 7.29508 0.517057 -0.284525 -1.008811
H 1.03632 5.72185 11.90796 -0.690291 0.008788 0.124623
H 2.43106 5.60198 11.66026 1.756478 0.399842 0.281666
H 7.63678 2.61227 3.58169 0.884722 1.045908 -0.52348
H 7.19827 1.22935 2.89216 -0.04802 0.46609 0.471593
H 0.00714 11.41906 12.17956 -0.279059 0.211113 -0.21045
H 12.59286 11.20766 0.83267 0.843821 -0.05997 -0.987834
H 3.60819 8.09921 4.79831 0.226219 -0.697539 -0.941669
H 3.30734 8.61438 6.17107 -1.781239 -0.195996 2.328579
H 10.21346 9.78234 4.765 1.479503 -0.464838 0.532298
H 11.04356 8.50265 4.40581 0.002112 1.0976 0.650573
H 3.21299 2.63987 0.81865 0.226811 1.373118 1.250554
H 3.5138 4.05491 0.4703 0.538539 1.485757 -0.758299
H 6.35308 10.35336 0.02372 0.112331 -1.105492 0.718851
H 5.5331 9.44197 1.08186 -0.05281 0.216975 -0.15047
H 10.53436 4.90205 10.51086 0.579175 -0.985787 -0.41277
H 10.61996 3.53727 11.25386 0.707792 0.367457 -1.884197
H 1.09896 3.51455 10.42656 0.881004 -2.253366 -0.231762
H 0.96966 2.48915 9.22007 0.484733 0.134469 2.106851
H 8.83102 2.54341 0.56515 1.134681 -1.595947 1.493209
H 10.33696 2.00613 0.71786 -1.218536 -0.31907 0.536859
H 4.99042 7.15812 8.56556 -0.226031 0.436009 -0.050968
H 5.81722 7.63714 9.72907 0.293725 -0.236859 1.008736
H 4.86667 2.47805 8.17387 0.117021 -0.200069 0.545345
H 6.07026 2.17867 7.2543 -0.040701 0.193173 -0.534118
H 9.67066 3.34799 2.38126 -0.277378 -0.286297 0.136232
H 9.75856 3.29961 3.9239 0.721423 -0.319375 0.223785
H 0.80772 12.60816 8.11809 1.090691 -0.351449 0.811452
H 12.25506 12.45406 7.85531 -2.177498 -1.324436 0.632889
H 0.50392 10.74096 9.8539 1.008902 -0.02784 -0.460227
H 1.6829 10.44156 8.86619 -0.197276 -0.447308 -0.022366
H 6.47701 8.80707 4.14836 -0.766825 -0.699398 -1.203141
H 6.48805 8.31191 2.60694 -0.216196 0.065832 1.042203
H 7.58296 5.63361 10.01286 0.229969 0.263578 0.120086
H 6.60475 4.44343 10.03526 0.380918 0.97689 -0.725576
H 8.40314 0.75241 11.78756 0.386031 -0.260997 -0.201625
H 8.4283 0.6629 10.27136 0.343365 -0.412368 -0.267039
H 7.83749 10.24226 5.69335 -2.24637 -1.726865 1.576681
H 8.66212 11.47476 5.48467 0.103662 -0.526287 -0.854613
H 12.11746 8.20311 10.49766 0.378027 0.919107 0.209257
H 11.37276 9.24859 9.76687 0.558587 0.180766 0.590473
H 4.05339 4.66723 11.21476 0.519743 -1.090391 -1.308411
H 5.32186 4.80305 12.22166 -1.027287 -0.468172 -0.617874
H 8.49825 1.95286 8.75875 0.813473 0.686986 -0.387168
H 7.10253 1.47714 8.44308 0.91826 -0.856339 0.485436
H 8.92625 6.3179 1.7493 -1.135575 0.296689 -0.571839
H 7.55119 5.84634 1.11897 -0.052323 -0.739666 -0.315681
H 0.17973 5.28097 4.47354 0.150497 0.378012 0.226243
H 0.18317 4.05677 3.48154 -1.816829 1.157884 1.066529
H 4.52807 0.92437 0.4056 0.954206 0.112002 -0.405808
H 3.26608 0.59765 12.33896 0.910693 -0.156728 1.162557
H 3.29813 11.71166 1.25885 0.241203 0.733512 -0.260591
H 2.03819 11.05026 0.65633 0.446906 -0.282175 0.591623
H 5.75771 4.77761 2.77283 -0.2215 -0.178558 -0.364556
H 5.91361 6.11791 3.47508 -0.335542 0.756272 -0.027852
H 11.11816 6.53767 3.36888 1.138527 -2.026554 0.601779
H 11.00556 7.80357 2.65316 -0.971031 -0.259259 0.008011
H 12.18466 1.88417 8.14888 0.524774 0.291255 -0.061189
H 11.85466 3.12526 9.0651 0.769024 -0.161064 -0.629907
H 5.28885 2.3838 3.49639 0.474577 -0.297936 -0.153634
H 4.06709 2.93153 2.68248 -0.355767 1.109389 -1.771788
H 4.20549 3.46665 4.84457 -0.037265 -0.156061 0.014723
H 4.56847 4.92889 4.94511 -0.349278 -1.405115 1.419125
O 0.71179 10.89126 5.03657 0.229802 -0.699602 -0.889332
O 12.07426 2.13064 12.70316 -0.421285 0.07251 0.569658
O 2.78772 0.31047 5.08082 0.552574 0.249236 -0.933407
O 11.61886 8.76297 7.57684 -0.618757 0.039267 0.286719
O 9.75744 9.56043 12.64956 0.304662 0.669888 -0.701685
O 5.18932 11.16526 3.83648 0.143286 0.939598 1.006114
O 4.94835 12.36646 6.72428 2.53972 -1.276032 -0.88541
O 11.02016 11.30046 8.70298 0.853593 -1.025558 -0.165537
O 6.14253 0.72102 12.23346 -1.725926 -1.339853 -1.511617
O 5.70791 7.36218 11.60196 1.331037 2.376897 -0.538385
O 3.62128 12.05816 10.75686 0.12526 0.844911 1.003956
O 1.28813 6.04343 5.78815 0.266008 -1.571063 -1.603336
O 10.91306 6.04789 7.02586 -0.100651 2.107701 0.215977
O 11.02866 2.32351 4.98582 -0.597063 -3.993549 -0.284628
O 4.00784 3.68639 9.77564 -0.85076 2.948583 -1.966018
O 3.92793 9.44665 11.76756 0.102708 -0.586439 -1.436302
O 7.55936 6.33748 6.25086 -0.002869 0.732444 -1.600739
O 1.24986 2.61576 5.79918 0.650859 -0.421617 -0.088766
O 0.59622 2.54709 2.43164 -1.019323 2.282952 -0.781302
O 5.30962 10.68876 9.20085 0.180373 -0.831014 1.520996
O 8.48628 10.90416 2.55112 -0.143025 -0.035332 1.611489
O 10.94526 11.70196 1.55157 -0.441977 0.472057 0.632223
O 11.94786 8.5778 1.45024 0.500279 0.295819 0.425233
O 1.44158 7.43645 0.48044 0.700516 1.742236 -0.992475
O 7.41605 10.82236 11.37976 0.026103 -0.259076 0.739641
O 11.42466 12.40266 11.38246 -0.640521 0.728151 0.14426
O 6.73299 12.62986 1.93439 -1.355044 1.147707 -0.078529
O 0.30381 12.80206 3.31028 0.312248 0.50848 0.236917
O 8.89529 0.4381 5.61136 -0.778163 0.933989 -0.842241
O 9.25299 3.78447 8.38516 -1.969614 0.607468 -0.114829
O 3.1201 5.85959 8.20714 -0.411192 0.940953 0.04697
O 6.97403 3.00489 6.14477 -1.03781 -0.816052 -1.187527
O 6.18085 8.88893 6.31483 -1.041509 0.652107 0.619301
O 1.63611 5.19402 11.37486 -1.289444 -0.357753 -0.353992
O 7.16405 1.80316 3.71109 -0.783522 -1.726128 -0.24246
O 0.42955 11.06126 0.12171 -0.398693 -0.065835 1.299578
O 3.84236 8.79212 5.43512 0.817832 1.204576 -1.660773
O 11.13266 9.38081 4.90314 -1.446619 -0.889266 -1.031005
O 3.35026 3.55311 1.26547 -0.835813 -3.162629 -0.321384
O 6.38469 9.56712 0.6462 0.164561 0.783764 -0.264992
O 10.84886 3.92888 10.34306 -0.790702 1.151856 2.878938
O 1.35016 2.53718 10.18556 -0.727399 2.173437 -1.075656
O 9.42719 1.91472 1.16286 0.211072 2.008111 -2.520125
O 5.41602 7.96504 8.9195 -0.227143 -0.108133 -0.862305
O 5.53146 1.78417 7.98188 -0.322701 0.176531 -0.059525
O 9.33505 3.76769 3.19482 -0.616962 0.786836 0.125718
O 0.13212 0.10416 7.54689 0.934857 1.488751 -1.398689
O 1.31941 11.13056 9.4456 -0.722676 0.548085 0.494791
O 6.00529 8.24749 3.46709 1.214314 0.331105 0.108449
O 6.97066 5.15307 9.42924 -0.358836 -1.238182 0.510655
O 8.87035 0.2708 11.06686 -0.998049 1.009746 0.546603
O 8.4788 10.55566 5.10715 1.918264 2.294924 -0.540994
O 12.12286 9.18878 10.40296 -1.065673 -1.137381 -0.493983
O 4.35776 5.01245 12.04986 0.680365 1.203485 2.048258
O 8.04849 1.12918 8.53414 -1.402317 0.192316 0.209722
O 8.0074 6.59744 1.49074 1.412395 0.694515 0.647381
O 12.41496 4.68187 4.02543 1.271736 -1.1817 -1.17691
O 3.61751 0.66116 0.42527 -2.204903 0.095783 -0.460336
O 2.86715 10.85816 1.19409 -0.563011 -0.420703 -0.119898
O 6.19367 5.19919 3.5127 0.621611 -0.236199 0.451036
O 10.45786 7.19699 3.27322 0.009069 1.886892 -0.928256
O 12.46326 2.80862 8.33517 -1.581372 -0.130696 0.195654
O 4.32609 2.45393 3.45169 -0.006526 -1.157636 1.967416
O 4.37569 4.12765 5.55445 0.479654 1.427195 -1.295985
Na 7.99444 8.33483 12.38576 -0.503135 -0.522802 -0.112522
Na 8.52983 5.75248 4.24654 -0.117618 -0.232111 -0.217209
Na 12.31296 3.80459 6.28131 -0.100347 0.369991 -0.09795
Na 2.92964 10.90146 4.00246 -0.193881 -0.137846 0.054703
Cl 3.07666 6.6206 3.36995 -0.134802 0.045308 0.003153
Cl 1.68624 8.64051 7.74712 0.510898 -0.311439 -0.17893
Cl 9.53809 6.82345 10.72126 0.062328 -0.343595 -0.179421
Cl 7.04002 3.59987 12.29786 0.277933 -0.035058 0.209687
200
energy=-1090.10890154 config_type=nep2xyz pbc="T T T" virial="-14.52573 -8.31242 1.48296 -8.31242 -25.30278 -2.75685 1.48296 -2.75685 -14.06385" Lattice="12.757144928 0.0 0.0 0.0 12.757144928 0.0 0.0 0.0 12.757144928" volume=2076.158320101101 Properties=species:S:1:pos:R:3:force:R:3
H 10.07289 0.257 9.33975 -1.103132 -2.164917 1.071991
H 8.75971 12.22169 9.59091 0.263295 0.170529 0.138517
H 6.63199 3.76364 1.16384 0.62113 0.971108 0.522369
H 6.9177 4.4878 2.52238 -0.214823 0.067005 0.412345
H 0.9077 2.11461 8.11644 -0.412196 -0.21305 -0.018113
H 0.26984 1.16891 7.01988 -0.041814 0.008827 -0.247143
H 0.96206 1.69024 1.17148 0.135887 0.184224 -0.43636
H 0.75213 2.54199 12.65159 0.68145 -1.646501 0.466862
H 10.69669 0.93923 1.58781 -1.375206 -1.154244 1.018523
H 10.44359 1.00706 3.10971 0.390069 0.312601 0.757416
H 10.31709 5.20382 9.8885 0.244247 0.035534 0.581148
H 11.60489 6.16361 10.09529 -0.859742 -0.660436 -0.681105
H 10.67189 11.00609 0.56078 -0.116189 0.795749 -0.395069
H 9.72447 9.87605 0.12218 -0.556443 0.372997 -0.553945
H 10.75619 2.2661 4.99782 0.572235 0.657314 -0.60324
H 12.06439 2.51342 3.96684 0.333842 0.841865 -0.341072
H 3.46516 11.65789 11.00819 0.19657 1.853438 0.13572
H 4.24999 10.38759 10.54989 -0.227482 0.312185 0.334273
H 11.10499 4.93883 5.2505 0.029956 -1.231449 3.159516
H 11.73399 5.42603 4.06324 1.887292 0.694567 -1.54515
H 0.80399 9.53918 5.08972 -0.374827 0.364316 0.850392
H 1.79234 9.16217 4.10415 1.79065 0.245195 -0.935154
H 9.5256 10.16559 9.61693 -0.167641 2.039362 0.326308
H 10.23029 8.91702 9.98789 0.203359 0.031629 -0.0735
H 9.59502 8.00349 7.81776 -0.911707 0.269056 0.451738
H 10.01369 6.66527 8.38814 -0.676164 0.100122 -0.853778
H 0.63651 10.87349 1.56158 0.226813 -0.84179 -0.654549
H 1.30158 9.62525 0.74953 0.810731 0.326241 0.155141
H 0.48934 11.49739 12.35689 0.324264 0.040472 0.074314
H 1.05602 0.28719 12.27169 -0.931241 -0.570071 -0.30451
H 8.23833 12.71399 2.12876 -0.878332 -0.583354 -0.470065
H 6.77201 0.23974 1.58587 0.912963 -0.918829 0.056961
H 8.80369 11.42739 6.41915 -0.167023 0.748706 -0.089184
H 8.83782 10.03989 5.91227 0.162334 -0.199415 -0.029699
H 6.78407 11.87599 9.32724 0.102776 0.591438 -0.642996
H 7.21835 0.11806 8.09537 -0.299167 -0.345263 0.22561
H 2.13231 6.19492 5.06133 0.821989 0.45618 0.163359
H 0.97184 5.29564 5.20061 -3.121502 -0.424655 1.471036
H 3.66455 1.54609 10.77899 0.080447 -1.077204 -0.138881
H 4.9328 0.98546 11.40229 -0.781138 -0.657754 -0.214249
H 3.0775 11.12749 6.7487 -0.271283 -0.002624 0.015207
H 1.94941 10.30699 7.25881 -0.856565 -0.570677 1.618728
H 9.14069 3.34522 6.62199 -0.077701 -0.661304 -1.362905
H 8.4064 2.18445 5.73276 0.889715 0.88452 0.354063
H 7.49865 3.80185 4.41906 1.065372 -0.56247 0.533618
H 6.59169 4.98101 4.7206 0.040895 0.274475 0.164451
H 2.7055 5.72499 1.66297 0.634387 0.208565 -0.084085
H 1.97902 5.72648 0.26616 0.229786 0.521386 -1.260829
H 10.80129 7.82156 6.78982 0.746518 1.364531 -0.720935
H 10.80999 9.01796 5.75759 -0.025617 -0.518634 -0.104618
H 3.03856 3.74881 5.51431 0.95742 -0.33727 -0.043723
H 4.23472 3.37419 4.61589 0.113632 -0.06341 -0.372547
H 10.43389 4.29472 2.63599 -0.440835 0.091943 -0.214754
H 9.07257 3.86572 2.00816 -0.307581 0.076191 -0.093528
H 3.84281 12.64979 8.59933 -0.17115 0.732201 0.945305
H 4.58856 11.23529 8.59323 -0.816607 1.689166 -0.929681
H 10.17389 0.07856 11.73929 -0.574068 -0.478285 -1.693251
H 11.75999 12.73659 12.16599 -0.009375 -0.143291 -0.77689
H 7.90655 6.88292 6.11983 0.03214 0.222594 -0.019772
H 6.59099 7.51848 5.54875 0.283551 0.048868 -0.115577
H 6.06071 11.81729 3.34058 -0.442123 0.02761 0.300738
H 5.97323 12.29829 4.76566 -0.102308 0.581137 0.378986
H 4.85926 2.90635 6.93985 -0.416833 -1.519319 0.655946
H 5.49626 1.58303 7.59317 0.59495 -0.728945 -0.442003
H 10.87679 2.1356 12.51309 0.564298 -0.456908 -0.395998
H 10.93229 3.50207 0.34357 0.266472 0.241521 -0.20425
H 11.53909 5.07348 8.06301 0.397577 -1.614111 -2.538829
H 11.76599 3.6647 7.19555 0.303842 -0.980035 0.531563
H 4.40261 7.40361 12.70609 -0.503637 0.697348 -0.278265
H 5.94755 7.22773 12.33389 -1.171819 -0.201605 0.586879
H 2.42617 8.41162 12.66069 -0.227727 -0.892225 -0.677244
H 3.25213 9.71915 12.25599 -0.553466 -0.645506 0.896476
H 3.35069 9.73 1.80224 -0.315713 -0.533746 -0.680714
H 3.80771 10.62829 2.98626 -0.409153 -0.805813 0.070987
H 2.88982 1.50625 4.00066 0.075907 0.223583 0.1598
H 3.43918 0.11492 4.38552 -0.366514 0.357677 0.002577
H 8.10191 8.16863 10.65279 -0.42276 -1.484388 0.875952
H 7.69264 6.81896 10.06569 -0.07647 0.227782 1.393663
H 4.96228 5.22319 12.22229 -0.116369 0.600546 0.720046
H 4.72941 3.65038 12.39139 0.028895 -0.200899 0.647225
H 1.33857 12.59639 3.22779 -0.241915 -0.214251 0.227515
H 0.04808 11.69649 3.48067 -0.146066 0.030585 0.324486
H 0.08808 12.04919 9.84013 0.314346 -0.765614 -0.402568
H 0.13138 0.01614 8.51223 0.285854 -1.557765 0.418153
H 6.10314 10.46579 5.38437 -0.552537 0.907689 -0.519574
H 6.49823 9.5797 6.57681 -0.077256 -0.076481 -0.20518
H 7.57669 8.15894 2.2967 -0.638865 -0.10683 -0.502858
H 8.39621 8.69535 1.0419 -0.597529 -1.072109 0.58942
H 3.30283 8.62147 8.29895 1.464473 -1.312805 -0.59462
H 4.81959 8.81117 8.42281 -0.265963 -1.218155 -0.182294
H 12.62799 8.73027 10.69079 0.491238 -0.054109 -0.560911
H 11.92369 9.35046 11.86839 -0.539276 0.453775 0.471326
H 3.38463 5.59442 10.01049 1.219576 0.434277 -1.657194
H 3.91878 6.56806 8.81811 0.142403 -1.221415 0.484057
H 4.21784 6.24654 3.38544 0.078718 0.247199 -0.615365
H 4.99904 6.28759 1.95872 -1.075956 -0.317805 0.439509
H 1.88046 8.34798 9.91251 -0.111695 1.683567 -0.29019
H 2.24616 9.94294 10.01769 -0.479759 -0.802064 -0.241364
H 12.13519 0.22729 5.28941 0.061789 1.124792 -1.255275
H 0.82112 12.37969 5.61547 2.49833 0.199044 -0.964958
H 1.48648 3.24628 2.77965 -0.147485 -0.356166 -0.094797
H 0.32168 3.89464 2.11573 -0.138452 0.307712 -0.404229
H 3.71004 4.07845 2.64368 0.330325 0.627437 -0.386735
H 4.01847 2.6082 2.21238 0.316276 -0.045815 -0.534179
H 0.9262 6.78289 3.28845 -1.079647 0.105588 -0.171791
H 0.64097 6.23491 1.96737 0.380473 -0.547604 -1.008523
H 11.30439 7.21209 12.52409 0.92381 1.239489 -1.208557
H 10.58369 6.45441 0.72609 -0.05489 -0.719765 -0.247199
H 5.20542 8.52299 2.86994 -1.398101 0.474321 -0.724034
H 6.18456 8.91626 3.96504 -0.061464 -0.135514 0.104181
H 10.36089 10.71589 4.33773 -0.380381 0.628408 -0.456277
H 10.42209 11.43919 2.87562 -0.625674 0.780887 0.125611
H 7.46973 10.49139 0.46112 0.285914 0.467359 0.230711
H 7.05275 10.46989 11.80409 -0.725537 0.020013 -1.291047
H 9.56196 1.50037 7.50499 0.589354 -0.102083 0.456832
H 11.03869 1.58973 8.13159 0.246705 0.277024 -0.351469
H 7.15819 1.55468 10.12169 -0.356462 0.964073 0.411908
H 6.62749 2.21544 11.43279 -0.459855 -0.263073 1.57121
H 6.45016 5.9303 7.91618 -0.198465 0.648496 -0.663226
H 7.99401 5.68886 8.10058 -2.591515 -0.133405 1.036482
H 10.20829 7.01999 4.1679 0.144882 -0.890354 0.153147
H 9.23611 7.84906 3.27204 -0.102802 -0.18419 -0.426658
H 2.67612 3.67292 9.07751 -0.420388 -1.127538 -0.165032
H 3.46327 2.49231 8.5346 0.008885 -0.496454 -0.356633
H 4.21604 7.56102 5.66387 -0.522346 -0.480951 -0.049522
H 3.45894 8.3147 4.57201 0.418582 -2.395043 0.393366
H 8.41379 3.91549 10.76189 2.45818 0.191418 0.743407
H 9.93641 3.63977 11.27579 1.68051 -2.199933 0.773305
O 9.71547 12.14069 9.83638 0.813118 1.762872 -1.149889
O 7.10886 4.5542 1.56811 -0.309176 -1.116422 -1.250401
O 0.05523 1.70139 7.80433 0.621008 0.299283 0.204552
O 1.2329 1.71866 0.22974 -0.571246 1.512772 -0.044468
O 10.08559 0.59366 2.32046 0.781071 0.456485 -1.651473
O 11.01529 5.7295 9.42107 0.505019 0.599944 0.375794
O 10.60159 10.05489 0.45578 0.399779 -1.060134 0.769004
O 11.49749 1.91582 4.45008 -1.111438 -1.591135 0.946828
O 3.436 10.71339 11.02029 0.415443 -1.918679 -0.35106
O 10.89789 5.39154 4.47278 -1.766302 0.700359 -1.716479
O 0.86498 9.17113 4.21456 -1.574563 -0.358707 -0.104528
O 9.56657 9.26413 9.35826 0.236603 -1.849335 -0.110918
O 9.41331 7.05654 7.66398 1.133939 -0.588745 0.881175
O 0.48368 10.11129 0.9031 -0.529812 1.150924 0.804905
O 0.4889 12.31929 11.83269 0.533247 0.265989 -0.126049
O 7.3922 12.24529 1.86462 -0.044256 1.20949 0.46234
O 9.44482 10.75829 6.15413 -0.299928 -0.116807 -0.099801
O 7.23921 12.72229 9.06872 -0.125373 -0.218793 0.642329
O 1.80919 5.31737 4.84031 2.439383 -0.199171 -1.356207
O 4.15059 0.68564 10.86519 0.183311 1.380234 0.130745
O 2.31438 10.58899 6.4434 0.860002 0.584394 -1.506805
O 9.14845 2.892 5.73209 -0.778073 -0.307351 0.912522
O 6.67279 4.18954 4.17026 -0.94093 0.465665 -0.336295
O 1.9273 5.43473 1.16683 -1.184674 -0.938797 1.384226
O 11.19099 8.73522 6.59872 0.027811 -0.95295 0.263512
O 3.89594 3.24835 5.50621 -0.913194 0.742037 0.579095
O 9.93845 4.23848 1.79399 0.692405 0.166015 0.209679
O 4.11952 11.94869 8.02969 1.273178 -2.438142 -0.095247
O 10.81109 0.07303 12.42839 0.367155 0.742186 2.511032
O 6.95873 6.74055 5.9881 -0.325589 -0.43136 -0.048886
O 5.43657 11.81069 4.11717 0.543644 -0.43565 -0.831822
O 4.87441 2.28332 7.7452 -0.173084 2.390872 -0.15615
O 11.32829 2.98924 12.36049 -0.778426 0.03237 0.637312
O 11.69109 4.60186 7.08339 -0.622068 2.344806 1.843628
O 5.18212 6.87977 0.11998 1.914477 -0.249353 -0.514059
O 3.0057 9.08423 0.27203 0.87954 1.425691 -0.488293
O 3.3807 9.76578 2.76758 0.887311 1.028649 1.242501
O 2.61267 0.64145 4.33385 0.296446 -0.727641 -0.230283
O 7.83995 7.23677 10.96759 0.223317 1.034104 -2.010826
O 4.88715 4.37213 11.78759 0.117831 -0.406816 -1.7007
O 0.53426 12.20399 2.82244 0.387508 0.012255 -0.845065
O 0.17267 11.82219 8.87839 -0.485923 2.389737 0.254322
O 6.54853 9.65067 5.60682 0.637622 -0.767434 0.907097
O 8.12048 7.87585 1.53103 0.957389 0.755866 -0.318707
O 4.18009 8.11943 8.05919 -1.544684 2.227826 0.689488
O 11.75169 8.84724 11.06549 0.044551 -0.437579 -0.041682
O 3.94793 5.60776 9.15578 -1.127331 0.711588 1.169458
O 4.16724 6.00078 2.43348 0.914956 -0.021858 0.473766
O 1.72445 9.26896 9.49587 0.577119 -1.00566 0.173278
O 12.67429 12.39369 5.79537 -2.542717 -1.257447 2.3361
O 0.53966 3.0764 2.56766 0.356144 0.086415 0.721159
O 3.47883 3.15707 2.78922 -0.589529 -0.550986 0.601365
O 0.15528 6.68849 2.67377 0.396272 0.55817 1.104104
O 10.68429 6.49749 12.50949 -0.545352 -0.439664 1.67476
O 6.01868 8.26224 3.26624 1.661768 -0.228634 0.63237
O 10.83209 10.84039 3.49899 1.189382 -1.189455 0.374765
O 7.77388 10.19099 12.34859 0.66444 -0.333379 1.309507
O 10.08859 1.5329 8.33074 -0.421333 0.094109 -0.219435
O 6.93259 2.42856 10.56479 1.001927 -0.356658 -2.334209
O 7.05657 5.4981 8.51513 3.138251 0.035451 -0.460586
O 9.84251 7.89345 4.01485 0.147885 1.145891 0.312251
O 2.5885 2.68984 8.93692 -0.11998 1.522481 0.405562
O 3.62919 7.35064 4.90299 0.064034 2.897122 -0.155321
O 9.32873 4.30401 11.05889 -4.368871 1.93322 -1.672379
Na 11.36949 10.91469 7.55607 -0.014047 -0.369097 0.097082
Na 12.05419 9.03755 2.51672 -0.354226 -0.103489 0.248042
Na 5.66353 4.08959 9.33396 -0.388768 -0.527964 0.683426
Na 8.50104 5.91452 0.16375 -0.256889 -0.038601 -0.21665
Cl 1.85573 6.87103 11.33489 -0.128492 -0.138299 -0.257972
Cl 5.72823 1.71963 0.58543 -0.095535 0.249873 0.271497
Cl 7.09596 0.66095 6.14856 0.428008 -0.070672 -0.069958
Cl 6.09143 9.85494 9.65858 -0.157043 0.339945 -0.177922
200
energy=-1089.12786437 config_type=nep2xyz pbc="T T T" virial="-21.38232 2.00918 -4.94168 2.00918 -30.94054 3.73261 -4.94168 3.73261 -15.52334" Lattice="12.592882156 0.0 0.0 0.0 12.592882156 0.0 0.0 0.0 12.592882156" volume=1996.987827987045 Properties=species:S:1:pos:R:3:force:R:3
H 3.62073 11.09865 9.89002 -0.747637 -0.372912 1.235863
H 3.37682 10.63315 8.37524 0.362268 0.24449 1.021951
H 1.40409 7.04965 10.33815 -0.099425 -0.65428 -0.543074
H 1.06916 6.09313 9.07515 0.740902 0.359073 1.903608
H 0.99133 6.66609 6.37786 0.300424 0.212185 0.036257
H 12.36535 6.41133 7.28597 0.393186 0.308951 0.024907
H 7.50896 1.0452 4.64711 0.077237 0.739402 0.864927
H 7.73784 12.25245 4.09183 0.492248 -1.114213 0.299779
H 1.99806 3.36682 0.58981 -0.76505 -0.046308 -0.245404
H 0.36687 3.4335 0.57931 0.410532 -0.518368 -0.265522
H 0.28893 3.84482 5.43419 -0.537114 -0.551399 -0.324995
H 11.81615 2.69206 5.16522 0.133044 1.072097 0.262463
H 9.63832 1.63951 10.59955 -0.308179 0.479368 -0.163021
H 9.1843 3.0091 11.15515 -0.567064 -0.970928 -1.542489
H 11.42555 3.35093 2.30458 -0.302056 0.462765 0.341581
H 10.69085 4.32831 3.32624 0.352709 -0.271391 -0.258308
H 6.22407 11.08145 6.73214 2.17829 -1.272811 0.208901
H 7.41442 10.57165 7.79966 0.04615 -0.063349 0.022203
H 10.92845 8.32083 5.65478 -0.180061 -0.468928 0.214337
H 11.20795 9.21235 4.49694 0.260953 0.227798 -0.867077
H 3.77002 3.96994 6.47812 -0.325553 -0.678049 0.015596
H 2.99664 4.56942 7.79257 0.912993 -0.352847 -0.845813
H 4.31575 3.48966 12.31685 0.195462 0.505207 -0.347234
H 3.26733 3.31431 11.12635 0.104286 0.200089 0.032447
H 9.80012 6.03293 5.97154 -0.365344 0.496664 0.501384
H 10.86245 5.5607 5.1196 0.882511 -0.190548 -0.347631
H 8.04361 1.01132 12.48675 -0.188745 0.035012 -0.28938
H 8.45143 12.09925 0.14792 -1.45825 1.679874 -1.16756
H 11.24545 3.80727 11.60815 -0.174858 0.09953 0.040802
H 11.06935 4.98763 10.54135 0.831663 -0.667681 0.730384
H 5.9311 7.59488 10.97295 1.620364 0.143414 -0.415747
H 7.37873 6.86565 11.08785 -0.782025 1.292339 -0.1367
H 1.93758 6.52877 3.00962 -0.017054 0.107316 0.016785
H 1.82643 5.43638 1.93229 -0.29902 -0.8936 -0.297202
H 9.31996 6.48146 2.60879 1.023775 0.495268 0.198636
H 8.55544 5.68132 1.50946 0.191992 0.178638 1.3275
H 1.87601 2.17868 4.74558 -0.190611 1.161013 0.219254
H 2.49298 3.37967 3.96587 -0.863026 0.000461 0.909079
H 9.13658 11.21275 10.11235 0.360115 0.265773 -0.559465
H 9.96916 12.25635 9.24028 -0.158276 1.532438 -1.211749
H 3.38735 1.19764 0.30787 -0.731556 -1.126865 0.897878
H 3.55127 0.20025 1.6178 -0.959711 0.519254 -2.332311
H 7.90443 1.49633 8.90956 -0.704651 0.108322 -0.570872
H 7.45997 1.68867 7.41222 0.377734 0.277366 -0.480816
H 5.65992 12.57906 3.57927 -0.972179 0.615264 -1.290935
H 4.59667 1.08536 3.13645 0.494628 -1.357911 -0.319632
H 11.64585 12.10985 12.27655 -0.396408 -1.145068 -0.029036
H 10.83465 11.33125 11.22345 0.434677 -0.258414 0.654087
H 9.48021 11.15025 4.4593 -1.364184 -0.761681 0.113765
H 8.42085 10.53265 5.34179 -0.92035 -1.376612 5.577195
H 7.2912 11.00925 10.89175 0.023542 1.004185 1.382731
H 7.24094 9.59976 10.32535 -0.178314 0.007301 -0.149986
H 8.12236 9.49452 3.13378 0.521478 -0.342827 1.455507
H 8.45089 8.61011 1.78958 -0.372827 0.935476 1.304949
H 0.48529 9.71143 2.47395 -0.879197 0.226265 -0.513271
H 11.94995 10.83935 2.41572 0.809062 -0.586344 0.42424
H 7.69897 4.36115 3.07711 0.706873 -0.13264 0.431746
H 6.34036 3.67124 3.21955 1.301363 -0.738646 0.927269
H 2.77386 7.2724 5.00849 -1.351162 -0.110253 -0.079937
H 1.3832 8.08457 4.84695 0.178145 -0.298215 0.052881
H 0.52826 8.17532 11.43795 0.612783 0.357914 -0.553506
H 0.48785 8.98142 10.05865 0.413458 -0.271931 0.238243
H 4.14572 11.58285 6.2606 1.166266 0.793776 0.092234
H 5.05535 0.30002 6.14927 -0.072143 1.443673 -0.316153
H 0.62811 6.42862 0.5446 -0.462248 0.571475 -0.629046
H 12.28175 6.11463 11.97035 -0.193459 -0.954264 -0.818185
H 5.00803 7.52904 5.60407 -1.471656 -0.404976 0.010144
H 4.07056 6.38141 6.17558 -0.410268 0.472756 -0.81319
H 0.49545 11.14485 6.46935 -0.686524 1.01362 0.526606
H 12.00645 12.01245 5.91877 -1.01017 0.534135 -0.793642
H 3.72882 9.77989 3.54433 0.221315 -0.536291 -0.113601
H 3.88143 11.23415 3.26295 0.00223 0.698549 -0.6327
H 2.248 4.90388 10.01161 0.361226 -1.06567 -0.356036
H 1.69759 3.40233 9.67889 1.595971 0.894834 -0.508405
H 0.03018 12.08445 9.98441 0.199461 -0.007394 0.075562
H 12.47375 12.33905 8.50294 -0.91956 -0.387101 -1.696976
H 3.85025 1.61109 6.1561 -1.265756 -0.229054 0.188561
H 4.60888 2.39789 5.11424 0.242936 -0.053585 0.094179
H 2.84829 10.26675 12.22185 -0.360324 0.051235 0.191145
H 3.62221 11.65335 12.11115 -0.455248 -1.700873 -0.094544
H 8.99243 10.88755 1.89277 0.139448 0.307896 -0.625486
H 10.19895 11.25515 0.90007 -0.858149 0.795632 0.401691
H 9.14146 2.39658 5.84965 -0.87562 0.68356 0.388375
H 7.99694 3.12867 5.14956 -0.462334 0.527512 -0.255259
H 3.50811 8.48648 10.22155 -0.765597 0.088138 0.448377
H 4.76832 8.92734 9.51104 -0.842594 -1.351813 0.453199
H 2.66664 8.23338 7.88388 -0.047659 1.121992 -0.462692
H 2.8185 8.89589 6.49141 -0.190032 -0.0084 0.399722
H 9.29448 6.72733 8.71535 1.184709 -0.080878 -0.10833
H 7.92591 7.05995 8.99958 -1.175501 0.338867 0.732937
H 11.18755 7.98937 9.19051 1.219283 1.102734 -1.425093
H 10.19715 7.85891 10.26545 0.312987 -0.701828 -0.077113
H 12.10905 0.51925 2.1966 0.311661 -0.034479 -0.327529
H 0.73843 0.06004 1.36325 0.244003 0.564401 -0.225601
H 5.76997 0.78172 11.42265 1.98232 -1.115562 2.617036
H 4.67245 1.78714 11.11095 0.267336 -0.308808 -0.262638
H 6.40391 6.48486 4.77959 0.299469 0.15143 -0.606533
H 7.23776 6.46385 3.39925 -0.535243 0.017391 0.359573
H 5.75863 4.74452 10.61855 -0.102665 -0.592656 -1.091479
H 6.31378 5.06737 11.99215 -1.315561 -0.121471 -0.772402
H 11.12965 8.39641 2.403 -0.013393 -0.864496 -0.104116
H 11.17415 7.13098 1.49398 0.929611 -0.46037 -1.494104
H 6.74682 8.66122 6.66134 0.176535 0.543394 0.087816
H 6.95935 7.1728 7.10987 -0.08606 0.56411 -0.699907
H 5.57575 3.2368 8.57601 0.663263 -0.006726 0.801443
H 5.40498 4.67037 8.3595 0.48871 -0.071188 0.741386
H 10.73035 2.01828 8.01134 -0.640312 -0.962617 0.420907
H 10.46065 1.03018 6.88796 -0.474195 -0.49787 1.825896
H 1.23636 10.65825 0.95725 -0.006108 -0.687296 -0.274987
H 2.27562 10.11185 1.89066 0.593858 -0.193111 -0.02279
H 11.67425 4.14115 8.27003 -0.4378 -0.126562 0.301501
H 11.21965 3.91843 6.87544 -0.127817 0.065874 -0.665741
H 4.23691 8.47507 0.69492 -0.316667 -0.549403 -0.226665
H 5.14979 8.73558 1.85681 -0.944915 -2.416497 -0.946349
H 6.22649 8.698 4.10557 -0.551136 -0.215214 -0.29109
H 6.0856 10.07445 4.66381 0.726278 1.543091 1.120113
H 2.17848 12.37065 4.96834 0.238186 0.256467 -0.322458
H 1.47827 0.21284 6.186 0.046102 0.560301 0.178269
H 0.04767 3.50073 10.23355 -0.169323 -0.325899 -1.474847
H 0.11118 2.09048 9.46416 0.445319 0.146454 -0.14992
H 8.45114 3.50093 0.70812 -0.20983 -0.484431 -0.091996
H 7.42857 2.62965 1.54185 0.444169 0.242448 -0.542047
H 11.06535 10.08355 9.14712 0.390414 -0.073626 -0.550678
H 11.82615 9.92714 7.75835 -0.22858 -0.870216 1.711764
H 0.47339 10.23935 4.36936 0.630425 -0.08834 0.873578
H 1.9404 10.53825 4.37575 0.717058 -0.122413 -0.305085
H 8.79154 8.61783 11.84765 -0.15783 -0.063252 -0.315988
H 10.20425 9.18934 11.98745 0.319133 0.224895 0.003877
O 3.93478 11.17345 8.99641 0.316857 -0.343201 -2.127642
O 1.3701 6.08213 10.05665 -0.813882 0.672553 -1.924993
O 0.68993 6.75269 7.30894 -0.884198 -0.674174 0.106689
O 7.29366 0.49246 3.90895 -0.286391 0.215982 -0.964715
O 1.18881 3.83176 0.89291 0.522548 0.664002 0.557378
O 11.91105 3.63216 5.49149 0.327268 -0.633262 -0.529965
O 9.11201 2.42191 10.32365 0.741947 0.596313 1.615909
O 10.60135 3.84017 2.49527 -0.007185 -0.538738 -0.187733
O 7.13522 10.47385 6.87894 -2.24275 1.183887 -0.277104
O 10.86555 9.24189 5.38459 0.012723 0.281823 0.699995
O 3.60099 4.74662 7.00506 -0.264491 1.237952 1.246306
O 3.64144 2.89421 11.96965 -0.562262 -0.61794 -0.043311
O 10.54605 6.39272 5.47909 -0.413785 -0.319507 0.119808
O 7.84832 0.12504 12.12165 1.379557 -1.80935 1.14233
O 11.73215 4.42936 11.03775 -0.981508 0.911259 0.009233
O 6.93221 7.74849 10.86455 -0.64049 -1.318426 0.362721
O 2.3029 6.23877 2.14809 -0.104612 0.456701 0.424375
O 8.60355 5.84728 2.51532 -1.24582 -0.396954 -1.537452
O 1.83057 3.1771 4.69387 0.865425 -1.122787 -0.775077
O 10.02045 11.49425 9.78668 -0.280175 -1.800582 1.26325
O 3.01696 0.35765 0.74665 1.607464 0.751778 1.149721
O 7.13992 1.44569 8.28316 0.303341 -0.554206 1.020056
O 4.85143 0.11975 2.96891 0.16175 1.021963 1.504161
O 11.37215 11.15965 12.05535 0.004661 1.475592 -0.220242
O 8.55831 10.74265 4.49125 2.184793 2.262453 -5.566403
O 7.18061 10.54615 10.07645 0.058378 -0.7505 -1.131647
O 8.07823 9.43514 2.19359 0.090696 -0.645763 -2.704842
O 12.18995 9.97477 2.84791 -0.45442 -0.259724 0.246811
O 7.32913 3.5484 3.47971 -1.698324 0.583316 -0.943367
O 1.75212 7.17864 4.84887 0.221091 0.508002 -0.472961
O 1.09787 8.55301 10.70285 -0.822314 0.328359 0.512009
O 5.07092 11.94205 6.23241 -0.737424 -2.466394 0.293631
O 12.54275 6.83085 12.53855 0.605336 0.534709 1.60849
O 4.09611 7.09976 5.46894 2.325171 -0.447277 1.367813
O 12.50195 11.93365 6.72706 1.905101 -1.875135 0.110209
O 3.25929 10.49535 3.0952 0.183605 0.164727 1.015233
O 2.57056 3.96979 9.70566 0.147911 -0.068276 0.675021
O 0.42664 12.54505 9.23405 0.791263 0.695216 1.934855
O 4.71464 1.97688 5.99484 0.67721 0.506649 -0.426403
O 3.57927 10.69755 11.76595 0.741171 1.508355 -0.188709
O 9.44022 11.65945 1.43912 0.742904 -1.05722 0.021499
O 8.32899 2.94643 6.04735 1.282281 -1.197312 -0.161036
O 4.29268 8.10061 9.83641 1.515494 1.336679 -0.724548
O 2.6389 9.11268 7.42203 0.291873 -0.756139 0.230207
O 8.40295 6.45481 8.44173 -0.000823 -0.495826 -0.489047
O 10.74285 7.29736 9.65049 -1.743309 -1.085668 1.39887
O 0.17405 12.40445 2.10005 -0.134952 -0.251978 0.565476
O 5.29287 1.11529 10.71965 -1.962787 1.082973 -2.318453
O 6.35347 6.67027 3.82361 0.486375 -0.156102 -0.367383
O 5.44635 5.00561 11.48255 1.353826 0.560946 2.141384
O 10.83195 7.45305 2.31006 -0.837779 1.382133 1.376267
O 6.60412 7.7434 6.38362 0.119181 -1.015727 0.668422
O 5.95501 4.07123 8.93033 -0.900518 0.180096 -1.658547
O 10.28165 1.12935 7.89756 0.974873 1.375883 -2.015908
O 1.65307 9.80382 1.19854 -0.407032 0.836164 -0.178408
O 10.84495 4.18628 7.74512 0.356948 -0.124021 0.896933
O 4.66378 7.94032 1.38311 1.524639 3.073913 1.290071
O 5.63527 9.47994 4.10491 -0.397764 -1.524438 -0.832144
O 2.22883 0.50186 5.60935 -0.339283 -0.617326 0.188841
O 0.37932 3.03221 9.36973 -1.520466 -0.700665 1.038803
O 8.10196 2.58533 0.82495 -0.406742 -0.224992 0.919648
O 11.71415 9.50506 8.67295 -0.109481 1.3119 -1.150861
O 1.26773 10.24345 5.00483 -1.336542 -0.038321 -0.788699
O 9.49873 9.05019 11.34305 -0.237583 -0.111129 0.420473
Na 5.86232 12.22485 9.0201 -0.249693 0.439469 0.221568
Na 9.30245 1.31108 2.47414 0.067726 0.155602 -0.378536
Na 8.71557 3.90465 8.6119 -0.323963 0.273182 -0.16354
Na 4.48475 5.99312 2.56725 0.000764 0.383991 -0.001414
Cl 4.29994 3.41387 2.98499 0.33273 -0.263937 -0.070108
Cl 11.30275 1.6333 0.1844 -0.05452 0.386241 -0.134491
Cl 8.62216 5.17234 12.03195 0.099759 0.379544 -0.086928
Cl 10.67695 0.71933 4.7393 -0.223735 0.201188 -0.116805
200
energy=-1094.44795754 config_type=nep2xyz pbc="T T T" virial="-29.47017 3.98424 -3.64588 3.98424 -9.97219 6.04327 -3.64588 6.04327 -10.87166" Lattice="12.467943191 0.0 0.0 0.0 12.467943191 0.0 0.0 0.0 12.467943191" volume=1938.136874301045 Properties=species:S:1:pos:R:3:force:R:3
H 4.98402 5.1203 11.56987 -0.747991 0.069233 1.567969
H 4.74956 4.89946 0.68935 5.5e-05 0.404789 -0.699506
H 1.58275 1.50753 3.15513 -0.602441 1.026838 1.356107
H 2.72131 0.84742 2.36741 -1.284055 0.365359 0.283856
H 7.60834 7.06232 0.02703 0.821417 -0.629467 -0.363033
H 6.38739 7.49051 0.65756 0.093929 -0.708242 0.529187
H 9.22675 10.21967 8.86531 -0.464355 -0.65214 1.12783
H 7.74252 9.72092 8.86006 0.334963 0.210039 0.450856
H 7.6749 1.37087 6.58322 -0.057792 -0.114874 -0.168542
H 7.54407 2.85113 6.00556 -0.718862 -1.262777 1.178458
H 0.80198 11.69527 2.80745 0.824639 1.212114 -0.604531
H 0.09173 10.99517 3.86439 -0.715355 -0.234813 0.863223
H 5.24914 10.94867 1.93271 0.769993 0.338565 0.83774
H 3.74966 10.62937 1.81672 -0.328687 -0.46943 1.069963
H 6.59508 2.79573 9.62629 0.667282 -0.215282 -0.120836
H 7.33106 2.5185 8.34967 0.287945 0.015756 -1.459713
H 3.56731 8.97563 10.00297 -1.140261 0.529851 0.106189
H 4.98269 9.32307 9.4303 -0.161467 -0.012629 -0.358094
H 3.42263 7.37705 6.30222 0.892099 -0.092746 -2.142677
H 2.87764 8.45285 7.25629 -0.164117 -0.967126 -0.153164
H 1.82297 1.68789 6.20556 -0.459063 0.053066 -0.366803
H 3.21449 1.09089 6.07044 1.271354 -1.503631 -0.918132
H 12.39407 8.29012 8.84823 0.588166 -0.153057 0.882206
H 11.80307 6.98849 9.45848 1.114433 1.585512 0.760894
H 5.36307 5.12589 2.77174 0.457211 -0.845768 0.730046
H 5.59658 6.31482 1.91337 -0.019087 0.145582 -0.062939
H 0.85077 4.72098 7.08336 -0.310862 0.199344 0.605045
H 1.39743 5.95732 7.71021 0.392705 0.861443 0.072983
H 0.96498 4.7034 9.72575 0.210922 -0.699986 0.415099
H 0.25947 4.49617 11.12427 -0.614864 0.115847 0.561258
H 0.16319 1.22627 12.00677 0.264158 0.00026 -0.713534
H 0.52957 0.84131 1.05067 -1.816157 1.209461 -1.527702
H 4.24376 4.00572 7.68885 0.15538 0.025745 -0.030015
H 2.78875 4.15179 8.08925 -0.435562 0.010043 0.336691
H 6.80736 0.14276 0.2299 -0.107579 -0.309604 -0.442761
H 6.98359 1.62749 0.38663 0.093058 1.005181 -0.194436
H 7.66952 11.51577 10.34347 -0.526465 0.144764 0.115457
H 7.74944 0.54709 10.26347 -0.25539 0.367114 0.15322
H 5.6734 4.28571 5.47888 -0.419411 0.190344 0.457427
H 5.26386 5.55007 6.34108 0.257313 0.338291 0.114974
H 11.42237 2.66967 6.94114 0.882543 -0.711007 -1.534335
H 10.72617 2.50499 8.25027 -0.323594 -0.976001 1.028314
H 7.84512 11.43047 6.49476 0.651177 0.877632 0.229211
H 8.89058 12.31707 5.76589 0.332452 0.230845 -1.028818
H 11.08027 5.51845 8.29978 1.056001 -0.58027 -1.233953
H 10.01677 5.3492 9.32613 -0.351329 0.74856 1.119859
H 8.89432 2.22586 3.9068 0.675041 -0.829635 0.393696
H 10.24967 1.52104 4.4202 0.150999 0.426715 -0.231468
H 11.90667 3.33436 2.89888 -0.069407 0.37071 -0.027826
H 0.13238 2.72408 1.65766 -0.333473 0.465298 0.077829
H 11.29437 7.95413 11.68177 0.051756 -0.224599 0.387457
H 11.13217 7.53576 0.73517 0.080558 0.237773 0.250178
H 8.74172 5.3506 6.74158 0.054604 0.1784 0.212947
H 9.67621 4.04106 6.84716 -0.295485 0.549396 -0.339038
H 1.69952 9.23841 12.35437 -0.420322 0.220005 0.248602
H 1.26518 9.00227 1.4453 0.21542 0.18248 -0.918785
H 6.86438 9.29962 5.88164 0.621592 0.58543 -2.32624
H 8.13897 8.98291 4.966 -1.373686 0.831084 -0.149681
H 1.1853 5.38547 5.05522 -0.935366 0.312717 0.610588
H 12.13067 5.0547 4.7563 0.509892 1.302447 1.317611
H 8.71844 4.04435 9.87047 0.080841 0.041147 0.639655
H 9.79857 4.29085 11.01887 -0.827012 0.399454 -0.526982
H 3.07028 0.69994 12.05027 -0.063628 0.395985 0.208826
H 3.53026 11.80117 0.21992 0.573174 0.083931 0.028814
H 6.38787 11.19127 4.40993 -0.194161 -0.820133 0.888068
H 5.85554 0.0836 3.90769 -0.167476 -0.046973 0.343919
H 5.6806 7.77742 7.37083 -0.323249 0.669515 -0.013778
H 6.86416 6.82607 7.26412 0.111578 -0.09538 0.178964
H 1.28747 1.05658 9.88497 -0.093234 0.225636 0.33589
H 0.90895 2.53584 10.32697 -0.159407 0.448049 -0.080387
H 2.21512 5.83061 10.94907 -0.029577 -0.747385 -0.189822
H 1.58674 7.14019 10.48567 0.627561 0.076725 -0.206135
H 10.17697 5.53559 3.51847 0.220727 -0.456289 0.132326
H 10.06577 4.67295 4.77786 -0.537329 -0.011434 0.735573
H 2.52074 0.62477 7.98942 0.210085 0.83661 -1.066967
H 2.3073 11.64447 8.48683 0.113595 0.897715 0.223394
H 9.35575 7.34067 11.24837 -0.811936 -0.534694 -0.265619
H 8.5122 8.16921 10.24337 -0.167976 -1.148737 0.632508
H 3.79169 11.36707 5.1491 -0.265169 0.014929 -0.622973
H 4.54738 11.49197 6.43949 0.42663 0.000818 0.477288
H 3.25963 3.13237 0.41984 0.347324 -0.166552 0.044987
H 2.15414 3.03704 11.83517 1.833089 -1.355131 0.596485
H 3.60481 4.64418 4.94726 0.23088 -0.102728 0.512322
H 2.40112 3.67592 4.71318 -0.300251 -1.591281 0.436922
H 4.84923 9.06032 0.5172 -0.280691 0.359687 0.29279
H 4.92851 8.34092 11.61627 -0.222793 -0.374818 0.863295
H 10.54137 2.15116 12.22207 -0.775043 -0.026491 0.168045
H 10.07457 1.49926 10.98937 -0.127313 -0.703915 -1.217839
H 10.48697 10.48047 11.03887 -0.781768 0.177388 -0.610704
H 10.90427 10.76777 0.0572 0.173285 -0.32139 -0.618288
H 7.25733 9.64316 2.94301 0.555557 0.640854 -1.714107
H 7.64115 9.60458 1.34095 0.043129 -1.122347 -0.293134
H 11.26297 5.69507 12.29137 0.328303 -0.734964 -0.578444
H 11.81907 4.37336 0.57917 -0.798774 0.365446 -1.371011
H 12.08717 0.07108 5.45082 -0.104657 0.238825 -0.26388
H 12.42777 11.10527 5.89075 -0.218987 0.000709 0.166141
H 6.72082 4.6543 9.81867 -0.294902 0.351609 -0.14871
H 7.04878 6.10483 10.17577 -0.305245 -0.233129 0.232954
H 1.87223 10.86067 11.10817 0.067473 0.665916 0.107807
H 0.45832 10.22377 10.76767 0.754746 -0.10763 0.419071
H 1.2595 4.86708 1.76506 -0.551497 -0.377346 0.044406
H 2.11991 5.14169 2.98172 0.111915 0.791034 -0.783715
H 9.3549 6.78597 8.04675 -0.758452 0.223675 0.209413
H 8.88075 7.45784 6.73737 -0.113083 0.163373 0.421788
H 5.23338 8.11093 4.83507 0.634886 0.026237 -0.01261
H 4.43857 7.15171 3.90415 0.293815 -0.132999 -0.302089
H 8.04277 5.56959 3.79477 -0.111004 1.112706 -0.345998
H 8.08142 6.76672 2.75304 -0.279186 0.004914 -0.548837
H 9.18809 7.32298 4.7213 0.590468 0.517034 -0.034392
H 10.58017 8.06639 5.24594 -0.033955 0.092223 0.012955
H 4.98946 1.40353 2.0903 -0.153887 0.046508 0.328993
H 4.72378 2.3199 3.3173 -0.26194 -0.737135 -0.567063
H 2.27031 10.29307 3.38156 -1.174378 0.299304 -0.100954
H 3.40305 9.4492 3.90858 0.520938 -0.017643 0.034681
H 0.26893 6.80435 2.17128 -1.768006 1.34848 0.078128
H 11.94217 7.71102 3.13289 -0.16134 0.685919 1.138162
H 4.3066 2.91702 9.41307 0.068099 -0.19022 0.118336
H 4.71458 2.66477 10.87597 -0.310548 0.199846 0.99023
H 7.55247 3.78255 0.76148 -0.343872 -0.015405 -0.419368
H 7.61112 3.5095 11.67997 -0.744778 0.266036 1.446666
H 11.58317 10.54097 8.16853 -1.79069 0.390654 -0.642907
H 10.19777 11.10107 7.43274 0.048907 0.426395 -1.509558
H 0.07406 7.24323 5.25812 0.070392 -1.224334 0.0843
H 0.37613 8.60389 5.84478 0.407496 0.847968 0.585009
H 11.15087 12.3819 1.09651 -0.039912 0.527618 -0.35201
H 11.24187 11.27247 2.11963 0.335048 -0.423105 0.347729
H 11.68697 1.03288 9.76537 -0.499049 0.122594 -0.311021
H 10.83497 0.13403 8.80169 -0.229849 -0.899 -0.233559
O 4.30137 5.14945 12.32177 0.770822 -0.420847 -1.11201
O 1.71636 0.88141 2.4695 1.513853 -1.617148 -1.749258
O 7.15762 6.87136 0.86697 -0.853117 1.401903 -0.16383
O 8.49482 9.87897 9.48248 -0.027413 0.342616 -0.924444
O 7.12909 2.17685 6.63809 0.773675 1.166712 -0.787065
O 0.40375 10.84457 2.96256 -0.107272 -0.81656 -0.242564
O 4.544 10.79877 1.31387 -0.118612 -0.194287 -1.71527
O 7.50898 2.88796 9.22379 -1.121056 0.16216 1.563834
O 4.43141 8.62725 9.83457 1.282365 -0.40318 0.174241
O 3.07533 7.48143 7.16058 -0.914385 0.764356 2.35155
O 2.72553 1.75166 6.52954 -0.911192 1.275237 1.074951
O 0.00983 7.76814 9.68466 -1.61554 -1.475906 -1.292229
O 4.89657 5.89638 2.44059 -0.268984 0.727535 -0.248131
O 1.14631 5.06784 7.96108 -0.168982 -0.760266 -0.64869
O 1.06941 4.26199 10.61327 0.593444 0.296693 -1.087495
O 12.21687 1.18724 0.41302 2.088151 -1.147043 2.717335
O 3.66875 4.0473 8.48618 0.494769 0.407415 -0.482054
O 6.72339 0.84633 0.8784 -0.032251 -0.551978 0.822628
O 7.16543 12.32587 10.61957 0.569034 -0.681586 -0.449513
O 4.98903 4.64575 6.10377 0.01448 -0.725716 -0.862182
O 10.97007 3.15793 7.60224 -0.604564 1.569428 0.543638
O 8.54326 12.12807 6.63067 -0.830752 -1.030973 0.698284
O 10.56947 6.05817 8.88308 -0.010483 0.026061 0.002058
O 9.35646 1.36192 4.07595 -1.095399 0.30071 -0.357007
O 12.33597 3.58489 2.05703 0.443507 -0.638313 -0.704615
O 10.91697 7.2801 12.28637 -0.139255 0.238075 -0.752344
O 9.16682 4.64331 6.23495 0.215014 -0.862036 0.098304
O 1.9688 8.89198 0.76893 -0.170594 -0.20756 0.725268
O 7.20318 9.41545 4.90165 0.845809 -1.325613 2.536383
O 0.26361 5.60275 5.4108 0.479863 -1.87122 -2.023693
O 9.11108 4.74938 10.45237 0.751994 -1.76621 -0.042966
O 3.30282 12.24797 11.85767 -0.254122 -0.425998 -0.71333
O 6.54266 11.88577 3.79104 0.366305 1.279232 -1.216003
O 5.90029 6.89545 7.06866 0.318545 -0.171183 0.140846
O 0.64014 1.59857 10.40527 0.676116 -0.874238 -0.497848
O 2.46221 6.74607 10.76727 -0.999943 0.559619 -0.543894
O 10.54487 4.73189 3.93952 0.563231 0.437197 -0.816172
O 2.61228 0.08679 8.77366 -0.283545 -1.611531 0.98345
O 8.49616 7.28606 10.74857 0.560978 2.189666 -0.178852
O 4.31587 12.00307 5.65716 -0.481796 0.280402 -0.095279
O 2.91525 2.48242 12.25787 -2.070989 1.611509 -0.771724
O 2.7037 4.55301 4.57506 -0.09791 1.57438 -0.774389
O 4.87185 8.16716 0.13256 0.381451 0.279864 -1.027584
O 9.7089 1.96237 11.73657 0.573345 0.778489 1.094577
O 11.17987 10.32577 11.66597 0.636042 -0.08124 0.837142
O 7.55621 10.14317 2.11368 -0.392839 0.325875 1.82547
O 11.53637 4.72842 12.12407 0.139539 0.223878 1.976745
O 11.75677 11.62577 5.39942 0.379542 -0.523976 0.182116
O 6.28134 5.49624 10.04547 0.245304 0.232511 -0.069151
O 1.43527 10.05617 10.81197 -0.446131 -0.391208 -0.098947
O 1.81364 5.57026 2.12277 0.214122 -0.200949 0.751482
O 8.51529 7.10883 7.60089 0.700577 -0.182389 -0.765077
O 4.3567 7.90658 4.50998 -0.939295 0.002427 0.104063
O 8.28063 6.53773 3.6671 -0.003579 -1.45982 0.514973
O 9.59583 8.03754 5.29374 -0.770724 -0.32241 0.00192
O 4.31748 1.58584 2.78551 0.938721 0.515449 -0.060356
O 3.19105 10.36117 3.62604 0.436785 -0.443001 0.286658
O 11.92777 7.45959 2.21785 2.263048 -2.020709 -0.817776
O 4.8603 2.32482 10.00017 0.362264 -0.104581 -0.85882
O 6.98493 3.5583 12.46517 1.12815 -0.440611 -0.91036
O 10.59957 10.78697 8.23246 2.01908 -0.524552 1.465002
O 12.28177 8.16888 5.20643 -0.673132 0.414245 -0.846035
O 10.63107 11.64887 1.46897 -0.524282 0.052271 -0.031329
O 10.77557 0.88427 9.39125 0.451361 1.025728 0.486097
Na 4.18085 6.48046 9.07346 0.166254 -0.223723 -0.119832
Na 8.4561 12.34397 2.41093 -0.220634 -0.095878 0.149254
Na 2.76193 6.82903 0.45376 0.853173 0.121155 0.618366
Na 4.72595 0.05169 9.92737 0.012055 0.07493 0.049399
Cl 6.77464 3.69531 3.58839 0.032717 -0.039693 0.065881
Cl 5.98878 10.36817 7.66286 -0.170474 -0.356843 0.366366
Cl 1.31823 10.02387 7.28959 -0.204754 0.145753 0.157436
Cl 12.32987 2.05067 4.68591 0.338002 0.171661 0.602008
200
energy=-1088.63797393 config_type=nep2xyz pbc="T T T" virial="-12.77661 3.63661 -2.85437 3.63661 -14.15808 5.59866 -2.85437 5.59866 -22.915" Lattice="12.738267899 0.0 0.0 0.0 12.738267899 0.0 0.0 0.0 12.738267899" volume=2066.9555391926465 Properties=species:S:1:pos:R:3:force:R:3
H 2.62686 1.18531 10.94609 -0.185726 -0.885806 0.531269
H 2.99193 2.46136 10.41309 0.540104 1.625477 -0.048725
H 6.27766 10.22619 2.97358 2.118257 -0.639582 1.477127
H 6.70044 9.59093 4.35683 -0.450122 -0.506197 0.546944
H 9.50493 3.14549 11.71139 -2.75514 0.35821 -1.084747
H 10.08609 2.69936 0.34454 1.17144 0.810422 -1.308934
H 9.10146 1.58843 9.80919 -0.353191 -0.475428 -0.331768
H 9.15984 0.69556 10.95459 -0.005892 -0.516258 0.800889
H 4.34606 5.83627 7.1076 0.32635 -0.207009 -1.179574
H 5.88501 5.77583 7.23628 -0.792387 0.380753 -1.272247
H 7.11928 2.48221 10.59089 1.112532 1.279735 0.291813
H 7.88956 3.81925 10.11989 -0.767068 -0.293663 0.254816
H 11.68659 8.80255 7.68586 1.571049 0.525616 -0.21052
H 12.47489 9.95929 6.89911 0.240937 -0.281837 -0.310895
H 5.20733 0.27135 4.67622 -0.509747 -0.303608 -0.151063
H 5.28943 1.76068 4.36118 -0.678663 1.226655 -0.002279
H 3.81223 1.60533 8.48762 0.857823 -0.073735 -0.444106
H 5.30329 1.88696 8.09129 0.62317 0.534905 0.112984
H 0.8903 1.49385 0.62442 0.604175 0.516995 -0.00252
H 12.18639 1.93253 1.13676 0.158701 -0.614588 0.230899
H 1.12793 1.72899 7.31461 -0.215627 0.978086 -0.003251
H 12.39049 1.89333 7.42562 -0.444619 0.140394 -0.261671
H 1.55283 5.49608 0.21729 -0.385285 0.986486 0.079101
H 1.06213 7.02279 12.62339 0.26354 -1.324161 0.531134
H 1.07832 12.31139 11.81969 2.150858 0.129698 0.932406
H 12.49599 0.04895 11.56679 -1.364864 1.206731 0.339171
H 3.44484 8.12614 2.05848 0.071018 -0.158763 0.229407
H 2.47874 7.08131 1.44335 0.864539 -0.627171 0.897015
H 9.49813 10.11959 0.62383 -0.21894 0.800922 -0.295535
H 8.94581 11.65489 0.6783 -0.098135 -2.057748 -0.747605
H 4.00473 10.70399 11.83749 -0.133427 -1.574377 -1.041638
H 5.08786 9.62451 11.74939 0.991507 -0.696762 0.497329
H 4.28232 4.15255 12.51879 0.422929 0.804781 -0.883832
H 4.20778 5.59793 12.00449 -0.522814 0.972547 -0.262259
H 5.87155 7.68647 5.61259 -0.652136 2.042321 0.658057
H 5.17826 9.23692 5.94107 -0.050125 -0.984078 -0.069534
H 3.56429 4.30737 8.41037 -0.348724 -0.103669 0.009597
H 2.14674 4.69269 7.73394 -0.205802 0.167126 0.356113
H 3.00294 6.30948 3.68401 0.459555 -0.821279 0.939302
H 4.11772 5.70879 4.6964 -1.165362 -0.035053 -0.099572
H 10.42049 10.74759 8.89153 -1.082866 -1.604435 -0.301038
H 10.02249 12.18369 9.30824 0.159878 -0.218782 0.257598
H 12.51899 10.80799 2.12347 -1.489101 -1.843596 -1.082735
H 0.04196 12.32409 2.07066 0.513919 -0.780496 0.480479
H 6.47654 3.99435 3.74168 0.30825 -0.544303 2.495245
H 6.44837 4.67051 5.16776 -0.31066 -0.855908 -0.192189
H 2.68857 1.32799 2.65581 1.460479 0.615927 -2.767592
H 2.68488 1.81796 4.1547 -0.081065 -0.600268 -0.892105
H 9.50154 8.43813 7.95194 -0.281069 -0.245941 0.239346
H 9.98789 7.68937 9.24881 0.224286 0.317747 -1.841803
H 11.29739 12.56169 7.64008 -0.108915 -0.892157 1.340592
H 11.37219 12.62749 6.15041 0.492262 0.044262 -0.47293
H 0.36584 8.11889 2.74153 0.580433 -0.5173 0.602064
H 1.10361 8.08194 4.13566 0.17667 0.530544 0.391607
H 10.47839 3.21687 10.19889 -0.187431 0.324148 -0.801613
H 9.44865 3.84786 9.15777 -0.32258 0.492258 0.193436
H 12.27119 4.2486 11.33269 1.089135 0.015344 -0.608632
H 1.03594 3.8171 11.30029 0.079909 -0.134578 0.220216
H 0.23263 4.05539 7.9062 0.305924 -0.260522 0.051378
H 0.59084 4.888 9.13836 -0.26238 -0.082419 0.978604
H 9.70673 7.50622 0.96785 0.583799 0.636385 -0.232493
H 8.50735 6.74833 1.40164 -0.413209 -0.046683 -0.429835
H 10.61679 9.10233 3.82322 0.204938 -0.252351 -1.395659
H 9.30315 9.12021 4.64217 -0.076444 0.092253 -0.295979
H 0.14233 11.14459 4.42054 0.483319 0.517578 -0.462617
H 11.65369 10.53719 5.04507 1.091869 0.191936 0.57663
H 8.52039 11.80759 2.85402 -0.208121 1.514797 -1.025444
H 7.35021 12.30359 2.11659 -1.446918 0.290138 -0.322074
H 4.61965 4.36683 10.46059 0.039112 0.383841 1.606656
H 5.39375 4.3755 9.1651 -0.460379 -0.641959 0.326157
H 2.04769 7.08687 5.481 -0.278973 2.010442 1.563367
H 1.07477 8.18861 6.33899 -0.091311 -0.539205 0.100959
H 1.70714 4.26031 3.98421 -0.909855 0.048912 0.326256
H 0.91444 3.52448 5.0426 -0.065941 -0.664698 1.132183
H 4.70995 10.14169 8.09386 -0.53889 0.377514 0.030325
H 4.93717 10.64869 9.64482 0.111251 -0.950586 -1.371647
H 2.09584 11.67079 7.7977 0.623714 -0.70704 -1.313846
H 1.95865 0.05041 8.80597 -0.787567 -2.117518 0.228036
H 7.37244 11.57549 6.09158 -0.258678 -1.269715 -0.335624
H 7.09608 0.28721 5.65498 -0.47726 0.089703 -0.116775
H 6.59297 8.19822 11.84379 -0.58063 0.613986 1.470745
H 6.99916 9.4526 12.53749 0.508322 0.589932 0.431664
H 10.00429 4.13051 5.44251 0.197594 0.010892 0.441363
H 10.19489 4.16306 7.02812 0.087397 0.541428 0.037156
H 0.486 1.38746 3.93027 1.144284 0.6765 -0.204644
H 11.99199 1.71355 4.91094 0.438435 0.752919 0.249306
H 3.25151 3.29664 6.20813 0.261512 0.2414 -0.643812
H 4.08925 2.12159 6.29875 0.916792 -1.403263 0.880841
H 11.56799 8.57585 11.57369 -1.363982 -1.074308 0.232556
H 12.49849 9.5632 12.02119 0.487369 0.877441 0.827277
H 11.22949 7.06228 7.07133 0.290056 -0.93777 -0.509496
H 12.30549 5.86952 7.1572 -1.212125 1.133599 -1.133533
H 6.70274 3.09441 1.97669 2.03961 0.71888 1.33886
H 7.55177 4.14946 1.46194 0.866138 1.190592 -0.960108
H 5.27287 0.56402 11.42539 -0.445298 -0.158986 0.141982
H 4.64084 0.73513 10.00399 0.282101 0.023841 0.408389
H 8.26854 1.98214 3.66812 1.828529 0.045374 1.004913
H 9.21506 0.90891 4.0704 0.427896 -1.156233 -0.322707
H 3.16053 9.50097 6.34059 -2.228878 -2.87961 -0.097832
H 3.49257 10.83529 5.83675 1.123362 -0.583106 0.476699
H 7.37724 8.90457 6.97999 -0.116035 -0.230546 -0.552045
H 6.87458 9.34622 8.26603 -0.898461 0.521804 1.053142
H 9.11014 5.57639 3.9398 -1.128289 1.45093 0.066597
H 9.08025 4.18423 3.41634 -0.665523 -0.817347 -0.582518
H 12.17629 5.87349 1.34634 -0.917758 -0.271599 0.334163
H 10.53799 5.89844 1.42918 1.776767 -0.924459 0.490586
H 7.26404 7.72289 2.89948 0.048813 0.424738 0.067081
H 6.64709 6.33183 2.61319 -0.120087 -0.021808 0.133189
H 2.50606 10.45319 1.74228 -0.004978 -0.870067 1.027721
H 3.88451 10.39139 1.47795 0.942465 -0.232296 0.05608
H 8.53899 10.68739 11.23239 0.416324 0.050549 0.986257
H 8.22979 9.59928 10.16399 -0.109137 0.487554 0.082729
H 10.41829 2.44316 2.63211 1.884951 0.772294 -1.903412
H 11.40899 3.55086 1.74946 -1.289451 -0.520887 0.737501
H 3.19832 11.22489 3.71683 0.511705 -0.307309 0.70973
H 2.60504 12.47149 4.25091 0.594744 -0.008747 0.578487
H 4.60221 3.6275 2.72205 -0.166118 0.4529 0.042035
H 4.09341 2.80143 1.49278 0.149314 0.163224 0.504859
H 4.42996 6.04021 2.19263 -0.285225 0.729787 0.036146
H 5.41318 5.23458 1.35437 -0.157753 0.217582 0.771802
H 8.12249 6.62236 10.30249 -1.49265 -2.206962 -1.003967
H 8.88113 7.2383 11.48879 -0.368223 -0.05918 -0.876839
H 5.33899 0.49604 2.28023 0.23622 -0.176733 0.555628
H 4.94794 12.20529 1.24895 0.8323 -0.037887 1.463779
H 7.28334 3.27992 7.6578 0.219967 1.195193 0.802665
H 6.85323 2.67137 6.36193 -0.051905 -0.36089 0.268276
H 3.17354 6.80954 10.21769 0.263169 0.691984 0.744516
H 3.67205 7.88399 11.36609 -0.57968 -0.580965 -0.832343
O 2.58741 1.66342 10.11439 -0.237193 -0.932309 -0.733431
O 7.08999 9.90747 3.52836 -1.615385 0.964752 -2.045424
O 10.31389 3.05164 12.14479 1.571523 -0.900009 1.766709
O 8.8545 0.65607 10.04889 0.5754 0.881503 -0.799119
O 5.16739 5.97461 6.54722 0.747823 -0.119617 1.814184
O 7.87027 3.11888 10.80999 -1.08396 -0.930981 -0.198646
O 12.61099 9.18864 7.48316 -1.549342 -0.02075 0.8108
O 5.81708 1.00646 4.5732 1.178489 -1.035915 0.304142
O 4.55919 1.3197 7.9007 -1.489832 -0.398755 0.286297
O 0.02168 1.18024 0.85792 -0.29698 -0.95133 -0.222932
O 0.45073 2.44152 7.34758 0.454155 -1.364297 -0.199844
O 1.17585 6.33712 0.59825 -0.119755 0.303022 -0.809031
O 0.26666 12.00479 11.48149 -0.738293 -1.75228 -1.24553
O 3.3243 7.15481 1.99898 -0.805321 0.483295 -0.955233
O 8.93379 10.77549 0.13634 0.347378 1.223501 1.379581
O 4.23669 9.81215 11.36029 -1.220664 2.089294 0.279906
O 4.81131 4.85036 12.01259 0.049436 -1.356118 1.414019
O 5.99166 8.69013 5.70895 0.638288 -0.987798 -0.451065
O 3.10305 4.54821 7.57286 0.518001 -0.018353 -0.498602
O 3.15326 5.68037 4.46504 0.270669 1.016228 -0.923973
O 10.76839 11.60019 9.04214 0.910922 1.486832 0.338233
O 0.31351 11.46029 2.50778 1.265728 2.667461 0.557598
O 6.46182 3.77366 4.75459 0.148794 1.526723 -1.924544
O 2.27608 1.21174 3.46211 -1.29719 0.270141 4.00441
O 10.27729 7.95688 8.30022 -0.437447 0.196814 1.603048
O 11.14369 0.42371 6.92293 -0.295834 0.994564 -1.116831
O 1.00775 7.60787 3.3051 -1.357675 0.016901 -0.705135
O 10.24219 3.32047 9.24508 0.812622 -0.926969 0.286627
O 0.38265 4.35063 10.82419 -1.278663 0.145409 0.510803
O 0.60533 4.91513 8.17757 -0.416273 0.452507 -0.958957
O 9.08852 6.85818 0.59958 -0.080985 -0.255221 0.621772
O 10.25929 9.20826 4.69466 -0.108653 0.25195 1.466545
O 12.56209 10.88699 5.29781 -1.990494 -0.561551 -0.112513
O 8.24905 12.59769 2.27161 1.598376 -1.990543 1.302309
O 4.62078 3.93148 9.60798 0.885665 -0.019425 -1.971628
O 1.94872 8.00783 5.94666 0.56826 -1.517542 -1.3168
O 0.78098 4.01413 4.24593 0.904901 0.955336 -1.161977
O 5.35026 10.46029 8.74734 0.581833 0.631055 1.356229
O 1.67537 11.82079 8.62615 0.140464 2.746993 1.215069
O 7.62991 12.46669 6.24558 0.765088 1.252893 0.660691
O 6.32883 8.76975 12.63329 0.662945 -1.155503 -1.769397
O 10.40929 3.68602 6.22554 -0.261836 -0.803902 -0.452757
O 12.35009 1.17212 4.21561 -1.860093 -1.413741 0.014118
O 3.6505 2.60491 5.61472 -1.510547 1.148519 -0.518431
O 12.34769 8.99865 11.27229 0.896104 0.215894 -0.935045
O 11.68419 6.38812 6.50372 1.035872 -0.520848 1.314202
O 7.60225 3.60332 2.23307 -3.187214 -2.145225 -0.657089
O 5.48125 0.70191 10.49639 0.687651 -0.007582 -0.64854
O 9.16513 1.85253 4.14287 -2.167606 1.064709 -0.820171
O 3.86512 10.08369 6.44939 1.095739 3.054429 -0.500606
O 7.71247 9.18928 7.84117 1.056819 -0.07653 -0.561835
O 9.65465 4.8245 3.81227 1.498159 -0.411525 0.856968
O 11.38539 5.47941 1.81718 -0.128682 0.957997 -0.93008
O 7.49758 6.78827 2.83412 0.251943 -0.155316 -0.029798
O 3.29659 9.96779 2.11597 -1.161483 1.223587 -0.930994
O 8.10945 10.54489 10.38629 -0.426683 -0.572015 -1.377901
O 10.96369 2.6493 1.76459 -1.426547 0.457712 2.083546
O 3.22053 11.74189 4.56035 -0.739418 0.16775 -1.252726
O 4.72762 2.79363 2.25536 0.23285 -0.900934 -0.611758
O 5.24673 5.49864 2.29745 0.646921 -0.799713 -1.183832
O 8.64932 7.34762 10.51789 1.977024 2.390711 2.129011
O 5.48839 12.28369 2.12357 -0.905863 0.204528 -2.043856
O 7.16765 2.41788 7.26505 -0.364675 -0.987949 -1.286419
O 3.27362 6.99179 11.17409 0.238721 0.182966 0.151372
Na 11.99409 5.77155 4.27859 0.000203 -0.106176 -0.20826
Na 9.21163 1.66932 6.55803 0.258178 0.045669 -0.139443
Na 0.08 10.46299 9.63611 0.234769 0.327023 -0.074077
Na 7.10559 12.23849 8.98863 -0.367079 -0.260563 0.110893
Cl 7.48338 5.08014 8.49147 0.171943 0.30786 0.163205
Cl 2.41187 3.23187 0.2239 0.156765 0.114217 0.03846
Cl 11.32349 8.93238 1.57265 -0.243932 0.054861 -0.031834
Cl 3.3914 12.41669 12.64329 -0.092999 0.096955 0.062247
200
energy=-1090.601779 config_type=nep2xyz pbc="T T T" virial="-21.92994 -4.43207 0.51121 -4.43207 -22.09097 5.02908 0.51121 5.02908 -24.88674" Lattice="12.898513794 0.0 0.0 0.0 12.898513794 0.0 0.0 0.0 12.898513794" volume=2145.9471268562174 Properties=species:S:1:pos:R:3:force:R:3
H 10.35606 3.95488 11.19636 -0.058628 -0.407286 0.412039
H 10.10926 2.933 12.40936 -0.257569 0.303056 -1.175475
H 4.63691 2.27495 3.41209 0.546699 -0.276461 -0.130962
H 3.28665 2.78019 3.97529 0.625899 -1.53867 -0.80647
H 6.34169 5.58748 12.36176 0.270291 -0.599705 0.040356
H 5.70058 6.7501 11.62326 -0.207985 -0.128227 -0.327695
H 11.02216 7.33181 10.73196 0.574849 -0.163811 -0.838662
H 11.59586 7.6266 9.31689 0.618136 0.971019 -0.700138
H 10.68036 0.57611 3.99575 -0.092378 0.190894 1.184337
H 10.36466 0.09232 2.62881 1.167526 0.028496 0.727077
H 3.71479 7.76409 2.72053 -0.861188 -0.918251 0.0524
H 2.71228 7.16772 3.81592 -0.076784 -0.018462 -0.269995
H 1.40839 11.38706 9.49136 0.346196 -0.634496 0.477597
H 0.76411 10.04406 9.93665 0.630051 0.42263 0.10698
H 2.31658 7.16658 6.63595 -0.119695 -0.491869 0.662583
H 2.96675 8.1688 5.70126 -0.795272 -1.004427 -0.135771
H 2.87733 9.85865 8.94082 -0.4023 0.517259 0.205156
H 3.98465 10.11806 7.8418 0.31807 0.814443 -0.079828
H 6.79718 5.51725 8.27228 0.085917 1.780217 -1.393172
H 7.61044 6.84976 7.72758 0.736078 0.28522 0.569621
H 2.35638 2.49593 11.57746 0.367777 -0.032641 0.477722
H 1.49722 2.98974 10.50636 -0.501642 -0.071291 -0.556363
H 6.29989 12.24066 5.09308 -1.180524 0.023213 0.354184
H 7.76031 12.23046 5.03563 0.673583 -0.009013 -0.717985
H 6.0497 7.95947 2.41699 -0.604594 -0.05942 -0.682396
H 5.59952 7.77198 0.93577 0.056382 -0.455829 -0.920916
H 9.91025 5.6667 5.59645 -0.55302 -0.42589 0.136273
H 11.35286 5.55405 5.10383 1.45917 -1.261883 -1.765727
H 8.88535 6.14022 2.95695 0.774638 -0.531399 -0.552896
H 9.435 6.33304 1.55926 0.124353 -0.454084 0.313238
H 2.78761 10.99136 2.15327 -0.017321 1.220447 -0.089904
H 2.31081 12.59916 1.85184 -0.278527 -2.107222 0.316024
H 4.00508 5.64946 10.44586 -0.870395 0.345563 0.52914
H 5.28371 5.25302 10.02046 1.701244 -1.144362 -0.678419
H 9.63393 0.58672 0.86684 0.133146 -0.83489 0.550237
H 8.21267 0.44249 1.42094 1.818337 -1.777418 0.410324
H 8.11279 11.62006 8.30962 0.588451 0.801664 0.297319
H 7.25986 10.59326 7.67031 0.288134 -0.161333 0.312595
H 4.74216 1.32318 7.79074 0.057679 0.195497 -0.364268
H 3.95055 2.5783 7.23246 0.244076 -0.00447 0.782753
H 11.98956 5.51826 10.16856 0.055812 -1.283445 1.438406
H 12.49446 4.07332 10.06096 -0.288877 -0.051594 0.726718
H 9.75753 0.23031 6.32746 -0.60439 -0.957384 -1.806092
H 10.15256 11.86686 5.41002 -0.421757 0.253942 0.372365
H 11.40706 1.73892 1.37462 0.645172 0.189442 1.596834
H 11.58906 1.12647 12.88086 0.189349 0.654903 -0.117003
H 7.27207 1.92008 3.02726 -0.48795 0.351613 -0.245221
H 6.77675 0.53838 3.40735 -0.49029 0.017471 -0.083087
H 3.8082 4.57202 1.89603 2.615209 -0.93867 1.180549
H 2.91217 5.76008 1.9159 -0.111061 0.204137 0.218585
H 9.11137 7.8391 12.37656 -0.095202 0.270035 0.861029
H 7.74474 7.52398 0.16965 0.006759 0.061876 -0.170242
H 9.20872 2.2737 7.97749 -0.26066 -0.041151 -0.790978
H 10.40936 2.6134 7.02633 -0.793322 -0.448989 -0.305659
H 12.00706 10.11196 8.31998 -0.375569 -0.399215 2.63622
H 11.25776 10.58236 9.66184 0.430748 -0.089862 -0.427597
H 2.95083 1.88737 2.00846 -0.685351 -0.642918 -0.508247
H 2.00861 2.67919 1.14884 -0.31819 -1.278225 -0.212662
H 5.98763 8.03089 5.49326 -0.033986 0.421792 0.06859
H 5.20378 9.3868 5.60122 0.067987 -0.093685 0.013203
H 11.77716 1.89733 9.54452 2.389212 0.998298 -1.291639
H 12.70526 2.3957 8.19273 -0.449369 -0.408058 1.267628
H 11.74476 0.2799 11.16706 1.75403 0.297476 1.058669
H 0.36513 0.81865 11.27786 -0.027602 0.370797 0.452758
H 7.5846 9.16938 3.10207 0.420621 1.345435 -0.21377
H 7.18328 10.66806 3.25391 -1.67562 1.981295 1.625746
H 5.72462 3.428 8.64178 -1.547968 -1.56421 -1.265129
H 7.16542 3.56324 9.21355 -0.218437 -0.165521 -0.519667
H 4.32671 3.75216 11.73366 1.993864 -0.98166 0.207836
H 3.35664 4.51257 12.64296 0.027628 0.096273 0.281178
H 2.08413 7.38913 8.87435 -0.042386 0.921988 0.428006
H 1.41149 6.11544 8.35009 1.458302 0.61008 -0.579499
H 7.75259 5.0078 6.18428 0.1418 -0.628662 0.187194
H 8.88057 3.76594 6.3463 -0.780258 0.177773 0.252321
H 5.94063 5.61316 6.25855 0.887081 1.382716 0.137319
H 5.41263 4.94164 4.84572 0.471254 0.318541 1.443797
H 5.36392 12.00086 1.21347 0.183603 0.079231 -0.54338
H 5.89602 0.46491 1.29232 0.602367 1.481798 0.829031
H 6.02625 5.67358 2.94591 -0.610322 -0.097292 0.044193
H 6.55569 4.28103 2.87206 -1.666226 0.227318 0.426589
H 11.31576 5.98604 2.76615 0.183057 -0.109815 0.386231
H 12.65366 5.29321 2.5892 0.541255 -0.411929 -0.52594
H 1.93589 3.64324 6.20706 -1.311994 -0.539628 0.079189
H 3.09674 4.65142 6.00819 0.03917 -2.501938 0.787608
H 5.97514 10.20166 0.11549 -2.461674 -0.928532 -1.641207
H 5.59071 9.50601 11.62336 -0.396055 0.552518 0.444808
H 11.94956 11.66356 2.73992 0.65277 -0.646782 0.198786
H 0.54905 11.15356 2.43185 -1.536106 -0.497144 0.514585
H 11.26086 11.43586 11.88206 -0.286877 0.626066 -0.814588
H 12.09806 11.07646 0.14769 1.004138 0.268373 0.872414
H 8.32719 10.57646 10.98886 -0.023125 1.019735 1.086595
H 8.81977 11.92936 11.65146 -0.323292 -0.588001 -0.273584
H 8.4997 3.9607 4.18362 -0.44844 -0.263891 -0.65489
H 8.70743 3.9736 2.56104 -0.270143 -0.234643 1.267374
H 0.32808 0.1294 5.59439 0.657716 -0.926411 0.545316
H 0.02075 11.51926 5.98515 0.951534 0.936286 -0.431529
H 2.48486 8.25459 1.07663 0.045396 -0.594973 1.05977
H 1.10401 9.08605 0.95138 2.072842 -1.495306 -0.639031
H 5.83096 12.04006 9.20357 0.064112 -0.188477 -0.261989
H 6.09604 12.12336 10.78056 -0.629712 0.316352 -0.957435
H 11.25446 9.03292 11.97326 0.050354 1.662696 -0.364819
H 11.59246 7.90174 12.86386 -0.761295 0.031665 -0.362539
H 9.44573 7.58239 9.69362 1.190786 -0.478913 -0.20227
H 8.82634 8.76016 8.86464 -0.01268 -0.504119 0.469321
H 12.28616 4.31013 0.36003 0.812144 0.123847 -0.127514
H 0.8316 4.92477 0.51272 0.164715 0.361445 -0.466579
H 4.42274 10.76256 3.50146 -0.485898 0.681147 -0.250049
H 4.92148 9.81191 2.46698 0.350452 -0.914924 -1.129961
H 11.72626 7.54282 5.68584 0.283689 -0.365489 0.204412
H 0.40911 7.77352 5.79055 -0.286893 -0.004278 -0.044575
H 3.86448 11.22256 5.98931 -0.499341 0.395966 -0.296018
H 2.56815 11.50366 5.13042 -1.150716 0.79076 0.235247
H 6.94418 8.47771 10.27906 0.472263 -0.387352 -0.163476
H 6.4939 9.6198 9.38933 -0.163481 -0.061166 0.646569
H 12.06016 9.01333 1.81508 -0.449898 1.379636 1.002476
H 12.33876 7.46385 2.13278 0.397739 0.52583 -0.382826
H 4.56204 0.1154 12.57056 -0.484573 0.21709 0.367031
H 3.10302 0.80716 12.79876 0.62202 -0.472425 -0.191231
H 7.94128 3.68548 11.89156 -1.173194 0.016221 0.415626
H 6.82099 3.64123 10.90106 -0.529139 0.13398 0.902753
H 8.95375 2.18501 10.17956 0.395454 -0.30298 1.702265
H 7.53977 1.52661 9.66818 -0.556211 -1.159577 0.955596
H 11.91246 5.63182 7.17066 0.838366 -0.11023 0.687451
H 12.75826 4.3506 7.19972 0.050835 0.738979 0.682569
H 11.86036 9.63295 5.76027 0.389852 -1.117807 -0.101327
H 11.72526 10.59436 4.50151 0.407411 -0.399772 0.144207
H 0.63119 0.53591 8.93532 0.152363 0.251761 -0.089698
H 1.30585 12.66586 7.71427 -0.36255 -0.027725 0.733792
O 9.67824 3.35016 11.59636 0.655641 -0.05103 0.664975
O 3.70403 2.03302 3.43168 -0.915709 1.743761 1.104263
O 6.29157 6.54997 12.36236 0.24033 0.799563 0.666249
O 11.09566 6.96886 9.77297 -0.822953 -0.644751 1.609258
O 11.16366 0.21128 3.25963 -1.399648 -0.167814 -2.099767
O 2.86637 7.2445 2.85182 1.089925 0.733965 0.013681
O 1.63279 10.52016 9.99406 -0.640708 0.249496 -0.066162
O 2.43251 7.32314 5.68599 0.818478 1.684373 -0.574044
O 3.37328 9.48021 8.19836 0.150672 -1.613447 -0.071888
O 6.79986 6.35783 7.64404 -0.989156 -2.086877 1.047498
O 1.81708 2.15574 10.85756 0.408223 -0.340965 0.161971
O 6.98565 12.14306 4.43374 0.453485 0.032785 0.525764
O 5.3453 8.20816 1.74428 0.18068 0.185525 1.862286
O 10.80126 6.0383 5.66574 -0.984136 1.401933 1.496141
O 9.54042 5.70666 2.31781 -0.750392 1.378145 -0.060766
O 2.05346 11.61696 1.91224 0.088131 1.017641 -0.436503
O 4.83483 6.06443 10.18436 -0.958047 1.055998 -0.178251
O 9.10317 12.80516 1.39615 -1.849434 2.436962 -0.903676
O 7.89647 10.69806 8.41413 -0.86887 -0.824701 -0.692318
O 4.43619 2.21885 8.02999 -0.126156 -0.131258 -0.235223
O 12.19436 4.69777 10.77046 -0.24556 1.038552 -2.061913
O 9.49033 12.59496 5.50018 0.883361 0.675364 1.703344
O 10.97776 1.69907 0.54088 -0.807186 -0.382952 -1.452711
O 6.52305 1.31045 2.8309 0.948509 -0.02759 0.210414
O 3.01327 4.86435 1.53309 -2.256895 0.67537 -1.484131
O 8.58619 8.0067 0.29572 -0.047955 -0.313136 -0.421119
O 9.43429 2.39444 7.01365 1.392474 0.204705 1.020086
O 11.90656 9.92006 9.33072 -0.150393 0.462101 -2.343372
O 2.2721 1.72055 1.25585 0.940769 1.757171 0.605369
O 5.56905 8.6574 6.12064 -0.098385 -0.313154 0.189483
O 12.69756 2.27399 9.22124 -2.327734 -0.853062 0.216108
O 12.55976 0.42351 11.83086 -1.565294 -0.636199 -1.503437
O 7.78125 10.12246 2.82143 1.68007 -2.994366 -1.605972
O 6.32425 4.04177 9.02632 1.955548 1.420555 1.278757
O 3.50348 4.18075 11.73366 -1.931413 0.948839 -0.066643
O 2.28569 6.65549 8.30547 -1.690145 -1.564059 -0.026984
O 8.52177 4.53874 5.82336 0.676426 0.400794 -0.717314
O 5.41736 4.94917 5.85198 -1.585175 -1.697138 -1.832408
O 5.75529 12.69796 0.6279 -0.317627 -1.674151 0.24431
O 5.64734 4.76492 2.93395 2.160518 -0.309092 -0.181874
O 12.26986 6.05954 3.02446 -1.08881 0.374827 0.184245
O 2.88213 3.6721 6.26066 1.412888 2.768012 -0.975927
O 5.1607 9.88033 12.44516 2.50675 0.752064 0.823156
O 12.48426 10.82256 2.66216 0.867527 1.047376 -0.621815
O 11.30846 10.81266 12.59916 -0.891248 -0.93353 0.075982
O 8.2479 11.14126 11.80806 0.129984 -0.602153 -0.932709
O 8.22885 3.53351 3.31534 0.29461 0.357241 -0.653431
O 0.77483 12.19836 5.9279 -1.334475 0.172447 -0.059849
O 1.98722 8.81572 0.50197 -1.907014 2.078182 -0.652577
O 5.56043 12.47876 10.02036 0.890395 -0.048255 1.666899
O 10.98006 8.13362 12.08546 0.706984 -1.635414 0.793806
O 8.62018 7.95191 9.38364 -1.336143 1.13507 -0.59619
O 0.20908 4.30779 0.88724 -0.874107 -0.600182 0.588138
O 4.52278 10.68136 2.52409 -0.125668 0.502155 1.183438
O 12.43676 8.01415 6.16019 0.185969 0.759976 0.045713
O 3.32404 10.94396 5.22027 1.546529 -1.479505 -0.500635
O 6.1695 9.02737 10.10346 -0.165938 0.206465 -0.661672
O 12.38896 8.20818 1.4531 0.145116 -1.692528 -0.505343
O 3.64668 0.23143 12.18966 -0.818544 0.184779 -0.273999
O 6.92263 3.70875 11.87796 1.527971 0.07035 -0.971722
O 8.30184 2.04962 9.508 -0.274296 1.985438 -2.544729
O 12.65666 5.21653 7.69651 -0.562366 -0.439938 -1.107117
O 11.53096 10.48506 5.45389 -0.482101 1.507264 -0.183284
O 1.28269 12.73966 8.71325 0.390186 0.008859 -0.843428
Na 4.77768 7.49496 8.32346 -0.005744 0.194494 -0.126525
Na 8.95429 10.28146 0.96378 0.103604 0.19929 -0.173446
Na 2.92586 10.63176 12.26526 0.005053 0.068375 0.059742
Na 3.65504 0.66472 9.95009 -0.669016 0.299856 -0.093999
Cl 7.33422 7.35495 3.74492 0.056304 -0.483712 0.476173
Cl 10.22306 12.84696 10.06136 0.277073 -0.479619 0.035835
Cl 5.18185 12.02676 7.20348 0.397703 0.058154 -0.022323
Cl 12.75856 2.40243 6.34046 -0.175451 0.159694 -0.460605
200
energy=-1089.25387874 config_type=nep2xyz pbc="T T T" virial="-15.22379 -3.10483 -1.18796 -3.10483 -21.82641 -2.73751 -1.18796 -2.73751 -25.07425" Lattice="12.913976669 0.0 0.0 0.0 12.913976669 0.0 0.0 0.0 12.913976669" volume=2153.674135134768 Properties=species:S:1:pos:R:3:force:R:3
H 9.56222 4.33263 12.5287 -0.686115 -0.129801 0.699833
H 10.3717 5.0667 11.7061 0.484899 1.177555 -0.430149
H 2.96394 5.10527 6.65878 -0.452609 -0.093601 -0.298118
H 3.60072 3.91233 5.74839 0.06665 0.421312 -0.116436
H 7.33963 5.79401 0.31064 -1.042312 -0.806293 0.171145
H 5.86646 5.9017 0.50707 -1.408093 1.54614 0.381303
H 12.2209 4.77622 7.10005 -1.427643 -1.978579 -0.097765
H 10.9718 3.98992 6.414 -0.240463 0.183177 0.14596
H 10.0722 7.94496 6.1149 0.310214 -0.179502 -0.979769
H 11.1189 7.35859 5.03156 -1.449833 0.700851 0.379571
H 8.70646 3.2407 5.79002 1.494802 1.037485 -0.92793
H 9.92615 3.08153 4.75494 -0.850332 1.100731 0.411155
H 12.1301 5.47894 2.8311 0.109927 0.332424 -0.104943
H 11.6232 4.04011 3.06809 -0.409503 -0.013288 0.169044
H 10.0034 9.25126 8.64457 0.120397 -0.415139 -0.10858
H 9.41988 7.6763 8.70661 0.651874 2.873401 -1.104243
H 3.39226 8.849 9.90098 3.23942 -0.303641 -0.548619
H 2.02978 9.36495 9.29098 0.696185 0.303771 -0.704872
H 11.0344 0.62231 9.00532 1.351922 0.168748 0.192623
H 12.5962 0.34355 9.26357 0.525045 -1.256114 0.265773
H 8.62654 10.0537 1.76189 1.390726 -1.562448 0.123647
H 10.0742 9.51108 2.062 0.24679 0.283138 0.626423
H 4.94953 0.97446 3.55128 -0.461884 0.973151 0.417161
H 5.97336 0.26285 2.65953 -0.015453 0.220042 -0.062028
H 4.80592 10.0927 2.99624 0.680384 -0.097 0.075389
H 6.28519 10.4545 2.61349 0.287583 -0.047525 0.047818
H 12.0879 1.80965 10.9454 0.306675 0.264684 -1.248842
H 11.9688 0.91184 12.0962 -0.074507 -0.319178 0.523429
H 3.07127 0.70992 11.2598 0.60116 0.031113 -0.525037
H 3.00942 1.50608 9.93935 -0.057537 0.165804 -0.228585
H 7.91221 6.51641 6.9479 -0.017514 -0.455093 0.74611
H 7.44404 7.95743 6.60314 0.201257 -1.093986 -0.709621
H 1.07965 5.00762 5.91601 -0.199983 -1.006107 -0.733243
H 1.0465 6.54962 5.86966 -0.59196 -0.578837 0.235585
H 12.6443 6.06516 0.4689 -0.4336 0.564525 1.406799
H 11.3582 6.68604 1.03163 0.255667 -0.035449 0.418896
H 9.42378 5.90404 1.17438 0.137842 -0.348788 -1.068911
H 9.08669 7.40118 1.57248 -0.060691 0.68903 -0.466443
H 5.34763 11.4301 8.36525 -1.052955 2.048208 -1.305805
H 5.01028 12.2557 6.97565 0.565361 -0.370802 -0.300435
H 3.65599 0.4497 0.43061 -0.244483 1.60045 -0.727457
H 3.39876 2.07384 12.90905 -0.296262 0.006022 0.750014
H 3.948 9.68767 5.34468 -0.166297 1.342284 -1.832465
H 3.87371 11.2732 4.90947 -0.078713 -1.078552 -0.760655
H 6.67296 2.41149 5.30863 1.68661 0.470225 2.960623
H 6.74979 1.92662 6.82536 -0.156207 -0.10924 0.406152
H 6.84647 0.85012 8.56948 -0.624657 0.909407 1.832423
H 5.72148 1.47136 9.5646 1.152834 -0.139241 -0.525196
H 2.52036 6.82632 1.45866 0.002577 0.411933 1.447096
H 1.98126 6.98995 0.07769 0.656394 -0.264746 -0.135102
H 7.46242 1.01344 0.93672 -0.424026 0.06023 -1.566908
H 8.12373 1.51157 2.22999 -0.043156 -0.512909 -0.097873
H 5.59864 8.53642 1.62336 -0.486897 -0.780112 -0.93905
H 4.657 7.40087 0.8546 0.577542 0.820967 0.502107
H 0.03597 0.11139 2.65002 -0.540398 0.361406 0.145126
H 11.3658 0.54179 2.65206 0.5234 0.352895 -0.001765
H 1.14332 7.74372 4.06369 -1.16231 -0.409139 0.632358
H 0.22906 8.40341 5.21683 -0.096384 -1.659395 -0.776931
H 12.4008 3.0632 0.55097 -0.449982 -0.588566 0.371038
H 0.01282 4.13798 1.71226 -0.550077 -0.676904 0.02168
H 2.55324 12.664 2.56926 1.514059 -1.74142 -1.657337
H 2.75415 1.28927 2.94588 0.160843 -0.690372 -0.007016
H 2.33338 2.888 7.25146 -1.180635 -1.742144 2.521075
H 1.56563 2.81865 8.71781 1.031477 -0.218385 -0.642428
H 6.03892 6.52755 5.71846 1.61047 0.578992 0.468571
H 4.74023 5.83733 5.74535 -0.646145 -0.552718 -0.209479
H 0.21543 8.901 0.61339 0.506095 0.256927 0.286151
H 12.5397 9.4208 1.93209 -1.840656 -0.038297 1.359744
H 4.06037 4.58539 9.32069 -0.112093 -0.332791 0.185685
H 4.82107 3.91281 8.19923 -0.215579 -0.329762 -1.414384
H 2.61211 9.24874 7.11267 0.259916 -0.359663 -0.384276
H 1.13592 9.88231 7.27937 -1.433612 -0.364812 -0.883209
H 4.44641 7.77659 6.05232 -0.036573 0.595063 0.10732
H 4.98504 8.96381 6.83069 3.014949 1.150545 1.505133
H 9.35839 3.85703 8.61714 -2.380177 3.053763 -3.630673
H 10.6891 3.4096 9.03494 0.293466 -0.061529 -0.366878
H 1.95903 2.79701 4.54834 -2.394272 0.567887 1.409419
H 0.47895 3.14387 4.06183 1.003868 0.199141 2.42932
H 9.78329 10.6894 6.07136 -0.122095 1.378167 0.292394
H 10.2007 12.1932 5.75799 -0.032717 -0.311707 0.341926
H 1.29549 8.64907 11.2179 0.883352 0.290663 -0.020801
H 0.0603 7.77306 11.2552 0.265138 0.074778 0.779252
H 8.90726 10.7992 11.2649 0.087114 -0.114866 0.285797
H 9.50364 10.3597 12.6735 0.006446 -0.462072 0.130485
H 5.92325 1.92433 12.669 0.389622 -0.699356 -0.705177
H 5.95801 0.67744 11.7595 -0.158158 -0.103673 0.027048
H 10.9167 6.74213 9.81226 0.729083 -0.014815 0.181994
H 12.4841 6.42707 9.71188 1.111669 -0.845276 -0.783873
H 7.5318 12.002 5.487 -0.054508 0.170035 0.359138
H 6.2737 12.3269 4.53851 -0.311246 -0.423115 0.875618
H 2.8112 8.93239 3.27935 0.070924 0.501674 0.193335
H 1.42355 8.87345 2.37044 1.25205 -0.595101 0.3084
H 8.13079 6.4932 9.599 -0.620956 -0.123975 -0.004043
H 8.91849 7.30369 10.7494 0.112173 -1.50319 -1.80802
H 4.19172 11.1755 1.50949 -0.285064 0.392686 -0.37582
H 2.83452 10.6547 1.09776 -5.9e-05 0.803064 -0.282131
H 1.99051 7.34511 9.51375 0.782238 1.545395 0.656387
H 1.37342 6.5515 8.35687 0.000307 -0.196123 -0.872806
H 11.81 9.14409 9.68359 -0.270786 0.323437 0.155337
H 10.8778 10.0269 10.6148 0.143326 0.031076 0.319302
H 9.15067 11.8691 9.25123 -0.326236 0.07439 -0.047689
H 9.36664 12.3307 7.7627 -0.093495 0.489463 1.671716
H 5.94666 9.04031 10.39 -0.197288 -0.21149 0.525245
H 5.33703 8.00714 11.522 0.403719 0.941122 -2.151566
H 6.00554 6.94247 9.30713 -0.203969 0.641953 0.36544
H 6.08105 5.42896 9.09084 -0.136096 0.200892 -0.541985
H 7.82204 11.0379 3.96164 -0.030682 -0.252758 0.269495
H 7.76434 12.0031 2.73856 0.306459 -0.675959 -0.07217
H 7.04237 4.78273 2.25038 -0.760752 0.206236 1.497969
H 6.2498 5.11834 3.64325 0.035189 -0.293497 -0.730838
H 1.64158 3.72967 0.14406 -1.499461 -0.424531 0.500487
H 2.66975 4.80338 0.2733 0.418743 0.323389 0.044916
H 1.93348 12.8182 5.08337 0.057681 0.691076 -1.469505
H 1.8697 11.4298 5.69239 -0.453204 -2.793009 -0.793623
H 0.7619 11.9544 10.6801 0.312667 0.315986 0.137589
H 12.8554 11.0435 9.80194 0.585262 0.931946 -0.454429
H 11.5171 10.6162 3.70411 -0.941428 -1.642916 0.000412
H 10.7797 9.17794 4.06519 -0.39459 -1.076108 2.231019
H 9.88499 2.50377 0.31885 -0.235166 -0.786504 3.709021
H 10.5693 2.58461 12.056 1.746962 -0.39215 -1.21754
H 6.66357 10.3311 6.7857 0.068567 -0.250198 -0.56542
H 7.30614 9.65723 8.01706 -1.14458 -0.671386 -1.547644
H 12.1005 12.056 0.34344 -0.299069 -0.402396 0.200249
H 11.0491 11.721 12.0461 0.824909 0.379536 0.800904
H 12.2293 12.18 6.04659 0.025305 -0.395445 0.38223
H 12.0656 0.10425 4.77832 -0.611065 0.148068 0.764934
H 1.84691 4.77581 9.86317 0.054223 0.458401 0.101702
H 2.38353 3.8741 11.0813 -0.223729 0.202775 -1.831101
O 9.80001 5.28673 12.4511 0.055594 -0.657176 -0.320842
O 3.75586 4.58519 6.45034 0.315993 -0.353475 0.377418
O 6.52866 5.24829 0.49513 2.961604 -1.114856 -0.462349
O 11.5976 3.95085 7.17591 1.677491 1.881115 -0.1052
O 10.17 7.69166 5.15161 1.445523 -0.558469 0.409672
O 9.48886 3.76378 5.35092 -0.518398 -1.913108 0.478827
O 12.259 4.70037 3.39987 0.085408 -0.310389 -0.142344
O 9.64512 8.53734 8.08974 -0.893273 -2.235429 0.85995
O 2.5016 8.99627 10.0546 -3.356509 0.147314 1.175209
O 11.9507 1.03724 9.14003 -2.085035 0.940153 -0.601807
O 9.30358 9.33405 1.50127 -1.740392 1.180999 -0.98964
O 5.2793 0.10041 3.32514 0.983365 -1.530984 -0.439047
O 5.49355 9.9852 2.28454 -1.161906 0.276375 0.373899
O 12.074 1.87298 11.8985 0.007278 0.16462 0.404757
O 3.17567 0.61849 10.276 -0.408615 -0.228489 -0.074283
O 7.63969 7.03975 6.20396 -0.315812 1.45815 -0.133454
O 1.10853 5.75251 6.50934 0.350383 1.156671 0.427807
O 12.3031 6.57422 1.26323 0.005548 -0.520351 -1.574689
O 9.34897 6.5319 1.88018 0.033284 0.108126 1.888106
O 4.76876 12.1596 7.8994 0.937415 -1.669932 1.583888
O 3.777 1.2076 12.6918 0.179768 -1.429846 0.686909
O 3.81801 10.3666 4.50473 0.188276 -0.618895 2.199908
O 7.23549 2.48884 6.22187 -1.723122 -0.098089 -3.530777
O 6.68025 1.5168 9.31172 -0.428431 -0.962266 -1.428441
O 2.70354 6.52634 0.57705 -0.615513 0.240436 -1.31894
O 7.61405 0.7676 1.83822 0.407196 0.063652 1.727731
O 5.57482 7.74835 0.97421 -0.658574 -0.021995 -0.132734
O 12.0434 12.805 2.94738 0.523224 -0.874606 0.290485
O 0.38639 7.50061 4.72617 1.289278 2.159856 0.190474
O 0.01138 3.81786 0.79399 1.228969 1.187837 -0.680422
O 2.22968 0.4708 3.04732 -1.943309 2.192248 1.76056
O 1.91958 2.24862 7.97964 0.19639 1.733893 -1.965473
O 5.19212 6.56976 5.28574 -1.230266 -0.153019 -0.274468
O 0.39825 9.46226 1.40959 1.155222 0.00736 -1.57469
O 4.94424 4.28838 9.0534 0.160884 0.124509 1.51729
O 2.0315 9.84832 7.59406 0.976107 0.930296 1.281599
O 4.17995 8.65189 6.52244 -2.824373 -1.749886 -1.777935
O 9.75001 3.34225 9.22328 2.083968 -3.060604 3.914286
O 0.99444 3.02545 4.95494 1.65943 -0.65791 -3.340187
O 9.47378 11.6401 6.14308 -0.0889 -0.879327 -0.398711
O 0.75423 8.16002 11.8488 -1.223345 -0.650661 0.013524
O 9.74429 10.6281 11.7668 -0.349732 0.289232 -0.275257
O 6.53574 1.32344 12.1787 0.135528 0.865516 0.734641
O 11.8323 7.00117 10.0686 -1.789233 1.029948 0.68266
O 6.58599 11.8052 5.35438 0.181797 0.48895 -0.451264
O 2.18065 8.34161 2.862 -1.126814 -0.114948 -0.518279
O 9.03559 6.69774 9.93533 0.072445 1.350995 1.562955
O 3.33961 11.4975 1.11379 0.321716 -1.035801 0.65919
O 1.543 6.54473 9.29682 -0.942319 -1.86953 -0.00242
O 11.5263 10.0609 9.88493 0.267504 -0.658567 -0.520541
O 9.29566 12.6786 8.73829 0.722624 -0.109372 -1.763363
O 5.38055 8.24338 10.5228 -0.244162 -0.471117 1.66734
O 6.50914 6.28503 8.81486 1.018411 -0.397559 0.256682
O 7.83357 11.0443 2.99929 -0.152153 1.267222 -0.790144
O 7.04309 4.70043 3.25804 0.451825 0.361948 -0.589205
O 2.57202 3.87227 12.91103 1.146817 -0.243805 -0.896955
O 1.9958 12.3183 5.8802 0.508861 2.183103 2.302748
O 0.66913 11.7662 9.73762 -1.004076 -1.061018 0.179564
O 11.0774 9.76613 3.40793 1.568597 2.769108 -2.473575
O 9.6715 2.69311 12.3584 -1.851138 0.611616 -2.213056
O 6.78298 9.43405 7.15191 1.067748 1.057278 1.991977
O 11.8633 12.2377 12.3438 -0.473773 -0.207561 -0.802952
O 11.7887 0.07984 5.75437 0.510294 0.144155 -1.464937
O 2.26026 3.91824 10.0452 0.166045 -0.243921 2.155853
Na 8.56814 6.30466 4.20943 0.197442 -0.346676 -0.243135
Na 2.60532 12.0689 8.40663 -0.242419 0.235576 0.113304
Na 12.6485 1.8837 6.89983 0.294141 0.092926 0.027114
Na 8.5936 1.90532 10.4621 -0.502216 -0.206628 0.152213
Cl 7.09202 10.9731 9.99697 0.001046 -0.442491 -0.004593
Cl 12.1162 9.73469 6.40928 0.499231 0.565512 0.141056
Cl 4.22765 2.67989 4.11745 -0.43717 0.393416 0.237339
Cl 10.3653 2.31463 2.58934 -0.202124 0.062491 -0.13363
200
energy=-1087.73945985 config_type=nep2xyz pbc="T T T" virial="-22.90867 8.33454 7.46437 8.33454 -2.34583 -12.62196 7.46437 -12.62196 -11.69838" Lattice="12.750120163 0.0 0.0 0.0 12.750120163 0.0 0.0 0.0 12.750120163" volume=2072.7304775453617 Properties=species:S:1:pos:R:3:force:R:3
H 4.48153 9.20224 10.74659 -0.9544 -0.671409 0.253287
H 5.47645 10.25069 10.68419 0.571499 0.678364 -0.338643
H 2.16015 9.74912 3.03892 -0.292012 -0.059322 -0.209555
H 3.12309 9.76198 4.18472 1.454196 0.251271 1.149233
H 11.82889 12.26779 3.53804 0.052047 -0.240448 -0.352695
H 12.43099 0.00299 4.92712 -0.544921 -0.533753 -0.363385
H 10.84179 9.00979 12.26179 0.160803 -0.129669 -0.556797
H 11.72349 9.8551 11.31249 -0.24168 0.396878 -0.522808
H 3.41205 8.55286 7.43925 2.244628 0.519649 2.986741
H 1.91638 8.90644 6.89562 2.161439 -0.672888 0.080624
H 8.49363 4.10518 8.44727 -0.561816 -0.331716 0.568464
H 8.85408 5.02682 7.34991 -0.615038 2.30746 -1.445339
H 1.48257 3.14196 7.65302 -0.113362 0.093982 0.348849
H 0.35993 2.195 7.12856 0.174894 1.513712 2.051462
H 9.38648 4.15596 1.35142 -0.65113 0.370555 0.340983
H 8.20289 3.74855 2.18294 -0.216326 -0.516852 0.423556
H 0.11597 11.97119 11.39899 -0.363098 -0.129579 -0.32468
H 0.48953 11.54529 10.01089 -0.508641 -0.108657 -0.198796
H 9.86913 2.07782 12.72649 -0.088347 -0.533407 -0.890969
H 10.84059 1.08615 0.86192 0.415538 -0.162194 -0.59004
H 6.96871 5.27999 0.30513 0.164512 0.146595 0.707025
H 5.73625 6.04859 12.37229 -0.178194 0.086626 0.579921
H 5.95706 12.31219 2.62766 0.207328 0.267671 1.152496
H 4.61857 12.67829 3.15564 0.340176 0.021224 0.612594
H 12.31629 3.93576 12.64509 1.188732 0.24645 -0.506914
H 0.59269 2.96715 0.40133 0.519236 1.593257 -1.621705
H 12.69009 7.54638 11.37489 0.965984 1.284205 -0.909527
H 12.16959 6.14855 10.69629 0.367786 1.261899 0.351097
H 10.18999 7.2515 8.7177 0.236451 0.248068 -0.270803
H 11.11839 7.90527 9.77889 -0.008537 -0.269133 -1.058242
H 12.31109 6.11131 2.85415 0.904167 0.837 1.161369
H 12.67589 5.64371 1.40825 0.344789 0.326212 -0.02534
H 10.21559 6.58151 11.67509 -0.440046 0.289811 0.585147
H 8.6681 6.90213 12.15999 1.377326 -0.587163 -0.349329
H 9.55266 0.44207 5.96283 -0.14645 0.279439 -0.284683
H 10.18809 12.35169 4.82576 -0.787204 0.525924 0.277748
H 3.99694 2.71311 8.48134 1.37596 -0.248707 1.466041
H 3.81945 3.94103 7.52859 -0.52083 -1.002783 0.46388
H 2.239 12.11899 1.86318 -1.637875 1.575694 -0.015132
H 3.1468 11.18179 1.47834 0.593264 -0.386989 0.713398
H 6.98773 8.53923 2.23556 -1.274594 -0.071207 -1.792322
H 7.21793 8.11475 3.60541 0.812874 -0.189593 -0.634356
H 7.19647 1.94071 6.82615 1.796289 1.150586 2.434099
H 6.9701 0.72881 6.02128 0.00287 -5.1e-05 -0.222878
H 12.49819 4.9065 6.77825 -0.269656 0.150131 -0.609278
H 11.49849 3.86747 6.79071 -0.637019 -0.969328 0.110867
H 7.97788 2.65836 10.80169 1.404539 -1.174052 0.59236
H 7.92865 1.1943 11.37509 -1.234684 -1.881051 0.536898
H 1.80867 6.08283 3.00056 0.99228 -0.802217 -0.424088
H 3.10586 5.22648 3.13163 -0.111089 0.227509 -0.124206
H 12.71919 8.65942 7.58303 -0.411857 -0.47702 0.38125
H 12.49019 10.17789 7.2091 0.642706 -1.086075 0.303162
H 9.49188 6.30554 4.8736 2.192638 1.300916 -1.011699
H 11.00229 6.28401 4.97706 1.971395 -1.21616 1.558832
H 1.42325 6.0325 10.38039 0.120208 1.332024 1.300012
H 1.8451 5.62411 8.98411 -0.368099 -0.433015 0.081845
H 6.51529 7.91807 7.84332 -0.716235 -0.038877 0.803054
H 5.51026 8.43625 9.10102 0.930165 -0.477069 -1.669479
H 3.38495 6.18013 0.67363 -0.229606 -0.004667 1.085991
H 3.28408 6.83353 12.07199 -0.311812 0.869165 -0.430924
H 3.65764 2.38531 12.48859 0.157806 -0.165037 0.573803
H 3.05632 2.07421 1.1658 1.148677 -0.838998 -1.219467
H 5.3303 9.65796 7.527 -0.054645 -0.413023 0.511961
H 4.57729 11.00809 8.00589 1.004079 -0.616068 -0.610259
H 6.4193 12.17439 11.33339 0.486636 0.169203 0.287761
H 7.79137 11.62359 10.95309 1.190131 -1.315706 -1.052426
H 8.15713 10.66309 6.82023 -0.219229 0.293343 0.045131
H 8.52258 9.13419 6.83027 -0.173641 -0.780593 0.255438
H 10.54039 1.67525 8.07805 0.507097 -0.894953 -0.650947
H 9.84524 2.61303 7.19465 -0.26433 0.26788 -0.711999
H 6.18764 2.60473 4.68024 -0.426769 -1.840764 2.849987
H 7.31391 2.97088 3.77543 -2.093582 0.352123 0.286606
H 1.78847 3.402 2.28328 0.178875 -0.146836 -0.032537
H 2.26092 2.20804 3.17389 -0.41579 0.225356 -1.627963
H 6.40651 3.36195 10.10439 0.285636 0.129783 -0.525653
H 7.21261 4.4571 10.80089 -0.274589 1.560494 1.440102
H 2.77079 11.15519 8.71033 0.936265 1.064787 -0.821332
H 2.31457 10.08779 9.61317 -0.957574 0.296159 0.086808
H 3.14099 5.63874 6.20062 0.961752 -0.432349 -1.062406
H 2.47191 6.59471 7.14031 0.214082 -0.070944 -0.292808
H 6.85778 8.2442 11.57149 -1.544552 0.208094 -1.731052
H 8.03714 9.23826 11.88739 -0.503527 -0.047752 -0.641596
H 9.80775 9.70568 5.46907 0.311012 0.009565 -0.569009
H 10.25219 8.54736 4.62617 -0.219306 -4.210782 -0.249621
H 9.85399 4.62393 10.42099 2.19656 -0.856157 -0.920134
H 10.34969 4.62851 8.94905 0.650407 -0.861237 1.169945
H 11.45159 11.83979 6.80023 0.638194 0.883019 -0.111104
H 10.51159 10.82669 7.24544 1.128543 -0.298761 0.989588
H 2.82168 4.16614 11.19289 0.566761 -0.04008 0.659464
H 3.84265 4.81236 12.18059 0.373656 0.426786 0.117523
H 3.52495 1.68789 5.31964 -0.02945 -1.663165 2.258346
H 3.74221 2.94549 4.69879 0.508872 1.94263 -0.121574
H 10.71979 9.49964 1.7883 -0.679291 0.232891 -0.040581
H 11.95629 8.74274 1.40742 -1.813831 -0.787945 -0.524507
H 4.50978 3.09375 10.64239 0.308903 -0.784242 -0.239731
H 4.8024 1.55982 10.06799 0.159527 0.05053 0.587261
H 5.04295 4.58082 4.45322 -0.74624 0.493151 0.364162
H 4.78475 6.01641 5.02215 -0.797026 -1.0259 -0.583066
H 4.69968 10.68539 5.549 -0.166057 -0.695355 -0.751054
H 4.84224 10.85889 3.98002 0.407598 0.275032 0.280796
H 6.3401 1.77141 2.4586 0.993895 -0.650375 -1.30152
H 5.80148 1.70656 1.08474 -0.036732 -0.390516 -0.68289
H 5.43805 8.6051 5.01888 -0.462552 0.00777 -0.265152
H 6.4855 7.6685 5.6652 0.118419 -0.325083 0.114114
H 5.55426 9.79239 0.95193 1.169679 2.516374 -0.7524
H 4.81632 8.63818 0.71107 -1.024237 -1.648087 -0.654747
H 4.26203 0.34481 6.83453 0.01905 0.022278 0.200746
H 3.05604 0.59591 7.80436 0.493669 -0.228969 -0.715394
H 1.40455 6.59705 5.01671 0.07237 0.11222 -0.089113
H 1.65284 7.92008 4.13435 -0.146162 -0.955158 -0.040778
H 9.19406 10.42399 9.35562 0.777592 0.418652 -1.78262
H 9.70127 9.70725 10.69799 0.252877 0.579237 -0.819479
H 11.23659 0.1812 10.17789 0.853445 -2.061753 1.005647
H 10.11139 1.31504 10.10809 0.433445 -0.541207 0.299275
H 1.12914 9.08019 0.35377 0.015917 0.171828 0.639054
H 0.42766 10.13589 1.35614 0.753271 -1.207939 -0.387472
H 11.61829 4.1133 2.73206 -0.48132 -0.296787 0.48684
H 11.43029 3.82636 4.26381 -0.280958 -0.38402 -0.920528
H 8.96646 1.41543 3.92775 -0.703154 0.151151 0.57532
H 9.80949 2.5274 3.41782 -0.50505 1.090501 -0.091439
H 7.68452 10.14139 2.701 0.939655 0.758394 -0.237115
H 8.58106 11.09619 3.54793 -1.053414 -0.069305 -2.432275
H 2.60944 11.96389 11.33159 0.010933 -0.566213 -0.510116
H 2.70977 0.2618 12.33329 0.044778 0.621703 0.655821
H 1.10748 1.54226 5.47836 0.182178 0.502297 -0.584842
H 1.53544 0.29366 6.19082 0.284431 -0.05607 0.363226
H 7.99784 0.25954 9.12622 0.179357 0.000455 -0.352636
H 6.9461 12.26239 8.36758 -1.742462 -0.922889 0.129685
O 5.41683 9.29692 10.55589 -0.210228 -0.291473 0.169558
O 2.24053 9.46023 3.96 -2.103989 -0.679414 -0.661017
O 11.87089 12.04909 4.49071 0.826968 0.490374 0.679728
O 10.99519 9.20508 11.28959 0.497309 -0.305397 1.579533
O 2.86213 8.46528 6.72574 -4.482189 -0.070509 -2.791235
O 9.12875 4.22772 7.73416 0.621219 -1.838379 0.888456
O 0.53187 2.95799 7.81633 0.16843 -1.592839 -1.470938
O 8.60177 4.53239 1.80983 0.829489 0.448587 -0.963787
O 12.43349 11.68459 10.55959 1.041282 -0.097208 0.910917
O 10.23469 1.84105 0.83047 -0.285562 0.627249 1.132906
O 6.46875 5.43714 12.25749 0.251683 -0.451307 -1.151032
O 5.50988 12.43779 3.50634 -0.675933 -0.210633 -1.790007
O 0.53428 3.7466 12.47219 -1.919104 -2.022219 2.041362
O 12.23819 6.73576 11.48589 -1.474261 -3.040979 0.557601
O 11.11719 7.5074 8.86318 -0.152276 0.343992 1.082959
O 11.97889 5.72461 2.06572 -1.13745 -0.932501 -1.33436
O 9.45747 6.2649 12.21259 -0.845997 0.492265 -0.064646
O 9.3185 0.02694 5.10312 0.853613 -0.722697 -0.015514
O 3.45513 3.05874 7.79571 -1.020575 1.400352 -2.018647
O 2.86482 11.59099 2.32762 0.995599 -0.938605 -1.06919
O 7.73305 8.28635 2.75724 0.022474 -0.445942 2.254764
O 6.66097 1.63403 6.15295 -2.015627 -1.305869 -2.159437
O 11.69469 4.64747 6.2785 0.900025 0.923145 0.027568
O 8.55056 1.87322 11.21629 0.446299 2.921624 -1.254657
O 2.39493 5.41647 2.48621 -0.475062 0.297409 0.274867
O 0.36353 9.3392 7.0372 -0.431213 0.922455 -0.300435
O 10.36449 6.69274 4.44853 -4.238941 -0.148557 -0.616467
O 1.24246 5.39277 9.71904 0.434788 -1.285991 -1.349073
O 5.57987 8.09419 8.136 -0.15479 0.510755 0.875884
O 3.93149 6.57308 12.73529 0.389817 -0.62696 -0.122912
O 3.71557 1.70312 0.44081 -1.134589 0.593371 0.920149
O 5.24743 10.62449 7.38727 -0.569039 1.373007 -0.054881
O 7.36458 12.11369 11.63369 -1.169413 1.049982 1.126749
O 8.86612 10.03119 6.95815 0.730725 1.008052 -0.015446
O 10.40599 1.82319 7.10592 -0.11358 0.335458 1.141985
O 6.26602 3.07232 3.89354 2.59095 1.544885 -3.081734
O 1.88206 2.42342 2.24868 0.406469 0.319825 1.623427
O 7.26098 3.88442 10.05599 0.038944 -1.50771 -1.085709
O 1.96834 10.86189 9.10301 -0.290609 -1.202604 0.91105
O 2.53746 5.63365 6.92974 -1.251085 0.75175 1.210227
O 7.54737 8.45134 12.15189 2.32341 -0.328289 2.402282
O 10.30009 9.45154 4.64909 0.314482 4.334558 0.730397
O 10.66849 4.30874 9.86484 -2.384799 1.638634 0.314655
O 11.44279 11.16889 7.48666 -2.08524 -0.327311 -0.901093
O 3.6032 3.97102 11.76579 -1.102821 -0.174316 -1.347758
O 3.47693 2.07394 4.48037 -0.808375 -0.242003 -1.899929
O 10.90289 8.66104 1.33692 2.337094 0.459671 0.352901
O 5.02964 2.51696 10.01009 -0.383292 0.864823 -0.138644
O 4.28655 5.14833 4.80535 2.051311 0.670118 -0.204544
O 4.5617 10.22409 4.67003 0.346743 0.250695 0.931781
O 6.60853 1.40176 1.5363 -0.906166 0.926042 1.843035
O 5.80255 7.6989 4.9736 0.275489 0.059335 -0.13472
O 5.36266 9.00056 1.38708 -0.19462 -0.799656 1.522191
O 3.33344 0.11642 6.99127 -0.466493 0.261726 0.523515
O 1.18467 7.00381 4.16305 0.025447 1.101506 0.196504
O 8.94297 10.11609 10.19529 -1.615111 -0.315813 2.098443
O 10.92179 0.92342 9.71028 -1.427898 3.197822 -1.198923
O 0.83129 9.2021 1.29896 -0.867634 1.42925 -0.095731
O 11.22209 3.4606 3.36317 0.928065 0.534569 0.846871
O 8.857 2.34885 3.63818 0.786377 -1.043834 -0.253082
O 8.13439 11.02779 2.61272 0.571579 -0.223095 2.567236
O 2.11152 12.28899 12.08589 -0.120121 0.039751 0.256471
O 0.76333 0.86893 6.06449 -0.240632 -0.418695 -0.256257
O 7.77356 12.68039 8.23809 1.491187 0.826758 0.238321
Na 12.71129 3.29944 10.07579 -0.140388 -0.011038 -0.329418
Na 8.68964 0.1098 1.24121 -0.474151 -0.055247 0.012856
Na 0.18815 9.87384 4.95235 -0.432135 0.068856 -0.606792
Na 9.5998 6.87361 2.02003 0.068604 -0.143877 -0.10112
Cl 8.27727 7.18328 6.85238 -0.123547 -0.353814 -0.036635
Cl 11.67479 11.86229 1.37851 -0.045553 0.084145 0.119978
Cl 2.11753 8.61009 11.32449 0.139795 -0.134311 -0.323598
Cl 4.66623 12.35709 10.33549 -0.087904 -0.303598 -0.398499
200
energy=-1087.94617796 config_type=nep2xyz pbc="T T T" virial="-10.90596 0.1712 1.96238 0.1712 -23.25838 -0.79688 1.96238 -0.79688 -18.35797" Lattice="12.889928818 0.0 0.0 0.0 12.889928818 0.0 0.0 0.0 12.889928818" volume=2141.6650880795887 Properties=species:S:1:pos:R:3:force:R:3
H 7.99667 5.37949 5.59201 -1.246286 0.79012 -0.625222
H 8.75923 4.49585 6.4318 0.695271 -0.408488 0.159449
H 10.80845 3.24469 8.56598 -0.487786 -0.415603 -2.213366
H 11.40475 2.87058 7.09722 -1.962583 0.13152 1.435885
H 11.27755 12.50145 2.03973 0.634297 -0.335759 0.835296
H 10.84785 12.65865 0.63148 -0.404347 0.33268 -0.395062
H 10.26935 0.87509 4.74351 -0.508749 -0.394566 0.146788
H 9.34023 12.71775 5.49267 0.919708 0.351236 -0.443268
H 1.40844 7.05973 0.54648 0.025981 2.052948 0.704641
H 1.9052 8.25231 1.47273 0.538698 0.038472 1.744268
H 6.02573 0.05 7.75492 0.081241 -0.191867 0.80545
H 5.49909 0.89223 6.73723 -0.418837 0.848875 -1.513713
H 9.87743 1.24897 2.55031 -0.350685 1.098388 1.20369
H 8.69792 2.07756 3.15804 -1.767665 -0.011335 0.024074
H 3.85616 1.53935 12.44285 0.660885 -0.035546 -0.639258
H 4.76504 2.76402 12.21525 -0.13686 -0.844487 -0.680198
H 10.99345 9.81109 4.26304 0.905548 0.230742 -0.842459
H 9.94787 11.05955 4.44637 0.59282 1.309111 -0.37619
H 7.47364 11.47765 6.81429 -0.122226 0.004206 -0.379561
H 6.90276 11.71045 5.3505 0.940605 0.310065 1.020212
H 3.25111 8.65403 8.79073 -0.519619 -0.226342 -0.036932
H 3.89344 9.63179 7.76662 0.083729 -0.900032 0.579663
H 5.66101 4.03531 6.88661 0.809443 -0.96623 -2.003765
H 5.05803 4.4382 8.03633 -1.585741 0.959188 1.852368
H 6.75471 7.53942 1.95078 0.458884 -0.114643 -1.279344
H 6.92156 8.29329 3.32735 -0.611749 -0.627943 -0.799982
H 4.5378 2.40894 3.07702 4.609113 2.176322 -0.71487
H 3.8317 1.31709 3.65589 -0.458091 -1.045037 0.3008
H 11.25765 12.70895 11.08725 -0.406785 -1.764494 -2.687666
H 10.89305 1.00419 11.89285 -0.691047 1.127189 0.120247
H 7.22391 8.5533 7.60962 0.67714 -0.283308 0.193141
H 5.85829 9.08878 7.93369 -0.448814 -0.092734 0.037363
H 2.59045 4.45702 4.63837 -0.417778 0.061064 -0.922351
H 2.50195 5.85501 4.02774 -0.050049 1.355852 -0.055527
H 0.31282 3.3094 4.28934 -1.323828 -0.286787 -0.178017
H 12.47735 1.96007 3.94576 -0.326508 1.451887 -0.09921
H 1.36558 8.22636 6.36941 -0.129909 0.235652 1.526987
H 0.90445 9.27775 7.52518 0.653476 -1.03168 0.043478
H 2.0341 2.61545 2.02408 0.410819 -0.18799 0.82501
H 0.46182 2.81838 2.17744 0.037314 -0.0612 0.797865
H 8.11914 9.60835 2.53761 -0.118759 -0.246756 1.440824
H 8.02097 10.40625 1.30799 -0.322528 0.273224 -0.252697
H 3.39407 7.13522 5.98925 -0.276583 0.135695 -0.280992
H 4.29161 7.21562 7.16745 1.6246 2.547907 2.37343
H 2.15943 2.5235 10.44815 0.603653 -0.101308 -0.210712
H 0.8667 3.22953 10.84805 0.173348 -0.508809 0.277769
H 12.44295 5.24315 1.51797 0.856216 0.935258 -0.435715
H 0.97965 4.82667 1.22947 1.475546 -1.858939 0.331732
H 1.61333 7.44089 8.72666 0.298894 0.344966 -0.319556
H 1.53312 6.39439 9.86635 1.196618 1.541714 -0.162062
H 2.54744 8.59228 12.04845 1.038068 0.761557 0.262432
H 2.84137 8.50963 10.60565 0.532313 0.51121 0.513537
H 11.72385 9.07681 2.37331 -0.020195 0.404173 0.721284
H 0.16386 9.13179 3.16393 1.495528 -0.399208 0.367285
H 12.49915 6.74 5.59281 -0.074548 -1.072684 -1.462161
H 0.23565 5.99609 4.28321 -1.103447 0.503222 1.217692
H 5.03896 8.78322 11.92755 0.474066 0.114344 0.867383
H 5.43168 9.51511 0.32627 -0.162842 0.27824 0.272387
H 8.40878 5.80099 2.16796 -0.434387 -0.214519 0.389125
H 7.56255 5.61153 3.45662 1.425062 -0.817687 -0.986437
H 3.62015 12.16775 0.63665 0.94127 0.318448 0.357937
H 4.51576 12.42375 12.31295 0.600128 -0.267057 0.749999
H 12.60135 1.27788 9.77086 -0.194856 -1.009234 -2.228591
H 0.1931 1.09984 8.29331 0.496874 -0.017824 -0.453068
H 0.16639 4.94133 12.06365 0.27267 -0.143405 -0.605511
H 12.35915 4.94004 10.70215 -2.370513 0.686761 -1.506191
H 12.33785 12.54765 3.90527 -1.847302 -1.732437 0.865373
H 0.76941 12.75235 3.24218 0.486692 0.052352 -0.739051
H 6.22006 2.41353 3.66032 -0.116206 0.499094 1.169897
H 6.76205 2.26075 2.2272 -0.049037 -0.075491 -0.300525
H 1.3331 11.17105 11.23025 -0.229794 0.528804 -0.510801
H 2.47627 11.90775 10.46645 -1.766006 0.088818 0.044623
H 3.65241 11.42195 5.55287 0.166277 -2.101502 0.406399
H 3.1367 9.9797 5.23702 -1.297276 -1.10187 -1.340115
H 3.22724 4.66132 9.31232 -0.069006 0.909072 0.261033
H 2.95813 3.6497 8.18956 -0.803687 -0.183589 -1.519358
H 4.64114 3.14037 5.24641 -0.960674 -0.695698 0.010143
H 5.73486 4.13475 5.10811 0.547245 -0.501119 -0.485867
H 5.5755 11.58585 10.40585 0.266159 0.109135 -0.553945
H 4.32406 10.73905 10.70055 -0.575156 -1.896388 -0.005032
H 6.09234 6.29967 10.65795 -1.211746 -0.035605 -0.751236
H 4.62087 6.77017 10.37455 -0.663266 0.953371 0.129827
H 11.49185 10.35135 7.96615 -2.073178 1.301673 -0.497484
H 10.54115 10.50275 6.76165 -0.330397 -0.163272 -0.803789
H 9.1235 9.36347 10.45295 0.300804 0.37839 -0.23806
H 8.20416 8.93378 11.53605 -0.044481 1.666427 -0.500891
H 8.53722 7.67396 0.97197 0.376625 1.10999 0.196741
H 8.49533 6.60895 12.75565 -0.318055 0.048887 -0.317659
H 8.60171 11.43565 11.75665 0.288337 -1.071576 -0.620659
H 8.03118 12.38585 12.77715 0.246045 0.530007 -0.806359
H 4.45418 9.10619 2.22936 -0.110631 1.177245 0.561671
H 3.34603 10.25255 2.21966 1.364676 -0.288839 0.185974
H 10.81905 4.10724 0.66537 -1.099255 0.897406 0.539836
H 9.8515 5.3696 1.2319 1.441297 -1.142911 -0.430247
H 7.4665 8.63123 5.10559 0.457363 1.859822 -1.907088
H 8.63539 9.44518 4.46479 2.978375 0.722713 0.465724
H 7.38128 3.56401 0.24456 -0.085836 -0.545323 0.451057
H 8.32239 3.51347 1.53155 -0.54346 -0.627923 -1.111121
H 7.00109 0.12736 1.86872 -0.13409 0.675556 0.456186
H 6.088 11.95655 1.18651 -0.113933 0.484235 -0.086678
H 7.37238 11.14895 9.64996 -1.039851 0.888224 -1.535838
H 7.49805 12.61835 9.26757 -0.583253 -0.240154 -0.538288
H 5.37337 0.20751 3.4787 2.160725 2.095553 -1.650195
H 4.74165 11.76135 3.44087 -0.231406 -0.34211 0.20384
H 9.80178 9.48198 0.9372 0.923606 -0.795089 0.435047
H 11.22245 9.59021 0.26403 0.267726 -0.488741 0.21711
H 5.1104 6.01348 5.75076 1.365184 0.304369 -0.24202
H 5.98369 6.26968 4.44393 -0.104553 0.690649 -0.655805
H 5.54975 4.66662 0.45898 -0.084623 -0.288102 -0.291073
H 5.57049 4.64072 11.75605 0.223496 0.055761 0.526952
H 5.01281 5.72921 2.64422 0.183821 -0.179606 -0.692103
H 3.91813 4.71272 2.59546 -0.178378 -0.182276 -0.169831
H 0.98758 11.16705 9.08582 -0.140807 -0.303987 -0.891006
H 0.8228 11.54525 7.51656 0.136743 -1.244164 1.029805
H 8.65326 0.48198 10.57605 -0.296768 0.495804 0.191589
H 8.34894 1.83572 9.64342 0.146699 -1.005423 0.553332
H 9.23796 6.89172 8.79192 -0.207431 0.012828 -0.538071
H 9.37769 6.33952 7.29773 0.143942 0.406619 0.325466
H 10.89005 5.78918 8.83597 0.146437 0.330513 -0.953281
H 10.05645 5.50282 9.99545 -0.097433 -0.352473 0.329009
H 0.3449 10.71335 0.43031 -0.779765 0.206341 -0.570618
H 0.49704 9.41074 12.72535 -0.133818 -1.044886 -0.193412
H 7.50616 4.48123 10.46935 -0.161168 -1.656809 -0.559817
H 7.08548 3.97658 9.10709 -0.186864 -0.268822 -0.288216
H 1.86515 0.76758 6.54308 -0.93595 -1.062889 -0.225739
H 0.93861 0.36713 5.43945 -0.766382 0.017639 -1.238697
H 10.01805 3.22621 11.18025 -0.338509 0.175748 -0.209736
H 9.29581 2.65807 12.53595 1.420863 0.476355 -1.002457
O 8.90652 5.147 5.73119 0.612359 -0.602924 0.855277
O 10.53945 2.88045 7.64684 2.166372 0.335945 0.45585
O 10.60255 0.0447 1.53411 -0.308045 0.037098 -0.274186
O 10.29885 0.05839 5.29351 -1.0013 0.016668 0.488776
O 1.60442 8.06051 0.60533 -0.735841 -2.001285 -2.31034
O 5.60142 0.91609 7.67285 0.229004 -0.570447 0.775008
O 9.60283 1.88431 3.3134 2.171244 -1.00776 -1.197979
O 4.36161 1.98443 11.72555 -0.077024 0.994424 0.944841
O 10.15385 10.15305 4.58932 -1.546802 -1.378691 1.559335
O 7.57469 12.03255 6.01762 -0.683416 -0.34539 -0.628311
O 4.10054 8.93765 8.46311 0.266122 1.394625 -1.081201
O 5.90369 4.12024 7.78987 0.971689 -0.153909 0.496116
O 6.34153 7.66228 2.78918 -0.527435 0.018608 1.923093
O 3.70906 2.09319 3.11537 -5.050717 -1.019967 -0.148119
O 11.43275 0.2157 11.89065 1.470327 0.968863 2.51473
O 6.4204 8.84805 7.1893 0.299375 0.162085 -0.374428
O 2.41131 4.94235 3.77322 0.363772 -1.247247 0.742561
O 12.31175 2.97065 3.96846 1.977685 -1.084114 0.284412
O 1.17843 8.3096 7.35806 -0.363426 0.669589 -1.582419
O 1.19515 2.70806 1.56801 -0.405998 0.121187 -1.624022
O 8.33925 9.54836 1.6207 -0.325839 0.422629 -1.237071
O 3.88983 6.6001 6.62737 -1.195746 -2.654315 -2.364683
O 1.31334 2.33331 10.85705 -0.847993 0.205585 0.092789
O 0.44599 5.59146 1.21757 -2.29113 0.700535 -0.176315
O 2.09241 7.18101 9.55423 -1.481008 -1.945839 0.508032
O 3.19478 9.00346 11.39835 -1.485099 -1.233268 -0.571997
O 12.14095 9.34822 3.24635 -1.443077 -0.015093 -1.277069
O 12.30895 6.08427 4.85987 1.057822 0.321058 0.045822
O 5.7616 8.8515 12.60515 -0.301315 -0.330782 -0.976505
O 8.32863 5.19371 2.95284 -1.129709 0.796526 0.470522
O 4.52984 12.51015 0.41745 -1.416203 -0.253289 -0.781787
O 12.35295 0.86068 8.86059 -0.204836 0.853294 2.653439
O 0.24789 4.65656 11.12015 1.847038 0.075705 2.01325
O 0.07263 0.31783 3.73907 1.048562 1.776628 0.190353
O 6.52649 1.75893 3.02739 0.726561 -0.374513 -1.025944
O 1.46385 11.87755 10.54535 2.038764 -0.640154 0.789722
O 3.74552 10.43815 5.7761 1.327066 3.207655 1.38301
O 3.36522 3.76318 9.04083 0.878182 -0.833041 1.253238
O 5.593 3.13917 5.10486 0.24025 1.356407 0.176827
O 4.68847 11.59675 10.77515 -0.178752 1.809546 0.279325
O 5.18895 6.01826 10.30565 1.767645 -0.956386 0.622517
O 10.58255 10.76255 7.68428 2.369803 -0.725808 1.233259
O 8.5258 9.78281 11.08565 -0.44275 -1.843118 0.526067
O 8.27521 6.77393 0.80082 0.229011 -1.114546 0.364694
O 8.51041 12.37775 11.89205 -0.647063 0.640755 1.460328
O 4.32676 10.08845 2.32425 -0.997103 -0.654629 -0.672559
O 10.55975 4.68318 1.43674 -0.037873 0.216762 -0.363213
O 7.74614 9.21749 4.2951 -3.439131 -2.354636 2.118092
O 7.92236 2.93744 0.80822 0.733794 1.163986 0.644037
O 7.0097 12.15855 1.46058 0.39495 -1.211169 -0.686355
O 6.92101 11.82565 9.02096 1.871604 -1.101795 2.107658
O 4.82364 12.56615 3.98186 -1.695436 -2.028046 1.580687
O 10.67235 9.00533 0.83106 -0.39277 0.717562 -0.345263
O 6.03521 5.81315 5.28341 -1.255509 -0.473737 0.870977
O 5.90744 4.18184 12.56235 -0.59374 0.544083 -0.121873
O 4.75805 4.93118 2.1364 0.032434 0.523507 0.69638
O 0.80915 10.76985 8.17517 -0.308274 1.688352 -0.482693
O 8.60469 0.87393 9.66202 0.264285 0.711069 -0.550401
O 9.76015 6.95319 7.96517 -0.132743 -0.04141 -0.232212
O 10.79895 5.10191 9.50468 0.211341 -0.463112 1.184243
O 12.77865 10.15405 12.62305 1.170282 1.031395 0.506137
O 7.29742 3.60565 9.98492 0.505103 1.588318 0.704093
O 1.19729 0.05193 6.296 1.65356 1.083889 1.746792
O 10.18395 2.76158 12.00245 -1.153892 -0.616408 1.553117
Na 10.48475 4.27503 3.80826 -0.239702 0.180881 0.121064
Na 0.76221 1.02538 12.65585 0.025337 0.027675 -0.060202
Na 10.27215 0.29473 7.93235 0.253086 0.065297 -0.160994
Na 5.24598 2.23999 9.43307 -0.17906 0.221121 0.153828
Cl 8.20897 6.62379 10.72935 0.217758 -0.258484 -0.145443
Cl 2.32412 8.31377 4.12111 -0.322023 -0.534399 0.054714
Cl 2.34979 3.10498 6.19835 0.15628 -0.141426 0.163182
Cl 1.56749 12.06665 1.47695 0.174383 -0.307233 -0.148917
200
energy=-1089.43663201 config_type=nep2xyz pbc="T T T" virial="-30.81461 -7.41201 10.45149 -7.41201 -13.98037 1.97498 10.45149 1.97498 -12.05237" Lattice="12.620181084 0.0 0.0 0.0 12.620181084 0.0 0.0 0.0 12.620181084" volume=2010.003249945318 Properties=species:S:1:pos:R:3:force:R:3
H 1.99762 10.64325 1.95909 -0.390485 1.064844 0.386974
H 1.648 11.89215 2.93142 0.044569 -0.475597 0.723375
H 8.5818 11.59565 1.33186 -0.644474 -0.789764 0.979701
H 7.93433 12.26215 0.04576 0.120515 -0.09587 0.975742
H 10.58165 9.47374 2.65381 -0.288398 0.01832 -0.249175
H 12.00745 9.21502 2.90589 1.949913 -0.94348 1.488655
H 0.82204 10.26175 5.10609 -0.8548 0.321964 -0.302608
H 11.87865 10.36395 4.73808 -0.602661 1.083246 -0.068808
H 4.92526 2.83081 10.33505 -0.069858 -0.173381 0.462397
H 4.21773 4.01149 11.00315 -0.607744 1.186454 -0.472403
H 2.75154 11.79305 7.13327 0.933345 -1.01053 0.175888
H 2.85406 11.77995 8.62592 0.481912 -0.243601 0.344971
H 0.86393 0.25568 9.21019 0.795549 1.518685 -0.078754
H 1.65588 1.47745 9.91492 -0.21256 -0.255722 -0.258889
H 7.8548 3.12175 5.12611 -2.566801 0.398986 -3.036148
H 9.06196 2.25028 5.50982 -0.988642 1.444061 0.563439
H 3.96241 9.11635 3.83535 -1.252123 -1.650598 0.640026
H 3.74249 10.66725 3.88226 1.049704 -1.353179 -0.299598
H 8.04708 11.05635 8.58676 1.037218 -0.211061 -0.685152
H 9.33032 11.86695 8.26268 0.0225 0.359935 -0.429155
H 5.95491 1.26621 8.23909 0.6885 -1.489962 -1.898061
H 5.43091 2.632 8.55041 0.027027 0.909892 -1.008107
H 11.34515 11.20265 12.23125 1.794854 -0.499565 1.159911
H 11.85005 10.50585 0.99388 0.709919 1.112506 -1.336526
H 2.90561 6.907 4.87042 0.147136 -0.252365 0.268881
H 4.264 7.15019 4.09255 -0.64104 -0.338289 0.376403
H 5.16467 10.33895 11.27035 0.016704 0.410513 -0.446738
H 5.58183 10.92045 9.78252 -0.647799 0.164406 1.420195
H 2.81884 2.49404 11.35745 0.486129 -0.16381 0.004873
H 1.52098 3.16035 11.71095 -0.335333 0.240855 0.11197
H 5.9538 12.32425 11.51335 0.606522 0.447994 0.208655
H 6.94055 1.03227 11.67775 -0.915443 -0.590322 0.232991
H 11.97595 3.07181 11.33185 -0.022518 -0.902984 -0.198922
H 11.49105 4.49769 11.51715 -0.562264 0.800573 0.334004
H 5.18577 11.12585 7.75003 0.540263 -0.423853 0.642327
H 6.02675 9.83744 7.81991 -0.031095 -0.891397 -0.335836
H 2.37973 1.81636 2.9052 -0.495867 -0.115892 -0.111341
H 2.43676 3.31558 2.94609 -1.773443 1.978433 0.60482
H 9.10499 6.11022 1.68475 -0.243705 -0.571848 0.583677
H 9.16308 5.81588 3.21441 0.124011 0.22928 -0.074657
H 0.24521 0.37624 5.19161 1.094177 -0.23815 0.425776
H 11.38985 0.57741 5.45353 -0.779804 0.049969 0.81347
H 11.87505 7.12082 9.9547 2.032688 -0.025893 -0.439203
H 0.19694 6.25078 9.05488 0.591501 0.421281 0.371542
H 10.57615 3.90706 3.59699 -0.52109 0.301658 -0.681762
H 10.88955 2.6845 4.47442 0.153028 0.258876 0.00449
H 10.43165 5.59423 7.24795 1.83189 -0.147839 -0.770092
H 11.91365 5.15109 7.48602 0.367584 -0.098161 -0.246756
H 6.72707 6.02185 10.47155 0.5598 -1.086468 0.271443
H 6.66185 4.43863 10.99485 0.304911 1.488394 -0.898803
H 8.85239 3.12966 11.05025 -0.372096 -0.879827 0.562562
H 9.41896 3.86114 12.23165 -0.046992 0.258732 0.592163
H 9.06957 9.68972 4.21111 0.462454 -0.201267 0.506043
H 9.56325 8.13205 3.9752 -0.254826 1.359955 -0.066101
H 6.52628 12.48415 6.45176 -0.058633 -0.242403 -0.553958
H 7.48399 1.12482 6.33128 -0.474075 -0.394929 0.518575
H 4.33058 5.81329 0.84733 1.968033 -0.450297 -1.240952
H 5.40083 6.57409 0.03947 0.22706 -0.200586 0.058067
H 1.43809 6.92932 11.01835 -0.58974 -0.02187 -0.169435
H 2.90592 7.21562 10.96135 -0.453659 -0.278592 0.428365
H 9.31147 11.09205 12.09385 0.540451 -1.385143 -1.143871
H 9.19236 10.41485 10.61945 -0.877163 0.429881 -1.856412
H 0.22016 0.86205 3.0634 0.019292 -0.032192 -0.357889
H 12.19505 2.00252 2.42651 0.779684 -0.099946 -0.518687
H 4.72047 4.07564 7.92413 0.205571 0.664975 -0.628692
H 6.18147 4.6325 8.03742 0.462521 0.185409 0.331889
H 7.02206 4.09938 1.05674 0.190233 -0.038239 0.047906
H 7.76167 2.74191 0.61772 -1.836665 1.48494 0.708707
H 2.24179 5.50496 12.32755 -0.41156 1.803808 -1.024465
H 1.35175 4.77661 0.76678 -1.356882 0.488604 0.560883
H 8.02712 6.63779 7.62042 -0.566441 0.087429 -0.554419
H 7.5101 7.86031 8.30089 -0.363206 0.342207 0.388559
H 3.94121 0.74976 4.24383 1.443675 -0.101494 0.365689
H 4.94966 0.59563 3.15537 0.035881 -0.0933 -2.510905
H 8.22571 1.29071 3.40502 -0.68324 0.955872 0.689935
H 8.83187 0.78991 2.1705 0.628612 -0.359362 -0.381578
H 3.64701 12.61495 1.44647 0.835886 0.108986 -0.366747
H 5.15221 0.34423 0.69277 -1.182637 0.046215 0.798494
H 11.01945 5.86682 0.33741 -0.192488 0.012029 0.233035
H 10.21615 6.42976 11.71855 -0.116356 -0.855416 0.583155
H 1.90411 6.15454 7.23318 0.05465 -0.233907 -0.207374
H 1.5527 5.3828 5.88304 0.347418 1.471372 0.322295
H 9.86266 9.69936 7.58091 0.835675 -0.470844 -1.529893
H 9.42487 8.40636 7.11388 -0.330431 -0.708529 -0.602725
H 12.44665 2.28069 7.08913 1.509205 0.165375 0.115855
H 1.14599 1.83759 7.8467 0.327179 -0.953347 0.878473
H 6.90602 5.9261 3.2977 2.696547 -3.645483 -1.925051
H 6.34633 6.56336 4.50401 -0.491643 0.616935 -0.767978
H 7.64482 11.97325 3.50785 -0.113765 0.557513 0.300931
H 6.0396 11.44655 3.54965 3.048756 -0.016453 -0.436266
H 3.59518 8.44046 6.19638 -0.351449 -0.332706 -0.769669
H 3.68131 9.62425 7.2377 -0.231593 0.146786 -0.265908
H 0.18306 4.37931 9.4422 0.994622 -0.213682 -1.714365
H 0.75511 3.60477 8.00111 -0.657284 0.328362 -0.07444
H 3.62398 5.32807 8.92753 -0.880034 -0.960207 -0.022116
H 2.33197 4.31501 8.65065 1.382161 0.625517 0.447113
H 7.14722 8.97159 12.55795 -0.017334 -0.279339 0.392929
H 8.46122 9.53592 0.24017 0.158214 -0.314583 0.340269
H 4.7786 7.35821 9.66705 -0.634667 -0.290498 -0.145612
H 3.95996 7.54492 8.39755 -0.266263 -0.086623 0.33184
H 8.79731 3.78473 7.94515 0.052051 0.927183 -0.77447
H 8.38671 4.69545 9.04262 0.180837 0.762817 -0.748275
H 10.44895 8.54965 10.86255 -0.650947 -1.075616 -0.393613
H 9.23699 7.78917 10.26875 -0.622902 -0.01654 -0.02758
H 3.53484 8.78725 12.55235 -0.096103 -0.225376 -0.002178
H 4.38882 9.49518 0.91159 0.127434 0.161277 0.311517
H 9.68087 12.03135 4.31382 0.052821 0.169009 -0.321946
H 10.01635 11.93315 5.77886 -0.1134 0.206052 0.913332
H 0.16112 3.96834 4.33024 1.302196 0.447055 -0.222561
H 0.55137 5.2181 3.64594 0.373565 0.504415 -0.599852
H 10.57805 1.51362 11.63205 -1.163685 0.577891 0.603017
H 11.48625 0.61446 10.94465 0.5733 -2.28056 -2.023393
H 11.27535 12.35975 8.79457 1.054383 -0.683204 0.513707
H 12.15835 11.08295 9.27702 -0.066182 -0.667295 -0.408747
H 1.74951 8.08096 2.1458 0.274142 -1.072089 1.614274
H 1.26966 8.52936 0.8895 0.773175 0.740425 0.239688
H 3.28678 11.78345 11.43885 -0.634095 -0.374055 -0.31442
H 2.15405 10.72305 11.33135 -0.080631 -0.311181 0.094829
H 11.21035 6.57443 3.69796 1.139747 -0.484791 -1.064694
H 10.73495 6.28907 5.19679 0.331671 -0.340521 -0.316125
H 5.39824 5.63915 6.1194 -0.318772 1.41748 0.248796
H 5.86194 7.0489 6.75202 -1.08182 -1.051666 -2.075441
H 0.48307 8.55771 9.07355 0.31615 0.970158 -0.778339
H 1.52381 9.60776 8.38205 -1.810275 -0.278077 0.354834
H 6.29014 1.81301 3.8873 -1.253525 -0.415591 0.344236
H 6.87498 2.63009 2.59492 0.306449 -0.258842 1.494667
H 7.369 2.08528 9.39498 0.664871 0.176402 0.282325
H 8.69962 1.71501 8.76674 0.592597 -0.08606 -0.099771
O 1.92428 11.64105 2.05092 0.711929 -0.655582 -1.355748
O 8.78682 12.06725 0.54012 0.055211 1.024006 -1.696037
O 11.47375 9.60403 2.25905 -1.723357 0.953311 -1.329908
O 12.58885 9.78828 4.99105 1.355688 -1.358526 0.48617
O 4.7717 3.27151 11.19315 0.477093 -1.23589 0.323182
O 3.23564 11.28645 7.87369 -1.234502 1.191169 -0.368825
O 1.53348 1.02085 9.04784 -0.580191 -1.836213 0.837695
O 8.46576 3.00902 5.78673 3.279887 -1.828479 2.615669
O 4.37474 9.92511 3.60556 0.309951 3.034902 -0.510753
O 9.01668 10.96095 8.37401 -1.336698 -0.197064 1.141422
O 5.77077 1.84244 8.95224 -0.410446 0.463646 2.664448
O 12.17365 11.09855 0.193 -2.216405 -0.58621 0.007965
O 3.31999 7.40037 4.14784 0.440202 0.534732 -0.659006
O 5.20594 11.15965 10.71915 0.523064 -0.521416 -0.710136
O 1.89066 2.2856 11.51425 0.002169 -0.259845 -0.011118
O 6.42926 0.34589 12.17215 0.426561 -0.138869 -0.932107
O 12.24575 3.98791 11.21345 0.734428 0.174732 -0.559926
O 5.98746 10.71635 8.17954 -0.657107 1.285883 -0.047628
O 2.97666 2.56345 2.91095 2.134549 -1.347476 -0.595123
O 8.72639 5.53912 2.39432 0.299577 0.126864 -0.542801
O 12.04385 0.59897 4.76623 0.139246 0.426032 -1.419686
O 0.26366 7.00846 9.69298 -3.008502 -0.287062 0.129387
O 11.07625 3.63235 4.3576 0.407682 -0.772535 0.46774
O 11.37685 5.66798 6.84828 -2.454535 0.490608 1.118286
O 7.0894 5.09615 10.36705 -0.746716 -0.524486 0.55088
O 8.93914 3.03501 12.03605 0.650903 0.428094 -0.994824
O 9.19942 8.97991 3.56189 -0.27201 -0.94989 -0.153161
O 7.05121 0.48788 6.94795 0.310864 0.820549 0.149551
O 5.21193 5.66329 0.32693 -2.376494 0.674619 1.267195
O 2.19766 7.00162 11.61845 1.100925 0.652616 -0.826907
O 9.5949 10.29395 11.45175 0.623037 0.961746 2.930305
O 0.33697 1.40444 2.25025 -1.042248 0.290988 0.991784
O 5.58593 4.18478 7.43407 -0.777943 -0.535233 0.070593
O 6.9304 3.1358 1.13021 1.158971 -1.042417 -0.959367
O 2.20163 4.84151 0.37127 2.193923 -2.681363 0.937799
O 7.50828 7.45561 7.41655 0.886229 -0.689867 0.384209
O 4.92846 0.65814 4.08699 -1.174606 -0.009486 2.123018
O 8.98678 0.75524 3.12327 0.526242 -0.592736 -0.257459
O 4.4292 0.59803 1.35444 0.327533 -0.069377 -0.508767
O 10.27075 5.64619 12.35545 0.293655 0.706436 -0.699233
O 1.8275 6.28119 6.2771 -0.637404 -1.148452 -0.529549
O 10.15265 8.9974 6.8877 -0.689605 0.951788 1.966625
O 0.80328 2.49589 7.21893 -2.107561 0.613742 -1.617792
O 6.44507 6.66334 3.50947 -2.580329 3.722017 2.650252
O 7.0357 11.26725 3.28033 -2.988696 -0.822216 0.130545
O 4.14518 8.86553 6.84486 0.513692 0.209754 1.426676
O 0.60392 4.53843 8.50194 -0.739718 0.07607 2.273147
O 3.3342 4.36708 8.83033 -0.448539 0.683834 0.110981
O 7.71113 9.13433 0.72346 -0.324222 0.28135 -0.674726
O 3.89584 7.1036 9.28791 1.285127 0.627485 -0.420247
O 8.73362 4.75801 8.10711 -0.22726 -1.018278 1.360574
O 10.18135 7.66954 10.45455 1.558954 1.094758 0.751303
O 4.43754 9.13044 0.01968 -0.032092 -0.017206 -0.115359
O 9.80318 11.38885 5.02547 -0.185706 -0.7627 -0.911824
O 1.0024 4.48767 4.09324 -1.16878 -0.913255 0.938505
O 11.50255 1.32421 11.53545 0.613827 1.698987 1.49615
O 11.93825 12.00065 9.45524 -0.661287 1.400858 -0.30822
O 1.97375 8.77431 1.54641 -0.985613 0.555602 -1.806247
O 2.31125 11.66125 11.43315 0.666366 0.856705 0.155692
O 10.62915 6.84028 4.40129 -1.433114 0.587008 1.348379
O 5.28264 6.63443 5.984 1.776454 -0.857723 1.783648
O 0.54269 9.4198 8.53512 1.521971 -0.559151 0.222988
O 7.02731 2.33701 3.58412 0.541163 0.929927 -1.499161
O 8.36073 2.12802 9.57546 -1.166154 -0.057552 -0.197918
Na 0.8704 0.43719 0.30352 -0.113755 -0.535819 -0.182182
Na 4.39293 3.02141 0.98336 -0.04942 -0.215491 0.033067
Na 12.12705 8.04468 6.42555 0.003271 0.102855 -0.111696
Na 6.82338 8.93714 2.84881 0.415914 0.084067 0.043263
Cl 2.28506 12.04495 5.17834 -0.226004 0.00133 -0.185853
Cl 10.17255 1.03181 7.14998 0.532749 -0.11865 0.530781
Cl 7.16229 8.20155 10.42515 -0.551967 -0.095416 -0.319187
Cl 12.38945 6.36082 1.96252 -0.099654 -0.087219 -0.162535
200
energy=-1089.70549925 config_type=nep2xyz pbc="T T T" virial="-17.80865 1.74661 -2.34966 1.74661 -24.98633 -3.87799 -2.34966 -3.87799 -4.55416" Lattice="12.658477783 0.0 0.0 0.0 12.658477783 0.0 0.0 0.0 12.658477783" volume=2028.3572612726089 Properties=species:S:1:pos:R:3:force:R:3
H 0.32877 10.07974 7.62426 0.797898 0.11131 0.035507
H 11.51144 10.43284 7.83558 0.561827 -1.578335 -0.186335
H 10.34954 0.14703 10.29764 0.143174 0.695691 0.256393
H 11.26224 0.71974 11.36884 -0.801622 0.603332 -0.530647
H 9.25678 8.5281 4.30076 0.370405 -0.925357 -0.274506
H 10.28864 7.54961 3.62448 0.040757 0.133592 -0.471546
H 7.70739 2.51282 10.52124 -0.02299 0.374465 -0.844924
H 8.57394 1.26037 11.04384 -0.524321 0.65841 0.105788
H 4.55979 2.17039 9.76573 -0.096771 -0.311378 -0.64255
H 5.25132 2.53188 8.45057 0.012374 -0.325936 0.327683
H 11.37804 0.04937 7.31954 -1.300036 -0.512751 0.355457
H 10.65274 11.86084 6.29276 -0.486053 -0.029136 0.327557
H 10.43014 5.2507 9.3824 0.175115 -1.355719 0.517332
H 9.76976 3.9978 8.91281 -1.809856 -1.130515 -1.469631
H 6.31067 4.84822 11.55734 0.183625 -1.260938 0.888029
H 4.85671 4.61236 11.80274 1.07304 -1.302688 0.746784
H 5.80573 9.96734 4.62563 -1.212482 0.103107 0.898353
H 4.37495 10.31674 4.20263 0.007305 0.179847 0.766031
H 10.52764 3.65689 5.53815 -0.75738 -1.367692 0.545394
H 10.25614 5.02254 4.86371 -0.556002 0.034882 0.002177
H 3.36388 1.60004 11.74074 -0.189737 -0.785432 -0.533891
H 2.0884 0.76675 11.14164 0.117137 -1.265718 0.194993
H 2.82696 4.59918 10.45014 -0.087445 0.213923 0.368341
H 2.63637 4.98862 11.94174 0.005401 -0.295564 0.077176
H 1.65046 2.248 2.49448 -0.11456 0.252625 -0.057026
H 1.77063 1.23208 3.60092 -0.079615 -0.225949 0.545825
H 8.01317 12.01804 0.42047 0.458842 0.091455 -2.016939
H 8.61679 11.70534 1.77325 1.139654 -0.313622 0.718054
H 1.81535 0.27858 5.58131 0.233644 0.040776 0.206178
H 2.03972 11.61524 4.77934 -0.968295 1.357135 0.055098
H 2.97548 3.3181 1.12961 0.245901 -0.685996 -0.68234
H 2.12706 2.65208 12.52864 0.700183 0.003162 0.930955
H 10.62734 8.09713 12.28154 1.681704 -0.565266 2.925363
H 10.20874 7.53706 10.99604 -0.549012 2.086683 0.436408
H 6.77799 3.92637 2.33075 0.615372 -0.22021 -0.463398
H 5.41784 4.14263 2.83409 -0.488942 -0.285777 0.071058
H 12.52484 2.30716 7.9084 -0.514298 0.726748 -0.431873
H 11.97224 1.26154 8.89203 -1.59293 -0.128057 2.492258
H 3.38985 7.40487 9.65441 -1.636527 0.215089 -0.973115
H 2.8599 6.53624 8.42841 -0.128151 -0.009675 0.277788
H 4.25183 8.25765 6.17365 -0.472544 0.228465 1.366551
H 3.59449 8.00486 7.76979 0.567261 0.661189 -1.631758
H 5.02916 1.97038 2.37057 0.628427 -0.636868 -0.512222
H 3.73838 2.54622 2.87461 -0.10705 0.094093 -0.196133
H 5.55896 2.6579 12.05574 -0.081504 1.853795 0.370509
H 6.09578 1.37694 11.75634 0.756872 -1.043416 -0.37188
H 12.63414 4.56377 10.96324 0.104019 -0.819036 1.584044
H 0.7466 3.54995 11.91694 -0.695893 0.667509 -0.087113
H 1.05942 7.33644 9.56493 -0.584153 -0.003302 0.487759
H 12.64584 8.43321 9.70123 0.23771 -1.028439 0.714164
H 10.21454 7.24569 8.34302 -0.309925 0.003586 -0.186227
H 11.48614 7.16003 9.26974 -1.151803 -0.804708 0.055107
H 7.00493 7.3626 1.40323 0.781574 0.264306 -0.607716
H 6.04773 6.35714 2.15426 0.32351 -1.835754 0.358629
H 2.25346 6.70153 4.81415 -0.431452 0.356432 -0.391709
H 0.95057 6.49455 5.81071 1.736827 -0.509813 -1.146765
H 1.10336 11.27344 9.88596 0.008706 0.067455 1.204608
H 2.49456 11.10004 9.58161 2.590405 -0.752526 -2.589976
H 5.47094 10.49884 11.96204 -0.144628 0.036608 0.223316
H 5.4906 11.61784 0.31535 0.733514 0.960819 0.788919
H 7.79019 5.81298 10.03074 -0.187897 0.006502 0.775152
H 7.20317 6.91839 10.99034 -0.091955 0.500437 0.058357
H 7.46795 4.90631 4.25225 -0.389396 0.100313 -0.64346
H 8.5254 6.07892 4.20922 -0.499346 -0.871725 0.801331
H 8.2945 9.71982 0.82906 -0.634515 -1.427376 0.353412
H 8.85056 8.50387 0.10579 -1.239038 -0.026435 1.137776
H 11.85024 4.40468 7.00677 0.629705 -0.49466 0.107124
H 0.47716 4.3119 7.96757 -1.110053 -1.050795 -1.644738
H 11.56144 10.28264 11.24564 0.246518 0.649707 -1.664168
H 11.48884 10.43134 9.6679 -1.208843 -1.006028 -0.965317
H 12.44844 8.36775 6.80253 -0.242563 -0.956696 0.315834
H 11.64294 7.62749 5.76846 0.325997 -0.635059 0.450714
H 10.75124 10.16604 2.89659 0.502137 -0.277639 -0.282126
H 10.02464 11.18154 3.71579 0.160487 0.706404 0.394392
H 6.2397 12.37284 2.28368 0.678779 -0.133939 -0.25484
H 4.83843 12.52214 2.9069 1.376514 0.253889 -0.22148
H 9.47207 2.51644 2.07835 -0.553586 0.30044 0.23137
H 10.74344 3.12334 2.79955 -0.184229 0.392115 0.265351
H 2.44678 3.73303 8.71301 -0.272171 0.217006 -0.185646
H 1.90707 2.80245 9.8251 -0.15597 0.818641 -0.100565
H 8.76831 7.50023 6.15005 0.293176 0.136131 -0.198923
H 7.70808 6.44634 6.25783 0.156958 -0.139833 0.136328
H 3.10448 10.41004 7.07344 0.170372 -0.422225 0.021661
H 2.55095 11.85614 7.31646 -0.311411 -0.609533 0.018096
H 0.20308 7.71192 0.50768 0.63009 0.368024 0.369322
H 0.93434 7.73344 11.86224 0.2771 0.300357 0.362378
H 6.023 12.23234 5.02405 1.53925 -0.189453 0.24819
H 7.2864 0.38189 5.52118 -0.581637 -0.811294 -0.228295
H 4.05072 4.39546 7.07954 -1.094826 1.188934 0.466682
H 2.97021 5.33856 6.42859 -0.759342 0.202815 -0.459878
H 5.84721 8.49227 8.00053 -0.391774 -0.03075 -0.367017
H 7.37765 8.30709 7.95226 0.410493 -0.554388 -0.529494
H 4.60702 11.51984 10.30204 0.189687 -0.817258 -0.209691
H 4.70738 12.53494 9.27736 -0.009372 -1.584594 -0.779823
H 12.63364 9.27568 2.35742 0.068614 0.191204 -0.395445
H 0.63487 10.76614 2.54185 -0.192023 -1.244979 -0.124662
H 0.85881 4.48715 1.51034 0.470847 -0.659521 -0.455446
H 12.46574 5.50204 1.90378 0.383654 -0.86212 0.762427
H 3.68751 6.97031 11.47684 0.262532 -0.327943 0.129635
H 4.71843 8.18416 11.53314 1.722286 0.050881 0.024126
H 3.40223 7.97795 0.94886 -0.039141 -0.166018 -0.088232
H 4.67891 8.0756 1.85616 1.112221 -0.385955 -0.543469
H 7.56335 1.6561 1.66744 -0.506217 -1.655087 0.3527
H 7.72388 2.4903 0.39331 -0.014149 -0.138631 -1.151216
H 9.29406 10.62854 8.91849 0.038668 -0.643739 -0.098593
H 9.57459 9.3406 9.6242 -0.699041 -1.710862 3.245435
H 7.54181 9.92888 3.15918 0.169334 -0.179172 0.719214
H 6.94626 8.55128 3.29027 0.181093 0.22693 0.580614
H 11.90634 0.05491 4.54646 -1.471588 -0.040861 -0.363676
H 10.85654 0.74024 3.618 -0.330738 0.185757 -0.089122
H 6.85514 2.6586 6.57287 0.141187 -0.086312 0.563743
H 7.47503 3.08545 5.29803 0.394142 1.247755 -1.232056
H 9.12225 2.34247 6.38003 -1.22804 0.270747 0.428371
H 9.98606 1.42023 5.5613 0.698175 1.341115 1.24758
H 8.9123 5.42102 12.12634 -0.404008 0.516819 -0.257222
H 10.08154 5.667 0.56504 -1.116376 -1.104797 -1.238581
H 3.05768 11.69274 2.45511 -1.08564 0.518109 -0.347263
H 3.7278 10.37484 2.07385 0.368262 0.235196 0.389743
H 6.57095 8.73427 10.19324 1.093524 0.723786 -4.961835
H 7.13021 9.17108 11.62704 -1.218515 -1.020609 -1.246211
H 3.23217 1.3108 7.81366 -0.013304 0.188759 0.074358
H 1.60243 1.20338 7.6954 2.089138 -0.523476 -0.943482
H 8.08179 12.38284 9.32328 -0.241558 -0.322169 -1.912618
H 8.80973 12.45304 7.90745 1.398248 0.344338 -0.587906
H 3.27093 8.32533 2.99359 -1.728585 -0.574055 0.985228
H 1.79578 8.56986 3.60936 0.990125 -0.445557 -0.272767
H 11.97674 0.83575 0.8995 1.681423 -1.19608 0.840468
H 10.98854 1.96373 1.22346 0.28686 -0.849592 -0.154642
O 12.16664 9.64872 7.90076 -0.465028 1.826781 -0.368257
O 10.69014 1.02045 10.60944 0.750087 -1.450913 -0.073904
O 9.73968 7.66238 4.41465 -0.457341 0.844606 0.436184
O 8.03646 2.04833 11.29834 0.623051 -0.756585 0.767677
O 4.53717 1.94641 8.8038 0.376801 0.603509 0.720682
O 10.61084 12.04074 7.25285 1.904813 0.66441 -0.537493
O 10.40534 4.22961 9.54629 1.64338 2.286939 1.064947
O 5.75179 4.19371 12.09304 -1.058028 3.18022 -1.719897
O 4.88565 10.15934 5.03428 1.359353 -0.237661 -1.446931
O 10.92664 4.36291 5.03933 1.644117 1.164299 -0.767638
O 2.4907 1.61899 11.26874 0.572729 1.705401 0.047705
O 3.25255 5.09142 11.19964 0.087776 0.449101 -0.029249
O 1.79012 2.19551 3.4555 0.021799 0.264921 -0.482268
O 7.80425 11.90804 1.33262 -1.672975 0.179827 2.16023
O 1.52961 12.47964 4.77472 0.582839 -1.293891 -0.231159
O 2.15197 3.32439 0.60524 -0.503257 0.454598 0.165734
O 10.15634 8.40719 11.55274 -1.284665 -1.407563 -3.634809
O 6.30552 4.51091 2.94174 0.040661 0.374673 0.137421
O 12.51434 1.36863 8.15342 1.993188 -0.718653 -2.107995
O 2.66427 7.36608 8.92608 1.605865 -0.746911 0.885917
O 4.22632 8.49233 7.13718 -0.001164 -0.226113 0.207335
O 4.40178 2.67938 2.16604 -0.891123 0.6039 0.973487
O 5.32471 1.73812 12.17984 -1.252477 -1.517058 -0.239349
O 12.63594 4.15374 11.88364 0.064006 0.368815 -1.784381
O 0.18485 7.50228 10.04114 0.948556 1.620728 -1.150552
O 10.51564 6.85592 9.17059 1.055248 0.381523 0.146215
O 6.2133 7.2524 1.91846 -1.044555 1.46935 0.761291
O 1.73509 6.01953 5.28983 -1.404222 0.354471 1.532908
O 1.99429 11.36984 10.29874 -2.545043 0.617992 1.83049
O 4.89067 11.10984 12.45774 -0.803605 -1.202502 -1.409513
O 7.68859 6.08303 10.97724 0.031068 -0.50204 -0.693048
O 8.19195 5.30607 4.75482 0.643246 0.986031 -0.335858
O 8.128 8.72488 0.8088 1.795377 1.632889 -1.842399
O 12.65154 3.85955 7.18739 0.72772 1.532597 1.414802
O 11.91634 10.75564 10.43624 0.844688 0.400778 2.866902
O 12.28994 7.42958 6.48981 -0.335299 0.957542 -0.979531
O 9.88307 10.54914 3.01073 -0.719672 -0.274631 -0.274853
O 5.73147 0.31582 2.83456 -1.74509 0.141201 0.52885
O 10.20314 2.33033 2.70011 0.304486 -0.160304 -0.110043
O 1.7837 3.71154 9.43196 0.708383 -0.97619 0.023353
O 8.10285 7.17799 6.76287 -0.071668 0.034908 0.309053
O 2.30325 10.89234 7.31664 -0.064085 0.735569 0.069549
O 1.0751 8.01694 0.14105 -0.641735 -0.42115 -0.892474
O 6.93767 12.11654 5.41381 -0.888417 0.964485 0.163639
O 3.29267 5.01591 7.28585 1.533085 -1.30215 0.333166
O 6.68113 8.80426 8.39204 -0.298981 0.767815 0.639084
O 4.67983 11.51724 9.32241 0.155618 2.65586 0.818327
O 0.52108 9.8372 2.92058 0.019967 0.663689 0.537148
O 0.31268 4.71458 2.26411 -1.104624 1.400752 -0.224821
O 3.80915 7.93092 11.46524 -2.033156 -0.004062 -0.591836
O 3.96143 8.58111 1.45276 -0.783977 0.922099 0.338474
O 7.69384 2.52679 1.34603 0.759417 1.733077 1.087882
O 9.74975 9.76477 8.8399 0.19783 2.221753 -3.025683
O 7.29023 9.28858 3.86074 -0.334756 -0.188493 -1.335183
O 10.91314 0.11299 4.36001 1.924754 -0.082177 0.511045
O 7.324 2.31054 5.8024 -0.418615 -1.036853 0.834009
O 10.04794 2.15813 6.26161 0.614892 -1.533659 -1.5467
O 9.58649 4.98105 12.65132 1.541578 0.268949 1.405254
O 3.76678 11.11044 2.72738 0.351147 -0.922632 -0.119727
O 6.40903 8.7009 11.07764 0.046674 0.340499 6.237676
O 2.51875 1.02486 7.21327 -2.448556 0.110427 0.942225
O 7.96241 12.31924 8.30353 -0.919754 0.02863 2.658012
O 2.5783 7.9504 3.64319 0.308677 1.02591 -0.360427
O 11.31034 1.35937 0.5093 -1.425062 1.642689 -0.829142
Na 6.42909 11.03234 7.48183 -0.269151 -0.350284 -0.078723
Na 10.48294 3.10458 11.56254 -0.139935 0.284847 -0.04267
Na 0.61439 4.23594 4.43702 -0.118895 -0.139335 0.079053
Na 2.43704 10.05164 12.39104 -0.035071 0.094444 -0.098947
Cl 11.00834 7.30525 1.491 0.553958 -0.078205 0.577098
Cl 7.17509 3.84453 8.82926 -0.325491 -0.293611 -0.432712
Cl 8.39255 11.43864 11.30224 0.079866 0.040777 -0.868846
Cl 1.29641 12.24754 1.27159 0.021815 0.052535 -0.128381
200
energy=-1088.55430034 config_type=nep2xyz pbc="T T T" virial="-6.99824 1.36622 -17.77524 1.36622 -11.39479 -9.63735 -17.77524 -9.63735 -16.54391" Lattice="12.639699936 0.0 0.0 0.0 12.639699936 0.0 0.0 0.0 12.639699936" volume=2019.3439240984658 Properties=species:S:1:pos:R:3:force:R:3
H 12.12689 3.15392 8.39565 0.514222 -0.393545 0.251048
H 1.02529 2.9245 8.61823 -0.373309 -0.403425 -0.001924
H 4.36724 10.00519 11.38339 0.058026 -0.020396 -0.316881
H 5.59509 9.90466 12.34929 0.330222 0.800243 0.42177
H 2.73815 11.32789 10.66319 0.525927 -0.909251 -1.154327
H 2.75714 10.05299 9.59312 0.871086 1.753211 1.205968
H 5.72467 1.53202 6.77764 -0.720063 0.115863 -0.052514
H 7.19678 1.10622 6.78391 -0.806398 -0.762657 0.277336
H 0.21763 5.99807 10.60199 0.381469 0.102116 0.300528
H 0.80186 7.38583 10.91529 -0.005986 0.453313 0.033209
H 2.23013 6.23313 1.35428 -1.421108 -0.642285 1.322609
H 2.04171 6.36102 12.41679 0.735183 0.056533 0.948103
H 2.79299 9.80124 0.74265 -0.891403 0.117936 0.49702
H 1.40105 9.6883 1.45217 -0.831536 -1.256874 1.426093
H 11.41109 1.9405 3.55164 0.478595 0.088859 -0.546962
H 11.64989 0.42696 3.95358 0.519938 -1.712577 -0.935953
H 4.56836 7.66149 2.99838 1.494862 -0.188335 1.53302
H 4.80159 7.82759 4.61369 -0.279017 0.126866 -0.808964
H 8.44666 7.08809 2.65336 -1.06733 -1.151152 0.768554
H 8.32458 6.45726 1.08712 0.176876 1.083069 1.866804
H 6.43619 11.56109 1.69558 0.476595 -0.246743 0.05248
H 5.00214 11.67989 2.19723 -1.82508 0.006576 2.449516
H 2.75693 4.07711 8.23715 -0.320722 0.668842 0.020169
H 3.09744 2.8268 8.82361 1.261118 -1.747601 0.240902
H 1.86816 1.0622 2.798 0.189427 0.547807 -0.06717
H 1.75052 1.97958 3.95564 -1.153595 0.708959 2.409272
H 5.96989 4.38512 8.25999 -0.477136 0.334547 0.466995
H 5.09298 3.66726 9.30614 -0.108665 0.739781 -0.068635
H 5.29385 5.59153 11.67099 0.213249 0.482353 -0.126947
H 4.0028 5.29821 12.50329 -0.566373 0.648711 0.509631
H 1.12753 11.35879 2.95144 -0.154803 -0.000448 0.473956
H 1.47139 11.83049 1.59122 -0.35214 0.249989 0.04229
H 11.55859 0.78276 7.77216 -0.621074 -0.917282 -0.095381
H 10.79739 12.48869 8.68058 -0.357521 -0.251295 0.174238
H 3.44526 0.23661 3.58546 -0.212022 0.047298 0.304834
H 3.25908 11.53089 4.36826 -1.168371 -0.359261 1.374179
H 11.16199 5.21134 0.69646 -0.405993 0.778752 -1.533342
H 10.26779 5.99905 12.18299 1.487019 -0.486723 0.73259
H 5.69734 4.09828 3.87167 -0.609374 0.101034 -0.316245
H 7.03933 3.38306 3.75282 0.260712 0.144168 0.131588
H 5.44401 3.73208 12.31479 -0.118978 0.221917 -0.250469
H 5.27351 3.35933 1.11823 0.089505 -0.280972 0.108351
H 3.24184 2.71798 5.81093 0.335144 -0.282838 0.300027
H 4.15004 3.87645 6.08978 0.561265 2.127822 -0.71927
H 10.63539 8.29637 8.29619 0.266853 -0.426777 1.345001
H 11.45429 9.27424 7.39552 -0.221646 -0.396842 0.24481
H 9.01315 1.3178 10.02019 1.280602 1.283986 0.732142
H 9.42635 2.75014 9.59286 -0.271433 1.096989 -1.206086
H 0.57243 9.77534 9.08318 0.417664 -0.536485 0.669811
H 1.45748 8.75096 8.15005 -0.727275 0.31605 0.791285
H 8.46271 6.35886 8.36859 -0.359631 -0.080233 -1.014839
H 7.69718 5.89061 6.9957 0.570837 0.426956 1.205584
H 1.83591 2.88284 12.55299 -0.876617 -0.227109 -1.103481
H 1.76564 3.1087 11.03769 1.082259 1.301451 -1.787101
H 11.06729 5.35111 4.24549 -0.809448 -1.957028 -0.602052
H 12.05279 6.26399 4.84135 -0.964751 0.996725 -0.809563
H 11.28689 2.1194 1.01785 -0.260898 -0.31262 -0.295994
H 9.93104 1.69124 0.49244 -0.242549 -0.210446 -0.369917
H 6.89016 7.1995 4.15483 1.711333 -0.738338 -0.053297
H 7.31268 5.70981 4.09281 1.147537 1.376035 0.229437
H 3.02746 0.29999 0.15223 0.731542 -0.244326 0.180955
H 2.16247 0.83061 11.71739 -0.327575 -0.852695 0.633531
H 1.15589 0.67499 8.31823 0.351504 -1.415402 -0.439827
H 0.60325 11.98309 7.76582 -0.393829 -0.144681 0.062544
H 2.24439 11.50089 6.58625 -0.063214 0.764193 1.051178
H 1.45998 10.46549 5.70808 1.802998 1.788981 -0.16267
H 7.85416 9.55298 3.64455 1.279805 -0.497838 1.87759
H 7.80337 9.76839 5.25046 0.561753 -0.939145 -0.984642
H 5.39775 11.32189 4.28053 0.394807 -0.284057 1.019661
H 6.2578 11.60089 5.59411 -0.941846 -1.268028 -0.941332
H 1.03459 7.74932 4.81817 0.063835 -0.19999 0.098236
H 1.6151 6.93394 6.14816 -0.925618 -0.060617 -1.41808
H 11.67739 11.74669 2.20035 -0.173197 -0.437393 -0.31329
H 10.82959 0.01263 1.405 -0.348959 2.27469 -1.403086
H 4.10487 8.02898 9.45806 -0.189344 0.448373 -0.469855
H 3.70017 7.03308 10.38169 0.23908 -2.258318 1.495218
H 4.70927 8.45042 0.39828 0.951752 0.598747 -1.129817
H 3.64109 7.72759 1.01498 -1.230335 -1.028289 -0.104095
H 0.8574 6.1853 8.09365 -1.365068 -0.369215 0.129047
H 2.19817 6.4625 8.64821 1.018082 0.485479 1.483002
H 9.83356 0.73394 6.52757 -1.389194 0.926041 -0.718054
H 9.21436 1.10915 5.13883 0.228677 -0.466758 -1.872148
H 9.85519 6.01898 9.66545 0.082135 -0.552734 0.419375
H 9.42152 7.34434 10.22979 -0.499065 -0.098192 0.570242
H 6.62337 4.20752 6.2685 -0.222096 -0.247536 -0.922798
H 7.97714 3.98232 7.03596 0.883296 -0.221044 0.470238
H 1.24911 5.6417 3.39916 -0.105056 -0.313684 -0.697352
H 0.53875 4.75908 2.22615 1.447079 0.793362 0.85742
H 3.56344 4.61998 2.3079 0.715914 -0.451264 -0.151511
H 3.54398 3.18524 2.67387 -0.095376 -0.741166 0.10531
H 10.31279 3.994 7.66377 -1.452735 0.059379 0.32511
H 9.51014 2.96345 6.77055 -0.316013 0.088155 1.502166
H 4.91691 6.57219 7.86555 0.031405 -0.315229 0.059338
H 5.01333 7.81153 6.97444 -0.591574 0.689685 -0.62835
H 5.06285 1.41177 10.33859 -0.208138 -1.045604 2.736048
H 5.7708 1.5234 9.0888 1.236421 -0.319639 -1.286849
H 7.55112 3.65935 0.28795 0.567106 0.869092 0.786824
H 8.63019 3.98367 1.44497 -0.98527 0.5404 -1.638613
H 1.06181 9.6646 11.98349 -0.362298 -0.51358 -1.134588
H 12.27219 9.37528 11.83729 -1.026064 -0.485563 0.228337
H 8.75403 9.44774 7.67171 -1.451552 -0.902981 -0.293867
H 7.66447 8.26394 7.4801 0.725643 -0.51279 -0.244704
H 7.07649 1.43887 0.26766 0.522099 -0.144133 0.31728
H 8.01885 0.41625 12.22549 -0.20476 0.858371 1.727842
H 0.1527 12.53079 12.10879 0.938424 0.389226 1.166214
H 12.29749 11.44359 11.25829 -0.224127 0.194402 -0.3645
H 8.13103 8.94178 1.70274 -0.597266 1.011374 0.054758
H 8.73965 10.28939 1.93713 3.07656 1.815414 -0.040908
H 4.81565 11.63759 9.26279 0.94775 -0.235665 -0.307656
H 5.87768 12.09079 8.15674 -0.19931 -0.056384 0.140754
H 3.13831 9.50966 5.96176 -0.435419 0.042697 0.247719
H 4.50124 9.6578 5.47765 1.067995 0.507889 0.091404
H 9.31169 2.08425 3.40333 0.139773 -0.085317 -0.416908
H 8.41675 1.44233 2.23836 0.08705 0.339347 0.861811
H 8.36747 11.38159 10.49699 -0.257755 1.403522 0.568451
H 7.14169 12.10189 9.90322 0.703183 0.576671 1.50588
H 5.27785 0.26414 0.17067 -0.357991 1.132994 -1.184409
H 5.21353 1.85919 12.32299 -0.040266 -0.920263 0.64615
H 6.18479 5.97017 9.96741 -0.702874 -0.651508 -0.615419
H 7.40861 6.40023 10.57619 7.98148 -1.030281 -0.326451
H 3.20093 5.63126 5.38191 -1.685567 0.386212 0.113631
H 4.54523 5.90516 4.82043 0.042077 -0.369801 0.35912
H 11.24949 10.22899 4.68318 -0.183437 0.689394 0.719211
H 9.90796 10.74939 5.11911 -1.381311 -0.175916 -0.211572
H 10.99199 10.29449 0.79273 0.478462 0.736379 1.006741
H 10.31079 9.38207 12.51699 1.292726 -0.82823 0.933647
H 0.28386 1.54653 5.50034 -1.721488 -0.013186 0.125038
H 1.02381 2.83552 6.26377 -0.736484 -2.173086 -1.191901
O 0.14861 2.42614 8.51486 -0.664226 0.405144 0.077723
O 5.10966 9.44216 11.67159 0.441513 -0.391347 -0.86708
O 3.30687 10.78619 10.03209 -1.401526 -0.473998 0.443627
O 6.27816 0.78707 7.041 1.745339 0.697213 -0.600806
O 1.05154 6.45232 10.83889 -0.215649 -0.422545 -0.001449
O 2.70095 6.38762 0.55401 0.226117 0.329619 -2.600636
O 1.87164 10.18699 0.81277 1.846923 0.515637 -1.712825
O 11.33189 1.25713 4.2256 -0.836909 1.535706 1.565699
O 5.12722 7.35211 3.81102 -1.318574 0.421267 -0.694051
O 8.58882 7.21823 1.71046 0.560363 -0.257611 -2.485923
O 5.51772 11.63989 1.43696 1.192947 0.189479 -2.810593
O 2.40963 3.46345 8.90042 -0.359615 1.089528 -0.041316
O 2.25383 1.90215 3.17643 1.127836 -1.3034 -2.444565
O 5.25808 4.57183 8.93859 0.600897 -0.741532 -0.291927
O 4.46723 5.08687 11.69299 0.536318 -0.91497 -0.544853
O 1.00662 12.14919 2.40349 0.270733 -0.037964 -0.302533
O 10.97859 12.60529 7.74076 1.082363 1.557637 0.002861
O 3.72998 11.95639 3.67359 1.71546 0.591813 -1.899318
O 11.16849 5.94735 12.63839 -1.225598 -0.524749 0.71582
O 6.60603 4.14951 4.18177 0.372969 -0.484856 0.059509
O 5.76935 3.05704 0.31643 0.004717 1.053626 0.146714
O 3.96496 3.0122 6.39341 -0.794123 -2.787277 0.678501
O 10.70359 8.65272 7.43077 -0.282781 0.6971 -1.877806
O 9.66634 2.08363 10.21219 -0.982854 -2.657662 0.423932
O 0.76571 9.44261 8.20362 0.276486 0.009132 -1.352036
O 8.26856 6.59529 7.42799 0.142239 0.260288 -0.094236
O 1.31778 2.67638 11.72849 -0.295882 -0.889726 2.566367
O 11.18679 6.27741 4.30295 1.687657 1.177646 1.297075
O 10.86549 1.42525 0.44454 0.144006 1.034852 0.514546
O 7.75195 6.64218 4.21194 -2.539376 -0.990267 -0.284362
O 2.22155 0.048 12.33279 -0.313996 1.048917 -1.145634
O 1.40303 12.35589 8.15004 -0.111831 1.43951 0.251226
O 2.27902 11.10049 5.71879 -2.387695 -2.475819 -0.714155
O 8.31903 9.27233 4.54764 -1.619046 1.646285 -0.771924
O 5.8893 10.85619 5.01622 0.301369 1.679607 0.121696
O 1.2243 6.86234 5.20574 0.658032 -0.277565 1.179412
O 10.86109 11.75659 1.65998 0.478988 -2.334958 1.657928
O 3.35547 7.82555 10.04059 -0.17924 1.557481 -1.303915
O 4.21485 8.46641 1.20923 -0.313995 0.269631 1.786139
O 1.74755 6.3884 7.82583 0.420634 0.098041 -1.61224
O 9.12662 1.30955 6.04595 0.788643 -0.592863 2.914787
O 9.19016 6.38183 10.29819 0.744839 0.624424 -0.762316
O 7.10286 4.39419 7.07299 -1.274399 0.175474 -0.129916
O 1.39261 5.25167 2.50268 -1.239019 -0.39945 0.438412
O 4.18294 3.84878 2.35916 -0.846765 0.967824 0.251439
O 9.41026 3.52733 7.61316 1.765919 -0.734214 -1.860677
O 5.23075 7.48258 7.84032 0.548182 -0.248322 1.159059
O 4.92194 1.67707 9.45818 -1.328941 1.483093 -1.449192
O 8.13941 4.37582 0.65146 0.784875 -0.905376 1.147665
O 0.41175 9.33348 11.26709 1.410298 0.937237 0.809409
O 7.78161 9.22734 7.52239 0.868156 1.405704 0.288797
O 7.90837 0.9593 0.4698 -0.111219 -0.723952 -2.004622
O 12.15309 12.39369 11.42739 -0.315943 -1.322024 -1.090833
O 7.91163 9.90338 1.94208 -2.428309 -2.767489 -0.161767
O 5.75665 11.53229 8.94891 -0.438819 -0.123568 0.341385
O 3.96063 9.00644 5.93852 0.228728 -0.695318 -0.41213
O 8.41051 1.85367 3.14759 -0.491257 -0.108999 -0.600478
O 7.90113 12.28929 10.58699 -0.380398 -1.749427 -1.877252
O 4.99548 0.91387 12.06949 -0.110414 -1.394018 0.652568
O 6.55689 6.52206 10.65719 -7.571854 1.585015 0.80449
O 4.09125 5.35479 5.51204 1.607989 0.880944 -0.844234
O 10.81979 10.84569 5.34227 1.78865 -0.536743 -0.771332
O 11.05569 9.346 0.59222 -1.995015 -0.197932 -2.087182
O 1.0787 2.02819 5.6542 2.363543 2.298926 0.95088
Na 11.76859 1.80344 10.99329 -0.085747 0.413567 -0.177911
Na 9.49681 7.54432 5.44809 -0.019986 0.08682 0.501191
Na 6.65137 8.99811 9.51393 -0.22158 0.148716 0.200907
Na 10.87559 7.24849 2.00886 0.454763 0.51832 -0.214543
Cl 11.26669 3.69582 2.263 0.068866 0.440072 0.307884
Cl 9.26699 9.45718 10.55629 -0.043017 0.007798 -0.002837
Cl 0.07845 9.05508 3.45151 0.199813 0.211569 -0.01769
Cl 11.52079 5.30603 8.57808 0.2342 0.031119 -0.024159
200
energy=-1091.73205115 config_type=nep2xyz pbc="T T T" virial="-18.25643 5.86432 -7.98319 5.86432 -34.67502 5.29794 -7.98319 5.29794 -21.60727" Lattice="12.660681724 0.0 0.0 0.0 12.660681724 0.0 0.0 0.0 12.660681724" volume=2029.4169048208344 Properties=species:S:1:pos:R:3:force:R:3
H 3.6051 7.96695 7.94652 0.3891 0.50128 0.403388
H 4.50131 7.125 6.88987 1.494638 0.221573 -1.370618
H 7.90306 1.90647 1.88297 -0.771307 -2.304892 1.042731
H 8.37891 0.83788 3.07431 0.138613 -0.243168 0.163033
H 10.54246 5.37421 0.48853 0.516109 0.229658 -0.015815
H 10.80636 4.65323 1.92256 -1.06031 0.209073 -1.397646
H 9.30207 3.44475 7.85459 0.048195 0.278721 -0.518003
H 10.16686 3.397 6.51031 -0.502497 -0.339147 1.090285
H 6.92706 7.43951 10.82796 1.108123 0.460761 -1.718228
H 7.00833 8.56545 9.67353 0.222193 -0.777663 0.604421
H 8.49004 9.23851 4.66665 -0.292817 -0.141049 0.373633
H 7.0932 9.9437 4.34455 1.532662 -0.198419 0.284152
H 10.29946 12.13376 4.11986 1.30151 -0.425117 -0.997229
H 9.12162 11.56776 4.8552 -0.107817 1.195111 -0.41043
H 4.99426 9.55338 9.44654 -2.447452 -1.142189 -0.893585
H 5.46222 10.46476 10.58996 0.600104 -0.450033 -0.974179
H 1.56663 5.68671 9.84207 -0.596456 -0.348476 0.307398
H 2.84688 5.50644 10.49426 1.294135 0.105195 -0.021842
H 1.52872 12.42416 9.91772 -0.746139 -0.806542 1.901208
H 1.99005 11.91116 8.47314 -0.410391 -0.237741 0.198855
H 1.00671 7.69828 4.60912 -0.987661 -0.582636 -0.100984
H 1.84829 8.81352 5.11536 0.243846 0.346937 -0.351128
H 7.40428 0.3048 5.87045 0.283828 -0.073632 -0.200983
H 8.66861 0.42754 6.79794 0.157341 -0.09711 -0.112982
H 1.3286 5.15774 1.3912 -0.435771 1.122114 -0.920268
H 1.76006 5.66932 0.01598 -0.463762 0.175636 -0.425646
H 10.42096 8.58196 12.21126 -0.554754 0.318134 0.300903
H 9.23558 9.04303 11.36536 0.312456 0.366006 1.510824
H 8.13348 12.06216 1.32986 2.250313 -0.496959 -0.837967
H 9.64209 12.48816 0.9415 -0.74023 -0.899352 0.266724
H 9.31715 6.46804 2.32049 -0.571932 0.244387 0.802837
H 8.91245 6.92858 3.81666 0.179142 -0.16744 0.258993
H 10.71726 6.22447 11.28296 -0.634257 -0.284185 -0.192545
H 12.09326 6.47762 11.77416 0.183509 0.065127 0.428004
H 4.41651 9.80309 12.19566 -0.051604 -1.800664 0.182256
H 3.33612 8.71262 12.05526 1.338338 0.065832 0.345015
H 11.27936 3.03375 8.37188 0.281739 -0.568647 -0.011741
H 11.76856 2.23387 9.65873 0.241671 -0.044803 -0.321887
H 3.56719 4.19912 8.52032 0.021021 -0.222981 -0.843147
H 3.26063 4.31936 6.92572 0.269272 -1.441679 1.946221
H 4.79158 9.59151 3.94883 0.051878 -0.337027 -0.196196
H 5.18914 8.30156 4.83714 0.214374 1.702962 -0.135607
H 10.26056 11.13216 11.69596 0.043127 -0.575733 -0.38366
H 10.94496 11.19496 10.21466 -0.375027 -0.245534 0.63501
H 12.37956 8.56182 1.12767 0.028657 0.603335 0.025515
H 0.79537 7.50923 0.90456 0.459226 -0.667949 -0.121848
H 4.94982 12.25386 2.8967 -0.561895 0.609045 0.675665
H 5.87289 0.66566 3.32523 1.573674 1.060093 -0.07537
H 5.47938 2.23762 11.81276 0.096098 0.64505 0.105872
H 3.90794 2.10268 11.48436 -0.918352 0.61745 0.067598
H 4.84545 10.66186 5.68291 0.406167 0.053263 2.217184
H 4.10634 10.80146 7.06402 -1.164577 -0.42849 0.394245
H 12.40276 10.25406 7.54562 -0.536148 -0.415653 0.612356
H 11.81056 9.17639 8.5982 0.079639 1.136626 -0.818892
H 1.29844 9.81252 1.64613 0.294876 -0.745733 -0.545558
H 0.90802 11.11666 2.13893 -1.062852 1.268394 1.029318
H 7.84021 2.6598 3.73643 -0.050716 1.024308 0.93693
H 8.76556 3.38835 4.73089 2.091932 -0.498474 1.03837
H 2.1329 6.27487 7.75429 0.180893 0.638181 -0.127078
H 0.90209 5.42289 7.28124 -0.194985 1.465093 0.86103
H 3.2166 7.48148 1.39009 0.157338 0.456796 1.650292
H 2.5246 7.71126 2.86516 1.827244 0.10139 -0.780171
H 10.07526 1.27486 4.95415 -0.207296 0.552263 0.350946
H 10.90106 2.5767 4.46215 -0.587434 -0.222474 0.493029
H 0.3919 3.63654 5.975 -1.294957 2.233609 -0.375083
H 11.73186 4.46296 6.48157 0.071113 -0.005864 0.071408
H 4.79423 1.40067 9.75747 -0.274776 -0.766317 -0.652042
H 3.63551 0.52746 9.05717 1.568741 0.595764 -0.048076
H 11.74686 1.81809 12.00856 0.0169 0.984317 -0.712213
H 11.31576 3.19869 11.29056 -0.310315 0.223192 0.261261
H 0.586 8.72132 10.34106 0.147649 -0.041903 0.603971
H 0.90547 8.9282 11.89166 0.432894 -0.035377 -0.789187
H 12.21406 12.02626 4.05928 -0.986751 -0.036955 -1.594088
H 11.52816 12.41836 2.54982 0.352867 0.362674 0.172827
H 10.19496 12.32536 8.19566 -0.521362 -1.867581 1.196254
H 10.57676 1.10252 8.04605 0.734899 0.237065 -0.108534
H 8.97883 2.13816 0.29474 -0.189444 0.309942 0.107848
H 7.61623 2.95655 0.41672 0.085214 0.795234 -0.312103
H 4.00851 0.6235 4.75842 0.487808 0.267342 -0.614853
H 4.1741 12.64264 6.13121 -0.585512 1.353382 -0.443985
H 8.72861 12.63436 10.55486 1.563834 -0.736758 0.383781
H 7.57842 0.82941 10.96846 -0.300907 0.246351 0.238266
H 5.05673 4.19493 4.53212 0.065219 -0.109054 -0.574896
H 6.49647 3.82601 5.15761 -0.504152 -0.028714 -0.481872
H 4.78962 9.70198 1.88867 -0.069328 0.161385 0.038593
H 3.46035 10.55216 2.0838 0.289311 -0.02219 -0.146045
H 0.06769 3.68362 2.95038 -0.483466 -0.393477 0.13051
H 11.60656 2.66695 2.38881 0.35669 0.942102 0.460125
H 7.18158 3.93259 8.66801 -0.104903 0.217564 1.384866
H 6.74574 4.86914 7.47884 0.623972 -1.68345 0.615266
H 0.69633 1.28811 5.59743 -0.486225 0.513134 0.215658
H 2.12808 1.78862 5.62786 0.641027 0.125329 0.013187
H 4.30867 6.04467 8.87005 0.621081 0.014777 0.386957
H 5.04454 4.96684 10.13346 -1.494461 1.430289 -1.881357
H 6.2017 8.02355 0.83819 0.120057 -0.05491 0.15907
H 6.97745 7.88169 2.16533 0.080416 -0.356197 0.250075
H 11.33126 9.85326 2.9247 -0.251113 -0.944147 -1.187774
H 11.48736 8.26437 2.77755 -1.129604 1.413762 -0.324017
H 12.11896 6.11692 4.82786 0.006191 -0.48583 -0.000853
H 11.01566 7.1417 5.08787 -0.347366 0.077211 -0.015576
H 6.31562 5.81945 12.05496 0.791524 -2.252453 -0.378206
H 5.30279 6.86616 11.88826 -1.302018 0.743196 -0.270487
H 4.83229 12.57386 11.64166 0.456015 -1.67278 0.889075
H 4.84868 11.42156 0.15909 -0.085591 0.541801 0.654865
H 11.69546 0.08323 6.39625 -1.376015 0.269624 0.899019
H 0.42327 12.07176 6.27954 -0.687394 0.344783 -0.896531
H 8.98543 4.06593 10.70296 -0.32933 -0.002828 0.278146
H 9.68332 5.06954 9.76894 0.281259 -0.04271 0.087832
H 5.35498 4.76145 2.4284 -0.760768 0.060791 0.264634
H 4.28886 5.92093 2.65465 -0.141668 -1.478267 0.581209
H 9.91011 9.70229 7.52715 -0.667623 1.130326 -0.030682
H 8.52944 9.1377 7.64522 0.104616 1.137859 -0.452959
H 0.04439 7.11526 8.69252 0.091437 0.020955 0.124012
H 11.24706 7.30701 9.14519 -1.921572 -0.627658 -0.200598
H 7.61842 4.40411 2.57516 -1.047112 -0.048694 -0.65615
H 7.45133 5.22743 1.31946 -0.379758 -0.232606 0.061993
H 5.70938 5.68933 5.34325 -0.541488 0.232328 0.175584
H 6.66173 6.79808 5.73801 -0.262905 0.46833 -0.141438
H 1.39949 2.41669 11.01486 -0.389824 -0.230875 0.361493
H 2.31429 3.61964 10.61786 -0.380405 -2.300459 0.312054
H 8.73171 6.75736 9.00827 -1.620416 0.99513 0.76653
H 9.6163 6.33388 7.84828 -0.003514 0.030347 -0.003114
H 12.52286 12.14406 11.53536 2.698083 0.847739 0.033718
H 1.16309 11.75726 12.29626 0.399618 -0.151522 0.249936
H 2.65608 9.37022 8.28843 -1.164263 1.24631 -2.436867
H 2.47667 9.06914 9.66391 -0.53546 -0.198123 1.944524
H 2.99566 3.96721 2.66093 -1.35018 -0.134638 -0.726712
H 2.03886 2.75621 2.08111 0.123663 2.346165 0.59655
O 3.77303 7.14072 7.48358 -1.476811 -1.610857 1.086023
O 7.58364 1.23667 2.6893 0.497239 1.520867 -0.153088
O 10.11716 4.89296 1.21182 0.299131 -0.450287 1.860401
O 10.11886 3.77662 7.44163 0.095059 -0.012137 -0.984451
O 7.43232 7.71241 9.96258 -1.034541 0.300857 1.103471
O 8.09751 10.05396 4.31468 -1.207138 0.124843 -0.656447
O 9.50739 12.44576 4.53596 -1.608996 -0.957439 0.999233
O 5.75785 9.96565 9.7595 2.0029 2.017843 1.722286
O 1.92343 5.30451 10.67546 -1.073577 0.158448 -0.187555
O 1.93515 12.65006 9.09981 1.236256 1.209356 -2.222177
O 1.66116 8.31699 4.29769 0.368487 0.27636 0.267842
O 7.69676 0.42586 6.77675 -0.68855 0.07625 0.492824
O 1.11408 5.88918 0.70856 0.91703 -1.55319 1.280018
O 9.67677 9.23468 12.25146 0.123817 -1.126178 -1.891076
O 9.03629 11.68766 1.00697 -1.69049 1.404274 0.728296
O 8.67424 6.98887 2.87824 0.206628 -0.10769 -1.629194
O 11.17126 6.57048 12.05896 0.365698 0.405275 -0.361199
O 4.28945 8.80934 12.35916 -1.725592 1.534746 -1.009348
O 11.84926 2.26619 8.65908 -0.159893 0.591213 0.429445
O 3.33775 3.65489 7.70167 -0.420234 1.727997 -1.064331
O 5.26164 9.32005 4.75684 -0.176117 -1.374237 -0.466856
O 10.56546 11.69586 10.96486 0.437949 0.72435 -0.414062
O 0.64786 8.47127 0.83046 -0.668106 -0.105064 -0.029287
O 4.97474 0.41051 3.47145 -0.866328 -1.927861 -1.316278
O 4.78044 1.71481 11.42056 0.509178 -1.501478 -0.107633
O 4.8974 11.07976 6.62714 0.859608 0.522596 -1.853054
O 11.61676 10.04786 8.11862 0.466863 -0.838003 0.491995
O 1.5949 10.73326 1.62456 1.110043 -0.08186 -0.484977
O 7.95215 3.51396 4.29643 -2.554844 -0.683699 -2.120209
O 1.17929 6.18144 7.92283 -0.037061 -1.936698 -0.992789
O 3.41627 7.64612 2.35582 -1.551648 -0.601605 -0.581557
O 10.21606 2.2486 5.11447 1.028036 0.469125 -0.677281
O 12.56456 4.59901 6.00543 1.712772 -2.416939 0.374623
O 4.59995 0.86186 8.93408 -1.094674 -0.066466 0.196082
O 11.93816 2.4619 11.25926 0.515617 -0.757629 0.053876
O 1.27451 9.05186 10.96056 -0.575703 -0.176825 0.17984
O 11.74966 11.71486 3.19016 0.973054 -0.387175 1.63684
O 10.44826 0.27738 7.54378 -0.257664 1.328621 -1.208757
O 8.01783 2.08464 0.46968 0.468149 -0.217689 -0.482066
O 3.85191 0.85242 5.68739 0.018556 -1.229965 1.658083
O 7.87944 0.25512 10.26286 -1.236933 0.275048 -0.79107
O 5.53018 4.01461 5.35893 0.437598 -0.128767 0.424706
O 4.44695 10.59456 2.10629 -0.258522 -0.049984 0.020236
O 11.77956 3.43596 3.0224 0.200411 -0.260708 -0.253267
O 7.02861 3.93675 7.7327 -0.731932 1.28808 -1.842393
O 1.22443 2.13148 5.6959 -0.168752 -0.183833 0.314474
O 4.19642 5.423 9.63101 1.769213 -1.447916 1.220935
O 6.47139 8.51257 1.63562 0.147516 0.497954 -0.069648
O 11.07156 9.07634 2.32482 1.210534 -0.516767 1.761619
O 11.69196 6.89115 4.43928 0.484018 0.313737 -0.209862
O 6.18784 6.73754 12.19056 0.370765 1.662815 0.530616
O 5.08841 11.61026 11.90726 -0.330051 1.173753 -1.146542
O 12.40816 12.62996 5.77157 2.03747 -0.825102 -0.55278
O 9.85299 4.43994 10.51226 0.319655 0.019613 -0.279973
O 4.45142 4.92741 2.84684 0.811884 1.433409 -0.638707
O 8.95992 10.02166 7.49954 0.372623 -1.816542 0.604536
O 12.12696 7.57766 9.34261 1.62132 0.736408 0.10485
O 6.98003 4.51793 1.79851 1.407631 0.215433 0.813269
O 5.70223 6.65838 5.55299 0.873965 -0.002689 0.288187
O 2.30001 2.56135 10.69316 0.284909 2.755182 -0.582341
O 9.61336 6.47905 8.81421 1.519218 -0.703061 -0.646359
O 0.89309 12.37756 11.60696 -3.319907 -0.667539 -0.35144
O 3.18045 9.18138 9.03335 1.534401 -0.510088 0.565961
O 2.04325 3.74242 2.34704 1.079913 -1.844255 -0.073178
Na 1.44818 2.25386 8.31931 0.140879 -0.349559 0.016769
Na 8.77161 9.4803 1.75048 0.143538 -0.047761 0.093446
Na 5.03894 2.36041 6.90544 0.284239 -0.142735 0.303754
Na 6.52926 11.71336 8.4093 0.138929 0.319892 -0.077249
Cl 8.93888 7.26191 5.86025 -0.167511 -0.204515 0.222595
Cl 11.09666 1.33343 1.10738 -0.287445 -0.645689 0.250077
Cl 6.71341 4.04009 10.94056 -0.259514 0.113707 -0.089934
Cl 1.65983 10.57796 6.66619 0.417137 -0.315544 0.203403
200
energy=-1088.19081426 config_type=nep2xyz pbc="T T T" virial="-15.07757 -3.51033 -1.64877 -3.51033 -20.25481 8.98556 -1.64877 8.98556 -22.97301" Lattice="12.864308357 0.0 0.0 0.0 12.864308357 0.0 0.0 0.0 12.864308357" volume=2128.91991527157 Properties=species:S:1:pos:R:3:force:R:3
H 1.88072 5.02509 8.30961 1.720511 0.771219 -0.1596
H 1.31624 3.5946 8.00992 0.77898 -2.370288 -0.489145
H 0.1658 10.89188 3.77737 -0.867599 0.621019 -0.333595
H 1.58935 11.37418 3.50525 0.001012 -0.146578 -0.501902
H 9.8274 6.12385 3.23892 -0.500439 -0.011941 -0.136953
H 11.25418 6.3538 3.73782 -0.185164 -0.125755 -1.110231
H 5.24163 6.25789 12.77408 -0.00595 1.375621 -0.361012
H 5.22234 7.87598 12.46018 0.783593 0.455266 0.458725
H 1.39945 0.06219 10.36338 -0.234939 -0.176576 -0.302914
H 1.7599 12.22308 11.64238 0.029307 -0.321568 0.967229
H 0.86354 4.59897 4.42711 0.77158 -1.363933 0.20478
H 1.04038 3.03309 4.98618 0.006156 0.813211 -0.301071
H 6.02678 9.55444 3.00229 -1.653896 0.360449 0.017883
H 4.49445 9.47817 2.55682 -1.212911 -1.78414 -0.399911
H 12.47188 4.94488 7.05287 -0.205733 0.224375 -0.662065
H 10.97538 4.80149 7.02052 -0.712903 0.027984 -0.403565
H 4.06862 5.65173 8.65653 -0.470413 0.317749 -1.046144
H 3.29167 6.90071 8.07558 0.276848 0.160472 -0.019253
H 8.18778 7.70853 0.6483 -0.208541 0.194896 0.183609
H 9.15302 6.61249 0.23821 0.202017 -0.451392 0.073056
H 2.9066 4.94155 5.06107 -0.686916 -0.541314 0.187818
H 3.68107 5.81715 6.16931 -0.313448 -0.246005 0.047498
H 3.41376 11.09138 2.53073 0.199619 0.772199 0.295618
H 2.62779 11.26298 1.34599 -1.095327 -0.188622 -1.449314
H 8.1301 6.15455 4.86869 -0.318192 -0.192966 1.370346
H 7.8326 4.99053 3.78318 0.739369 0.976949 0.553212
H 2.37637 3.96224 2.44337 -0.036473 0.758087 0.220921
H 3.33375 5.19245 2.61146 -0.626955 -0.447607 -0.537955
H 9.33866 0.41181 2.23934 -0.061472 -0.689984 1.574645
H 10.34588 12.81288 3.28261 0.802579 -0.376258 0.147227
H 0.58921 2.61558 0.15847 -0.915791 1.954045 0.197771
H 11.90168 3.05962 0.00867 -0.021717 0.009408 -0.233089
H 11.02388 12.36838 0.89747 -0.877801 0.257594 -0.794056
H 10.13858 0.37358 12.77878 0.19835 0.982242 -0.156582
H 7.77304 8.08239 3.92926 0.748838 -0.478591 -0.095228
H 6.73182 8.35666 5.11411 0.460647 0.396467 -1.493839
H 4.53481 12.04328 12.04628 -0.010416 0.591033 0.519779
H 5.18104 12.41818 0.51458 0.325674 0.010828 0.798724
H 7.61297 0.47618 5.89744 0.265509 0.800757 -0.044791
H 8.67933 1.64845 5.99001 -0.391629 -0.192078 0.340462
H 10.60548 5.91202 11.65378 -0.240492 -0.090157 -1.406795
H 10.42988 5.00414 0.05297 -0.179659 1.405478 -0.593393
H 9.25336 3.3694 8.29332 0.882984 0.829414 -1.079783
H 8.48079 4.33676 7.413 0.216603 0.405208 -0.343724
H 7.09994 10.77018 12.61878 0.029371 0.431527 1.443767
H 8.31706 11.66178 12.61988 -0.195449 0.444472 0.958072
H 2.05772 9.50466 12.40868 -0.069237 0.05772 0.270763
H 0.71877 9.87182 0.1364 -0.932259 0.003791 -0.020447
H 5.63309 9.86612 11.48448 -0.137874 -0.227436 1.345191
H 6.59598 8.81777 11.37308 1.468902 -1.638329 -0.998264
H 0.85808 7.69759 10.62938 -1.851584 -1.187158 1.108834
H 12.63998 6.57905 10.19958 -0.333092 0.44763 0.932079
H 1.45934 7.47908 1.80594 -0.70947 0.072295 -0.451145
H 0.46668 6.61591 2.4984 -0.337037 -0.044618 -0.602412
H 0.56431 10.44578 8.53173 0.556125 -1.589231 1.735665
H 1.17681 10.66668 9.96456 -0.48043 -1.837628 -1.341251
H 7.89337 3.37691 11.40738 -1.262217 0.163312 -0.829745
H 6.96192 2.68317 10.32008 0.097707 -0.576222 -0.809134
H 8.60889 4.98446 10.25788 0.401088 0.358513 0.452501
H 9.42681 5.84544 9.34179 0.625384 -0.217404 1.002481
H 12.57268 1.16145 4.47508 -0.002722 -0.333113 0.213287
H 11.89478 2.29365 5.27144 0.488986 -1.278656 0.29944
H 4.75518 6.24607 4.01501 0.092703 -0.068452 -1.060791
H 5.95207 7.00337 3.43266 -0.101667 0.313664 -0.314532
H 9.66482 1.68058 3.82844 0.078664 0.520898 0.522287
H 10.49428 2.97721 3.68569 -0.255844 -0.111275 0.397775
H 3.66467 7.47976 2.65811 1.513879 -1.10702 -0.673513
H 2.91774 8.08394 3.75032 -0.550825 0.58491 0.011666
H 11.26018 4.42199 2.56053 1.452153 -1.710815 1.294028
H 11.87268 3.16275 2.02492 0.576379 -1.268426 -1.608484
H 7.75914 2.67324 3.95234 0.485098 0.329896 -0.388109
H 6.62872 3.50291 4.49104 -0.537066 -0.199027 -0.356401
H 1.30902 8.37469 6.05408 0.125624 -0.214343 0.957193
H 1.06509 9.24034 4.80636 1.978113 -1.525371 0.187944
H 11.98958 8.88215 11.37188 0.367887 -0.262916 -1.026694
H 11.68648 10.47338 11.60868 0.205433 0.00041 -0.787509
H 3.40505 1.2259 9.7754 0.445647 0.328149 -0.623938
H 4.24006 0.40673 8.72098 -0.135402 -0.797003 -0.071497
H 4.60103 1.46889 12.80798 -0.016805 -0.213539 0.24584
H 3.82855 2.61944 12.23728 1.332885 0.381226 0.534335
H 5.55163 6.16655 10.28708 0.077212 0.422835 0.275535
H 6.07006 4.68477 10.36688 -0.678143 0.221557 -0.094427
H 4.6292 1.24792 4.7515 -0.180992 -0.030274 -0.206517
H 4.89617 0.63127 6.17799 -0.035204 -0.010688 -0.146172
H 6.37545 6.94618 7.20584 0.084267 -1.081874 0.624545
H 5.77714 8.4246 7.48403 -0.207459 -0.168944 0.293433
H 3.6874 5.41001 12.16908 -1.054598 -0.438938 0.190616
H 2.86016 4.60126 0.42372 0.302562 0.604356 -0.192514
H 2.65298 1.80356 3.62066 0.630429 0.53307 0.022918
H 3.11399 0.58361 2.99378 0.099195 -1.842579 -0.980421
H 7.06567 1.58432 8.22782 0.666095 -0.045117 0.000695
H 5.7385 1.54982 9.00097 1.722021 0.090117 0.786599
H 2.13403 1.50185 7.246 -2.278019 0.308988 1.245453
H 0.58422 1.68953 6.90266 0.332667 -0.30599 -0.007361
H 12.55078 4.84742 8.96035 0.833121 0.264162 -0.114532
H 11.45518 4.30287 9.83559 -0.105751 1.687411 -0.163796
H 6.44327 4.45154 6.77652 0.50305 1.382197 0.62804
H 6.51973 5.14194 8.23314 0.396965 0.1854 -0.949
H 10.06788 10.02658 0.30925 0.290643 -0.784035 0.624475
H 8.94691 10.29978 1.19145 -0.582092 0.044326 0.646859
H 6.2382 0.29401 2.79269 0.083369 -0.436798 0.711486
H 6.95445 12.66858 1.40771 -1.158723 1.099876 1.131318
H 0.70231 2.10936 10.36168 1.69151 1.435782 0.153976
H 0.21858 1.36211 9.03876 0.846372 0.468876 -0.192535
H 10.03748 2.85096 11.08078 0.307491 -0.09968 -0.038385
H 11.10468 2.21451 10.08708 -0.296075 0.506333 0.234872
H 7.93197 12.07858 3.89083 -1.172127 0.227675 1.625922
H 6.54615 11.46808 4.55914 0.505214 0.201985 -0.194306
H 4.94415 4.29688 5.49473 -0.397013 0.246362 0.032136
H 5.21451 2.77627 5.98332 0.50639 0.83759 -0.547934
H 12.54838 5.86352 5.22113 -0.730323 -0.265951 0.983484
H 0.94369 6.66682 4.74117 0.204813 0.74853 0.205639
H 1.12082 1.2982 1.38951 -0.685833 -0.769326 0.3175
H 2.50418 1.96665 1.49535 -1.352311 -0.454058 -1.832459
H 5.02869 11.00338 9.67666 -1.293867 -0.713797 1.758933
H 3.74653 11.35028 10.45488 -2.817874 1.565835 -0.18885
H 7.95374 7.01564 9.71417 0.044075 0.664776 0.161211
H 7.38637 8.43739 9.14803 0.467679 -0.646847 -0.049832
H 3.05801 8.71605 10.39178 -0.112602 -0.628943 0.452227
H 3.37802 7.8483 11.65478 0.028926 -0.569787 -0.135407
H 2.36862 2.19945 11.77838 -0.295243 0.842157 -0.965309
H 2.67924 3.67973 11.34628 -0.196392 0.313581 0.16478
H 7.05234 5.51569 0.66105 -0.175045 0.042046 0.080641
H 6.01255 5.68982 1.73395 -0.413313 -0.308896 0.389033
H 2.38386 9.11128 8.70705 -0.435125 0.370516 -0.098166
H 3.68833 9.56565 7.98628 -0.142254 -0.487231 0.236576
H 3.26889 11.38968 6.96021 1.162213 -0.014293 0.504502
H 2.18777 11.20248 5.99466 -0.834234 -0.241403 -0.943007
O 1.12303 4.47537 8.24137 -2.319964 1.347387 0.166926
O 1.05739 10.80288 4.08185 0.749217 -0.790334 1.047084
O 10.72698 6.30893 2.89672 0.738372 0.063049 1.117795
O 4.83902 7.02726 12.23738 -0.343625 -1.897579 0.278109
O 1.84526 12.12238 10.69748 0.131462 0.500247 -0.550112
O 1.50418 3.79735 4.5703 -0.17571 0.097073 0.010062
O 5.1652 10.05158 2.85818 2.651633 1.510053 0.58267
O 11.70508 5.10774 6.44889 1.03697 -0.335184 0.893367
O 3.50005 5.96432 7.88133 0.39905 -0.241009 1.267643
O 8.41551 6.79603 0.86041 -0.491845 0.32625 -0.095501
O 3.64093 5.54922 5.21912 1.022833 0.46668 -0.185594
O 2.84499 11.77328 2.11629 0.833801 -0.489918 1.81579
O 8.31988 5.8587 3.99592 -0.447784 -1.125561 -1.801216
O 2.56793 4.85725 2.08914 0.630242 -0.45808 0.591972
O 9.39571 0.10325 3.20216 -0.79336 0.591561 -2.037088
O 12.80238 3.42263 0.06288 0.390289 -1.421138 -0.118736
O 10.26898 12.35038 0.23294 0.859793 -0.970768 0.934438
O 7.00252 8.59439 4.14906 -1.056104 -0.191002 1.863601
O 4.45662 12.66868 12.80968 -0.2532 -0.842011 -1.549309
O 7.91979 1.23167 6.45451 0.072347 -0.286692 -0.251797
O 10.51828 5.9644 12.59648 1.021416 -1.472897 2.017812
O 9.39582 3.98829 7.51316 -0.854408 -1.04837 1.630067
O 7.5631 11.45018 0.35626 0.229804 -0.935247 -2.038729
O 1.64824 10.04518 0.25906 1.042865 -0.0861 -0.590527
O 6.21899 9.30421 12.08918 -1.277919 2.047759 -0.605135
O 12.85678 7.21692 10.94718 2.028823 0.697317 -1.430475
O 0.55621 7.08382 1.63317 0.783153 0.08517 1.126818
O 0.89521 9.87952 9.3309 0.01626 3.344088 -0.486366
O 7.1252 3.52634 10.77508 1.799761 0.626542 1.759708
O 9.22916 5.75337 10.31208 -1.218523 -0.371404 -2.009791
O 12.49308 1.49607 5.39493 -0.563118 1.870037 -0.349054
O 5.16656 6.50724 3.12637 -0.070559 -0.31954 1.572178
O 9.80707 2.55504 4.27257 -0.162088 -0.582908 -0.399967
O 3.03504 8.16757 2.78501 -1.181609 0.686217 0.394144
O 11.78308 3.56063 2.8655 -1.836275 3.468623 0.417079
O 7.0577 3.26662 3.62693 0.236453 0.08109 0.227909
O 1.62435 8.41893 5.15649 -1.620421 1.621146 -1.042752
O 11.64768 9.57753 11.93758 -0.460478 0.067717 1.93478
O 3.91779 1.28033 8.93871 -0.083266 0.365285 0.369319
O 4.53736 2.4441 0.04207 -0.442717 -0.068675 -0.4786
O 5.34607 5.2737 9.99968 0.337242 -0.524067 -0.438315
O 4.55637 1.40516 5.70357 -0.05108 -0.23358 0.544456
O 6.20721 7.82326 6.87558 0.254616 1.406179 -1.625277
O 2.85612 4.90166 12.34408 0.397251 0.400247 -0.243536
O 3.41276 1.47821 3.08856 -0.851049 1.401472 0.832378
O 6.75712 1.54584 9.15097 -2.484496 -0.161169 -0.822606
O 1.21871 1.74179 7.66006 1.972164 -0.144929 -1.77788
O 11.83768 5.20224 9.51243 -0.904714 -1.837128 0.662981
O 6.93245 5.2229 7.32293 -1.039957 -1.298249 0.755443
O 9.67333 9.66593 1.14397 0.449439 0.427044 -1.206971
O 6.39586 0.53312 1.88766 1.355509 -0.92848 -2.004126
O 0.02634 1.61352 9.95138 -2.41508 -1.848121 0.369715
O 10.40928 2.91594 10.17958 0.38482 -0.434401 -0.404386
O 7.2424 12.14938 4.65449 0.668858 -0.665114 -1.27927
O 5.65087 3.6895 5.78024 -0.267428 -0.859236 0.460277
O 0.26516 6.03622 4.47185 0.159386 0.028065 -1.238686
O 1.71089 1.81014 0.82616 2.43878 0.172962 1.493906
O 4.47007 10.79008 10.55668 3.937831 -0.832568 -1.745785
O 7.25029 7.69746 9.75896 -0.62184 0.326934 0.366658
O 2.64655 8.13948 11.08088 0.03754 1.192234 -0.315672
O 2.51354 2.77619 10.97328 -0.363734 -1.848432 0.759303
O 6.16899 5.16478 0.92997 0.571491 0.144293 -0.468619
O 3.26212 8.79304 8.41382 0.259488 0.002825 -0.254112
O 2.35503 11.61448 6.83522 -0.436295 0.318179 0.357373
Na 11.22208 8.01129 1.46451 -0.118217 -0.146182 -0.293851
Na 8.24316 11.19038 7.02418 -1.316607 0.521625 -0.385788
Na 6.56987 2.63585 1.18713 -0.297158 0.637171 0.160568
Na 0.33418 5.53699 12.67758 0.319271 0.528931 -0.209512
Cl 9.64624 2.88157 0.28673 -0.378777 -0.068328 0.051883
Cl 5.46678 11.06088 7.65621 0.182954 0.191381 0.005714
Cl 10.37888 10.68528 7.5839 1.194392 -0.411093 0.363126
Cl 12.49658 0.04372 2.64228 -0.340291 0.335123 -0.563061
200
energy=-1087.49733283 config_type=nep2xyz pbc="T T T" virial="-23.752 -0.69263 2.02035 -0.69263 -18.85402 5.21812 2.02035 5.21812 -30.75744" Lattice="12.737695694 0.0 0.0 0.0 12.737695694 0.0 0.0 0.0 12.737695694" volume=2066.677007799742 Properties=species:S:1:pos:R:3:force:R:3
H 9.21157 4.40351 10.16367 3.268502 1.218712 -0.619493
H 10.58947 5.15143 9.49815 -0.573072 0.026619 -0.355834
H 5.07207 9.5852 4.72838 0.705028 -1.018692 1.977712
H 5.52372 8.35899 5.88043 -0.468274 1.343074 -1.411383
H 1.90944 3.00415 11.10107 -1.178387 0.825251 -1.762913
H 1.65216 3.8296 9.69081 -0.142036 -0.375132 0.840399
H 3.49756 11.90317 9.64571 -2.57576 -0.591619 2.751404
H 4.14615 11.39337 8.45445 0.341389 1.633174 0.840218
H 12.24697 10.66017 7.5714 1.196258 1.70985 -0.248854
H 11.72697 9.59621 8.63255 -0.143314 0.540352 -1.861962
H 1.32819 7.02611 0.80419 -0.233293 0.625584 0.132061
H 1.14153 8.54532 1.09295 -0.386935 -0.183904 -0.114061
H 10.55857 9.57824 6.50522 -0.963703 -0.124288 -1.429234
H 10.53127 10.16077 5.07717 0.325523 0.565981 -1.065335
H 3.10228 1.16924 2.57783 1.094197 -0.414303 0.208137
H 3.69732 1.617 3.86317 0.342132 0.497311 1.105532
H 6.95994 6.88356 8.74237 0.301767 0.210444 0.147231
H 8.37285 7.39361 9.40787 -0.902971 -0.620755 -1.088114
H 0.22113 2.10465 2.44047 0.123906 -0.268269 -1.288297
H 12.40197 2.86941 1.24225 -0.078231 0.017441 -0.485896
H 9.30623 6.33428 11.36787 -0.054799 0.134401 -0.289057
H 10.05657 7.72911 11.39027 -1.588906 -0.779916 -0.600709
H 4.58829 9.5202 7.20703 1.042559 0.100786 -1.963503
H 4.29699 9.29825 8.60173 0.811992 -2.084081 3.510664
H 4.16166 6.6828 5.61427 -1.825411 0.44074 -1.555166
H 4.9014 6.60513 6.84741 0.581646 -0.422174 1.221012
H 11.80257 12.20377 5.81527 0.540955 0.538661 1.132441
H 12.63017 0.62678 6.49262 0.374911 0.588835 -0.284079
H 12.59577 6.28371 3.9784 -0.130675 0.057687 -0.065198
H 12.36987 6.98946 2.60923 -0.052671 -0.003435 -0.332307
H 7.5969 1.3804 2.05287 2.067217 -1.59377 0.239624
H 7.9353 12.68517 2.40764 0.267063 -0.678258 -0.688036
H 1.90421 6.09055 7.85492 -0.385795 -1.339467 0.75483
H 3.04543 5.32519 8.58987 -1.508543 -0.273375 -0.093149
H 8.42222 8.50603 0.255 0.122583 0.712591 0.119467
H 9.10433 9.91996 12.72917 -1.88859 -1.135294 1.005836
H 1.59945 5.74255 5.658 1.428602 1.30089 -0.023154
H 1.13912 4.36254 5.23218 -0.307209 0.166477 -0.11685
H 0.47632 8.26256 9.9627 1.246547 -0.113191 0.385257
H 11.88947 7.7893 10.69497 0.389764 -0.369914 0.179391
H 7.55088 5.4742 2.9017 0.723861 0.221726 -1.677128
H 8.69509 4.5181 2.32886 -0.528696 0.53717 0.030335
H 11.64097 8.11097 0.09775 0.796991 -0.938458 0.29814
H 11.07577 9.44386 0.24045 -0.593857 -0.159495 0.019791
H 10.83317 11.04477 11.21097 0.412859 -0.949287 -1.052266
H 10.05897 12.21477 11.68757 0.78704 -0.902159 1.014713
H 5.98823 7.37575 11.85397 0.3702 2.78012 -0.010743
H 5.24932 6.28856 11.16107 0.262318 -0.222828 0.2922
H 9.15883 1.30852 0.63105 1.483745 -0.358338 -0.257491
H 9.28385 1.58137 11.89127 0.661113 0.185133 0.365855
H 6.81966 12.33197 6.68197 0.43859 0.172923 0.382787
H 7.20985 0.95786 7.38549 -1.110157 -1.356583 0.012373
H 2.31845 12.63267 5.3351 0.41275 -0.183245 0.531046
H 3.26368 11.54597 5.78519 -0.199642 0.799793 0.586894
H 1.08321 0.25454 4.12242 -0.262784 -1.040413 0.166584
H 1.21266 12.11457 2.89634 0.559675 -0.929816 0.482295
H 11.84757 7.01498 8.53789 -0.137297 -0.142835 -0.872132
H 11.84737 6.17073 7.17118 1.343944 -0.538968 -1.012007
H 9.9368 3.68208 6.71639 1.217326 1.551739 -0.361484
H 11.36307 3.92433 6.26165 0.283892 0.346126 -0.068565
H 5.08423 0.17282 12.40227 -0.302554 0.125776 0.02807
H 6.2834 11.95777 12.67607 -0.210179 0.295266 0.432086
H 3.03027 7.19585 3.63346 0.281074 -0.017958 -0.354685
H 2.06509 8.04201 4.55687 1.046983 -1.155624 0.022119
H 5.12963 1.72733 2.16472 -0.735496 -0.372108 0.912278
H 5.64365 1.93836 0.7487 0.167758 -0.032462 0.085712
H 7.31076 5.47273 11.96877 0.3084 -0.372576 -0.087808
H 8.08001 4.89854 0.40268 0.163282 0.140802 0.164395
H 9.54577 8.26353 5.22709 0.888156 -0.568819 -0.342413
H 10.25017 6.91441 4.56647 -0.749484 0.996997 0.334054
H 0.58238 8.60748 6.83497 0.097897 -0.607513 0.079339
H 2.00505 8.65488 7.32636 0.250521 -0.104169 -0.026391
H 1.0765 9.91278 3.60349 -0.433194 -1.628055 1.921361
H 0.12814 8.71475 3.78598 -0.481853 -0.584012 0.086706
H 9.18748 1.25245 3.61983 0.021205 -0.097169 -0.435826
H 10.28327 2.31083 3.95507 -0.653036 -1.084465 0.374896
H 7.48285 8.98074 8.3788 -0.499097 0.157256 0.544668
H 7.12701 10.27347 7.63236 -0.196769 -0.404093 1.723643
H 8.74344 10.59077 5.887 0.28249 -0.343172 -0.097302
H 7.22911 10.73677 5.54576 -0.22696 -0.585941 -0.320085
H 11.19607 0.13999 7.93252 -1.259914 0.68468 1.195285
H 11.01787 0.98746 9.31435 0.735204 0.499412 0.229636
H 2.13833 3.12986 1.70182 1.549121 0.675615 -0.72343
H 3.62409 3.1051 0.92646 -1.904668 0.766309 0.625915
H 9.3571 1.68402 7.95823 1.684415 -1.492382 1.102999
H 8.86685 1.39218 6.43871 0.92861 0.262986 0.906402
H 6.95664 4.78285 9.35189 0.568351 -0.455021 -0.467561
H 7.5252 3.34847 9.58141 0.41143 1.026568 -0.817765
H 9.36406 12.29497 9.56107 1.560024 1.291349 -1.483485
H 8.56266 11.01217 9.55344 -0.150982 -0.09801 0.110936
H 11.07807 2.81701 10.29257 -2.808136 2.345526 0.073736
H 12.55087 2.80027 10.20317 0.282715 -0.805968 0.152628
H 0.42611 6.46917 12.23077 -0.098065 0.098786 0.032262
H 0.29384 5.93436 10.79827 -1.178715 0.00071 1.716866
H 5.03048 3.36027 5.37615 -0.227048 1.524822 -0.356719
H 5.63298 2.0945 5.57038 2.279738 -1.728599 -7.4e-05
H 3.32542 6.24993 0.40968 0.523294 0.32792 0.313364
H 2.36072 5.15864 12.71427 0.064503 -0.549133 0.102012
H 1.58379 2.6616 6.22863 0.24361 0.106158 2.004483
H 1.56643 3.69004 7.46939 0.417523 -0.432299 -0.154665
H 7.97831 3.29539 11.63967 -0.121733 -0.745432 -0.555578
H 7.10304 1.9498 11.45907 0.872959 0.398754 -0.278279
H 2.83904 8.00184 10.71537 0.196186 -0.405467 0.099591
H 2.46922 7.60685 9.21532 0.221936 0.585164 1.257827
H 4.70563 5.99139 2.17324 0.919705 -1.814744 1.165107
H 5.45459 7.13684 1.34281 -2.528429 -1.236168 1.126078
H 2.21035 0.69217 11.21767 -0.348156 -1.399271 0.256776
H 2.17561 12.29547 12.33287 -0.661253 0.070533 -2.09897
H 6.04698 9.86187 11.72107 0.559892 0.768694 0.107781
H 5.77272 8.94569 10.49767 0.447144 0.324936 -0.77633
H 10.49357 4.35567 2.15353 0.801923 0.405889 -0.458196
H 10.64127 4.69465 3.72858 -0.290348 -0.4276 -1.283898
H 5.87455 4.16353 2.86808 -2.163318 1.26141 0.795682
H 4.32018 4.08695 2.66316 -0.343709 0.074698 0.136644
H 3.70371 10.55267 2.77115 0.040317 0.470186 -0.086713
H 4.34532 11.69087 3.73341 -0.05697 -1.779383 -1.398067
H 5.02743 2.67672 10.06217 -0.258941 0.175871 -0.695439
H 5.41309 3.23414 8.53973 -0.795243 -1.604168 1.838259
H 8.04346 4.14923 4.90844 -1.672124 0.583287 1.774896
H 8.03622 3.36103 6.17525 -1.303717 1.107626 0.288436
H 11.53757 4.62681 12.28367 -1.119461 -0.275991 1.996382
H 10.64487 3.46329 12.65687 -1.463729 -2.408083 -0.916201
H 11.09117 12.32607 3.79843 0.119088 -0.80695 0.635964
H 12.34957 11.36357 4.05791 -0.571013 0.39068 0.074982
H 6.30642 11.24137 2.37365 -0.739738 -0.76936 0.04301
H 7.36414 10.65427 1.3396 1.075441 -2.629505 -0.520593
H 7.96067 7.0383 4.46487 0.145825 -0.267214 -0.098184
H 6.36733 6.77516 4.4626 0.482697 -0.344477 -0.008776
O 10.25837 4.6097 10.22517 -2.464907 -1.439265 0.518542
O 5.46066 9.35407 5.66254 -0.21206 -0.204792 -1.068377
O 1.21023 3.33729 10.42427 2.157453 0.192908 0.919321
O 4.1458 12.22297 9.08962 2.15589 -0.895515 -3.480364
O 11.60797 9.9907 7.69029 -1.008148 -2.524184 2.226848
O 0.61842 7.71085 0.99508 1.017745 -0.209148 0.332027
O 10.00497 9.55645 5.60979 1.015466 0.932448 2.74034
O 3.95218 1.11992 3.08797 -1.865747 -0.19955 -0.680194
O 7.83787 7.27163 8.53264 0.898815 0.215923 1.254329
O 0.24766 2.10289 1.42378 -0.135834 0.379529 1.771917
O 9.35005 7.19205 10.89057 1.107928 0.971927 0.835107
O 4.0267 9.80885 7.90735 -2.224908 2.112765 -1.767776
O 5.05133 6.5949 5.90387 1.335867 0.154034 0.480591
O 12.22267 12.52337 6.68986 -1.01869 -1.181685 -0.784052
O 11.91337 6.71002 3.41945 0.340557 -0.150115 0.575977
O 8.45638 0.74511 2.19698 -2.710406 2.616913 0.030855
O 2.03356 5.25023 8.39804 1.597988 1.792748 -0.590373
O 8.30482 9.46103 0.43417 1.37224 0.817618 -1.235482
O 0.82334 5.23737 5.51871 -1.497441 -1.171611 -0.309149
O 12.28437 8.43108 10.09647 -1.448538 0.819166 -0.954844
O 7.94897 5.08408 2.01518 -0.448605 -0.508361 1.908494
O 10.77617 8.51402 0.16689 0.359881 0.989609 -0.321869
O 10.73867 11.54447 12.00477 -0.866289 1.494294 0.401936
O 5.85391 6.46101 11.91567 -0.24523 -2.699249 -0.088371
O 9.88308 1.41339 12.67117 -1.556198 0.018585 0.050106
O 6.51912 0.20786 7.37419 0.704435 1.635055 0.193006
O 2.95865 12.44497 6.05175 0.121422 -0.598111 -0.741463
O 1.24034 12.01097 3.8853 -0.366712 1.937858 -0.904215
O 11.33107 6.50622 7.87331 -1.27697 1.080519 2.305905
O 10.58557 4.45474 6.49119 -1.550264 -2.737467 0.086221
O 5.74183 12.35767 11.97217 0.910082 -0.453627 -0.570449
O 2.76474 7.29046 4.55236 -1.259425 1.070927 0.309752
O 5.92779 1.66881 1.63962 1.338782 0.61422 -1.189133
O 8.12101 4.91065 12.15307 -0.886708 0.05241 -0.303507
O 9.48142 7.27211 5.08057 -0.025277 -1.463854 -0.060431
O 1.31517 8.01012 7.09489 -0.089509 0.608992 0.159155
O 0.76124 9.21259 4.3127 1.013231 1.989456 -2.032599
O 9.85128 1.4769 4.30364 0.789835 1.053462 0.242358
O 7.02121 9.84447 8.55869 0.78435 0.53935 -2.033221
O 7.93873 11.11707 6.06926 -0.548136 0.418543 0.205445
O 10.51657 0.48117 8.65662 0.653429 -0.979062 -1.360849
O 2.97916 3.66074 1.51136 -0.061812 -1.349391 -0.185418
O 8.80763 1.95445 7.24868 -2.280423 1.210156 -2.810264
O 7.66752 4.17719 9.01726 -0.927346 -0.515282 1.33522
O 8.77773 11.79127 10.09577 -1.874877 -1.250122 0.963525
O 11.75877 2.2061 10.28487 1.891644 -2.133987 0.13128
O 12.48607 6.10708 11.64167 1.151722 -0.425507 -2.138582
O 4.80625 2.48892 5.67338 -2.154961 0.286889 0.398569
O 2.54269 6.09227 12.58857 -0.423916 0.396351 -0.072678
O 1.8292 2.7744 7.21987 -0.61566 0.209822 -1.70462
O 7.9388 2.38129 11.14347 -1.18294 0.705718 0.747452
O 2.37881 8.29247 9.92409 -0.550057 -0.359389 -1.19775
O 4.5581 6.80829 1.73975 1.173843 3.10178 -2.12625
O 1.81986 12.52077 11.39097 0.823295 1.191593 1.925298
O 5.55556 9.11716 11.40697 -0.925438 -1.048571 0.456169
O 10.27227 4.07603 3.04911 0.008766 -0.138982 1.578433
O 4.97951 4.58358 3.19036 2.363147 -1.562811 -0.865345
O 4.51199 10.79867 3.26823 0.208286 1.405014 1.574388
O 5.01507 2.46838 9.09967 1.097661 1.587366 -1.42843
O 7.50738 4.13789 5.79358 3.00739 -1.66892 -1.860955
O 11.02697 4.19119 0.33857 2.665763 2.499606 -0.570185
O 11.37297 11.47077 4.22186 0.157594 0.709452 -0.253928
O 6.958 11.40807 1.69454 -0.753647 2.807431 0.485485
O 7.20463 6.63355 3.98284 -0.752152 0.025121 -0.151741
Na 9.10991 6.01077 7.09944 -0.039267 0.122316 -0.15642
Na 6.40737 12.35617 9.71792 -0.324089 -0.01394 -0.147048
Na 12.32867 0.44199 12.66857 -0.175985 0.055413 -0.408884
Na 3.62546 1.58046 7.56039 0.339491 -0.664996 0.065985
Cl 4.8812 6.02712 9.12851 0.100839 0.114688 -0.415979
Cl 0.49972 2.08472 4.6026 0.134843 0.249175 -0.308955
Cl 1.98426 10.74007 1.2886 -0.262374 -0.052629 0.123165
Cl 3.97406 2.12085 11.86147 0.020048 0.164341 0.237281
200
energy=-1088.34989364 config_type=nep2xyz pbc="T T T" virial="-35.61203 0.55307 -4.32754 0.55307 -17.38542 -17.18879 -4.32754 -17.18879 -15.98565" Lattice="12.731142998 0.0 0.0 0.0 12.731142998 0.0 0.0 0.0 12.731142998" volume=2063.489145316388 Properties=species:S:1:pos:R:3:force:R:3
H 9.63292 10.39502 0.58708 -0.39931 0.249217 -0.217923
H 8.41231 9.46367 0.32623 0.6135 1.320232 0.568885
H 8.77523 7.17505 9.87395 0.147606 -0.601557 0.818152
H 7.56939 7.77277 9.06703 1.943676 -0.112904 0.275941
H 7.14303 3.13827 11.72492 0.097382 0.615794 -0.228289
H 8.16758 4.33297 11.57222 -0.033285 -0.18623 -0.39929
H 11.68502 9.81417 4.97965 -1.258214 0.843529 -0.138014
H 11.01502 8.60749 4.48727 -0.026511 -1.666771 -0.431506
H 8.43875 12.53962 10.80992 -1.213302 -1.799186 -1.125865
H 8.30209 12.32952 9.31911 -0.418959 -0.366941 -0.427932
H 3.98651 0.16538 8.93456 -0.843398 0.003433 -0.279029
H 4.97291 1.03429 9.685 -0.028724 0.620438 0.765245
H 2.37763 11.09922 0.87069 0.08346 0.323811 -0.609739
H 1.44247 12.21722 1.51988 0.684477 -0.234427 -0.111264
H 8.58738 1.55651 12.58792 0.045833 -0.090962 -0.434215
H 10.06892 1.52582 12.12392 0.458473 0.024236 0.066325
H 12.39932 8.20618 7.5063 0.513542 -0.477511 0.290445
H 11.29032 8.14767 6.48981 -0.575888 -0.96403 -2.330942
H 3.6031 6.47958 0.88472 -0.291997 0.608692 0.517018
H 3.30813 5.2975 12.72227 1.660492 0.871554 0.598174
H 5.40328 6.78788 4.38013 0.370547 0.005188 -0.416097
H 4.09068 6.97541 5.22919 2.293312 -1.291257 -0.118224
H 9.60073 5.24622 2.66908 0.552042 -0.495836 -0.17884
H 8.78368 6.3834 3.2639 1.321882 -0.563046 0.41001
H 11.69952 0.57695 4.44687 0.654688 -0.077557 -0.69968
H 0.38053 0.97558 4.63858 0.289244 -0.150394 -0.693857
H 4.04571 4.70636 10.36452 0.608874 -1.53995 -0.247564
H 5.39374 4.08034 10.74052 -0.532226 -0.712763 -0.430055
H 2.13962 6.5732 9.61278 0.320972 -0.177486 -0.236506
H 3.14033 7.36763 10.46002 0.156043 -1.069149 -1.153305
H 0.22302 6.22628 7.23929 0.293621 0.134196 0.585526
H 1.51545 7.18788 7.48608 -0.344251 -0.020749 -0.045079
H 1.44312 12.34342 8.27258 -0.153427 0.253337 0.996099
H 2.06843 0.28612 7.18317 0.604015 0.85223 -0.612453
H 8.18083 12.02012 4.31175 -0.132688 0.176736 0.201315
H 7.04386 0.17051 4.99221 2.452629 0.261226 -0.603782
H 7.90553 12.66642 7.07826 0.361541 0.139445 -0.083841
H 8.18881 1.31818 7.8927 0.760203 -1.115894 -0.295155
H 2.52581 3.36104 1.19207 -0.166495 0.051501 -1.474114
H 2.50377 2.74899 12.38272 -0.456071 0.901295 0.925038
H 3.82078 2.88647 4.23162 0.309845 -0.714728 0.062609
H 4.86193 3.26138 5.26112 -0.58202 -2.099039 -0.392015
H 10.96522 6.52277 4.02238 0.786703 0.205711 -0.002145
H 12.58942 6.79063 4.28491 0.959765 -0.177957 -0.74271
H 12.50702 9.47202 9.81258 0.550713 0.364526 -0.013737
H 12.10032 8.55686 11.04662 0.446024 -0.548595 1.000675
H 3.08606 8.63658 1.56652 1.544937 0.449947 -0.102093
H 1.65524 8.65817 1.83788 0.48534 -1.324242 -0.219924
H 11.70252 12.45012 9.5362 0.352566 0.18336 -0.107332
H 0.2057 12.70868 10.52342 0.026881 0.058662 -0.41029
H 12.09192 6.12537 9.51127 0.565351 0.543395 0.145643
H 11.04302 5.13211 9.10265 -0.467098 -0.43425 0.223695
H 5.60187 7.56562 12.73022 0.096602 -0.408513 -0.895524
H 5.09846 6.99969 11.32282 0.789602 0.524199 1.305148
H 5.34898 6.50776 8.73073 -0.916441 -1.000455 0.37691
H 5.76267 6.74474 7.1677 -0.219597 0.497086 2.217707
H 3.08683 4.94128 3.10582 1.417261 -0.880837 -0.386291
H 4.58616 4.10718 2.81625 -2.082895 0.965395 -0.300878
H 7.43568 9.46168 7.12452 -0.952696 0.260988 0.078121
H 8.37313 9.59517 5.85496 -0.321887 0.366702 1.180876
H 11.67532 9.9081 2.54161 0.558246 -0.017177 -0.950057
H 0.09037 10.48382 1.58434 0.051694 -0.098209 0.412618
H 5.79776 12.42812 12.60582 -0.748142 2.949513 0.171114
H 6.97535 11.48982 12.64832 -1.500261 -0.344752 0.493378
H 7.04188 2.94016 8.15449 -0.592593 0.573042 0.228605
H 8.04838 2.59383 9.4253 -0.429431 0.701563 -0.310958
H 10.27612 3.06722 1.06469 0.50384 0.019131 -0.25211
H 9.42743 4.13515 0.51252 -0.523686 1.464547 -2.812327
H 2.01527 6.83889 4.90589 -1.144033 0.121074 -1.207748
H 1.99664 6.94256 3.36787 0.396168 0.758425 -1.229885
H 12.21002 8.47428 0.58822 -0.031154 -0.199943 0.37493
H 12.36672 6.90831 0.4068 1.033151 -2.489955 1.247087
H 5.33267 9.02853 2.04663 0.44611 -0.121007 -0.171764
H 5.11469 10.24322 1.03375 0.283567 0.009191 0.131366
H 8.64961 4.5217 4.78526 -0.046879 0.105053 0.011298
H 7.98889 3.53346 5.77301 0.002201 0.040696 0.151041
H 10.06242 7.7269 0.28213 -0.495682 0.081305 -0.423923
H 8.73742 7.39257 0.96979 -0.999782 -0.400077 1.155833
H 3.37579 9.89062 11.33332 1.127563 -0.593866 -1.041642
H 4.66181 8.8677 11.31732 -0.661923 0.56194 -0.52144
H 1.13727 4.25034 4.68067 0.354897 0.338721 -0.30233
H 12.43202 4.03145 5.0707 1.323981 -0.822446 -0.850171
H 9.13804 3.73531 7.96196 2.081151 2.11028 0.393514
H 9.55319 5.34801 7.60591 0.519802 -1.728566 0.239013
H 8.567 6.91795 7.47595 0.302722 -0.509864 -0.365079
H 8.69419 7.43319 6.1436 0.329236 -0.509422 -0.245917
H 11.60352 5.8063 5.73139 0.708532 -0.77009 1.021445
H 11.19272 4.68979 6.84207 0.066229 0.035198 0.249879
H 0.53785 4.6385 0.98958 -0.774762 1.15107 -0.575233
H 11.78432 4.55829 0.92198 -0.398297 0.534586 -0.177119
H 5.07761 3.63715 7.76804 -1.309065 1.383066 1.004278
H 5.44513 2.24702 7.43207 0.465118 1.021605 -0.47898
H 3.05708 1.11708 5.44653 0.541892 1.061473 0.030755
H 3.01808 12.43092 4.99649 -0.350681 -0.155752 0.251828
H 9.68394 0.60017 5.05957 0.515122 0.488854 0.604015
H 10.02532 1.05323 6.45015 0.215391 -0.056881 -0.063863
H 1.32854 1.75698 1.13108 0.687121 1.306528 -0.165376
H 0.42322 1.2245 2.39279 0.57171 -0.255524 -0.787738
H 12.28022 3.75253 10.05812 0.183082 -0.097443 0.192478
H 12.27622 2.12554 10.05832 0.42736 0.440241 0.028626
H 9.01623 11.96962 2.32873 -0.04832 0.014659 -0.094268
H 9.99952 0.01068 1.41848 -0.155952 -0.178332 0.673795
H 6.69066 5.00466 2.44296 0.103706 1.084713 -0.151195
H 6.49171 3.67532 1.67242 -0.015417 0.154509 0.426983
H 10.77122 5.07121 11.47582 0.794606 0.155125 -0.825538
H 9.73192 6.00425 12.19182 0.267668 -1.054688 -0.211128
H 9.36558 9.91286 4.14252 -1.08015 1.093208 0.333761
H 7.93641 9.91878 3.4053 0.385156 0.367781 0.831895
H 11.53692 12.43932 11.61452 -1.147648 0.401775 0.275189
H 12.09332 11.65042 12.7049 -1.421255 0.348024 0.396454
H 2.4586 3.6934 6.62525 0.029457 -0.295839 -0.114243
H 2.05093 4.60249 7.75089 -1.075249 1.540616 0.342192
H 3.81544 10.24142 4.90974 -0.708512 -0.87154 0.532595
H 4.28874 11.01172 3.66129 0.127435 -0.025014 0.302443
H 2.92414 0.92559 11.28042 0.205706 -0.107686 0.132535
H 4.13537 1.8446 11.74932 0.111684 0.119487 -0.194819
H 0.32793 11.52592 5.26062 -1.392939 0.09059 -0.159699
H 0.88362 10.56552 6.1145 0.475228 -1.45319 0.820716
H 11.51812 11.26622 7.26303 -1.817706 0.972705 1.516728
H 10.12472 12.11152 7.80356 0.291501 -0.006816 -0.733498
H 5.43016 11.78782 5.75245 2.024155 1.31399 1.210962
H 5.85513 12.40642 7.18383 -0.389273 0.205915 0.420228
H 12.01762 2.49922 11.89422 0.524501 0.795106 -1.081579
H 12.20412 1.74781 0.45844 0.093464 -0.514065 0.410577
H 5.22214 9.8499 7.09215 -0.190853 0.308057 0.129126
H 5.37176 8.97662 8.29563 -0.189576 -0.477389 0.160294
H 1.47832 10.98292 9.69578 1.074656 0.215988 1.318745
H 1.39152 10.05832 8.45431 1.404595 -1.505129 -1.206717
O 8.65533 10.39102 0.64914 -0.199389 -1.346276 -0.40661
O 8.58396 7.81003 9.19431 -2.510421 0.281513 -0.91478
O 7.42758 3.87917 11.12502 -0.259062 -0.391041 0.180717
O 10.80522 9.53515 4.54584 1.473184 0.746497 0.129735
O 7.97118 11.87542 10.12692 1.629432 2.244478 1.561682
O 4.86416 0.55261 8.87051 0.747997 -0.563734 -0.664545
O 1.91928 11.35142 1.66775 -0.953707 -0.171301 0.993832
O 9.15551 1.39769 11.81132 -0.932803 -0.343714 -0.007537
O 11.50422 8.4785 7.32147 -0.565122 1.585037 2.30629
O 4.07179 5.90219 0.28613 -1.662299 -1.64291 -1.25418
O 4.93397 6.38009 5.11857 -2.472336 1.456998 0.80184
O 9.65856 5.87555 3.40817 -2.18057 0.782332 -0.427914
O 12.57732 0.50462 3.96326 -0.621095 0.323284 1.432705
O 4.53159 3.81261 10.31122 0.259887 3.147933 0.212068
O 3.09491 6.58797 9.81832 -0.365997 1.200744 1.297601
O 0.7358 6.77583 7.91486 0.601435 -0.519841 -0.336082
O 1.93797 0.44989 8.13698 -0.121703 -0.687909 -0.173868
O 7.9856 0.22287 4.56173 -1.861887 0.042171 0.115612
O 8.57323 0.38804 7.6325 -0.661227 0.561639 0.431824
O 1.99937 3.30916 0.32932 1.136175 -0.62329 0.758426
O 4.38139 2.42854 4.91028 0.059186 2.771843 0.242356
O 11.69142 6.96966 4.56601 -2.251813 0.084715 0.57473
O 11.79942 9.02567 10.27922 -1.397312 0.251185 -0.927373
O 2.38566 7.99365 1.66258 -1.908595 0.881593 0.596252
O 12.08542 0.34573 10.19832 -0.200827 -0.292782 -0.246743
O 11.61202 5.37508 9.86547 -0.069329 -0.200497 -0.41848
O 5.67755 7.68366 11.75262 -0.47927 -0.201003 -0.297968
O 5.7923 7.0895 8.13889 1.120471 0.642157 -2.676744
O 3.56061 4.18184 2.67301 0.800922 -0.307038 0.745442
O 8.34605 9.44776 6.84868 1.08202 -0.239141 -1.148773
O 12.07992 9.84451 1.63351 -0.22486 0.187344 0.909918
O 5.96358 11.52372 12.70552 2.428697 -2.750185 -0.610234
O 7.95262 2.72226 8.45404 1.422057 -0.575033 0.443758
O 9.68114 3.78669 1.32172 0.239217 -2.117136 4.336684
O 1.46414 6.62849 4.09013 1.11049 -0.675072 2.209076
O 12.03652 7.68778 0.03895 -1.530252 2.858955 -1.731679
O 4.68046 9.61085 1.63758 -0.623372 0.149252 0.071389
O 8.14567 3.69661 4.8407 0.317248 -0.215903 -0.052634
O 9.08134 7.62391 0.11863 1.831255 0.257784 -0.914746
O 4.04271 9.43552 10.73052 -0.36311 0.244792 1.512271
O 0.43151 3.63732 4.47211 -1.366297 0.287474 1.013598
O 9.95464 4.47342 7.94088 -2.785473 -0.463593 -0.598867
O 8.78719 6.55616 6.57417 -0.641798 1.206689 0.828748
O 11.97132 5.12256 6.41899 -0.497953 0.981075 -1.253496
O 12.47802 5.23426 0.82806 1.316 -1.821066 0.690796
O 5.77269 3.19188 7.32618 0.237985 -2.597173 -0.539865
O 2.46745 0.3658 5.46307 -0.080478 -0.897756 -0.24131
O 10.44112 1.00962 5.57145 -0.977032 -0.438705 -0.707478
O 0.80637 1.04849 1.47925 -1.548604 -1.149567 1.136832
O 0.00997 2.94335 10.38002 -0.046835 -0.459647 -0.560122
O 9.53883 0.05044 2.29493 0.479461 0.433776 -0.991025
O 6.67065 4.05881 2.56253 -0.609018 -1.502806 -0.499597
O 9.98068 5.04983 12.00422 -1.708643 1.641827 0.166373
O 8.40536 10.32102 4.18036 0.702449 -1.45431 -1.259791
O 11.22542 12.09922 12.49742 1.926957 -0.953633 -0.060028
O 2.62898 3.8917 7.55261 0.977932 -1.007431 -0.375203
O 4.28315 11.03012 4.63996 0.551674 0.961644 -0.76665
O 3.39695 1.77597 11.10162 -0.352906 -0.512265 0.618517
O 12.72112 10.80132 5.84988 0.773749 1.536428 -0.841861
O 10.88042 11.54672 8.03897 1.468702 -0.904535 -0.538636
O 6.20277 12.29982 6.29442 -2.491555 -1.681572 -1.466564
O 11.54672 2.25917 12.69042 -0.669527 -0.136889 1.120584
O 5.50164 9.89509 8.01857 0.393709 0.071994 -0.165598
O 0.95348 10.70332 8.95787 -2.308967 0.833645 -0.483794
Na 2.41242 2.64214 9.35471 -0.264963 -0.421509 0.159938
Na 8.6547 2.16034 3.13177 -0.383945 0.041534 0.143026
Na 5.8038 11.01222 10.14292 -0.122188 -0.012311 -0.024269
Na 9.8203 9.62421 8.97181 0.702943 0.040318 -0.387203
Cl 5.92624 2.0286 0.2991 -0.019684 -0.37378 -0.200134
Cl 2.01703 11.93862 11.37362 0.079598 -0.269267 0.14277
Cl 6.83662 7.13091 2.31449 0.014146 0.397635 0.285664
Cl 2.53624 8.96871 6.21727 0.234799 -0.366197 0.065296
200
energy=-1089.08284149 config_type=nep2xyz pbc="T T T" virial="-5.28763 3.48013 -9.97154 3.48013 0.19419 -1.43984 -9.97154 -1.43984 -11.52087" Lattice="12.942138672 0.0 0.0 0.0 12.942138672 0.0 0.0 0.0 12.942138672" volume=2167.794682385974 Properties=species:S:1:pos:R:3:force:R:3
H 5.00105 11.10351 2.34611 -0.294636 -0.665654 -0.067558
H 5.3511 10.15841 3.53047 -1.646371 -1.381532 1.650448
H 10.45051 3.20588 12.82841 -1.484995 -0.575071 -1.539864
H 11.99081 3.20256 0.02224 -1.436871 0.211784 0.778708
H 5.54969 1.10613 8.36255 -0.217562 -0.047336 0.377792
H 5.17042 0.12328 9.44322 -0.173903 -0.04666 1.079132
H 0.85249 6.89502 9.19726 -0.10534 0.156412 0.247687
H 2.1552 6.42667 8.51249 -0.271175 0.281231 1.994604
H 9.25053 11.64971 11.51051 1.044165 -0.223098 0.062071
H 9.90348 10.52641 12.30271 0.203764 0.684585 -0.626183
H 7.40932 11.91841 6.11618 -0.284063 0.263777 0.552615
H 7.08767 10.40791 5.92598 -0.21054 0.520002 0.871608
H 5.03177 0.76771 11.91081 -0.073033 -0.007164 0.152959
H 5.20068 2.01676 11.12401 1.451396 2.205068 -0.094403
H 11.84241 10.85681 5.30364 0.749047 -1.274255 -0.233447
H 11.79631 9.36913 5.84991 0.641789 0.396835 -0.446591
H 8.4325 2.12633 10.83311 1.210507 0.341047 0.384339
H 7.27389 1.96901 11.87831 -0.04699 0.211363 0.593563
H 4.47846 6.04042 12.61201 -0.031632 0.164734 -0.175925
H 3.78522 6.75703 11.38791 0.913994 -0.178527 0.363127
H 3.04293 1.4053 9.99033 -0.358616 -0.382562 0.282151
H 1.5174 1.03338 10.11331 -1.471238 -2.274356 -0.193857
H 0.80752 8.21141 5.27778 0.161537 0.030235 -0.627408
H 1.40992 8.93665 6.56087 -1.028286 -1.482673 -0.395126
H 11.89421 5.9718 7.2479 -0.463995 0.233667 0.648125
H 12.74231 6.32197 6.07616 -1.274739 -1.122771 0.258414
H 12.57351 0.34671 4.96678 -0.199571 -0.231454 -0.413458
H 12.10541 0.47935 6.38023 -0.404892 -0.50687 -0.668689
H 2.10283 4.93304 10.38411 -1.120376 1.475296 -0.396312
H 2.56055 3.56074 10.24491 -1.654657 -5.323629 -1.388964
H 2.80228 10.63071 0.42486 -0.089657 0.091739 0.309799
H 4.33673 10.52791 0.56181 1.548587 0.177202 -1.232437
H 7.96468 6.89048 2.63112 2.528009 -0.310986 0.817652
H 9.34996 7.10711 3.49788 -0.630338 0.251112 -0.037309
H 3.56889 3.82083 7.37132 -0.395738 -0.285042 0.534388
H 3.76113 2.73018 6.40752 -0.574594 -0.319532 0.35925
H 11.79771 12.82961 1.32018 0.05671 0.180738 -0.2017
H 12.78741 0.90428 0.55552 0.367119 0.237233 -0.095909
H 6.92908 9.78459 9.10552 -0.843947 -1.053565 0.406312
H 7.22339 10.89331 8.03566 0.50334 -0.654075 1.052774
H 6.52968 9.64841 1.38807 -0.243418 1.644754 0.359958
H 6.33577 8.30546 1.99831 -0.245502 -0.49825 0.515067
H 9.32148 12.58971 1.93051 1.874802 -0.209515 -0.233555
H 9.9388 12.13551 0.57162 1.192232 -0.14356 1.245839
H 11.68691 7.3776 12.18651 -0.514359 -0.313824 0.103183
H 11.71261 8.17373 0.52918 -0.507031 -0.335899 0.060433
H 1.18455 4.58176 1.93537 -1.869349 2.242262 0.668883
H 2.70726 4.38638 1.46828 0.073974 0.309283 0.254227
H 4.69436 9.30993 9.95253 -0.489395 -0.271931 -0.895325
H 5.36343 8.10404 9.0557 -0.42233 0.103739 -0.199513
H 10.44131 3.31455 10.80931 -0.690231 -1.687032 0.042769
H 10.70691 1.75001 10.63131 1.314205 -0.946851 -0.715981
H 7.56333 0.95221 1.64489 0.057304 -0.474957 0.992833
H 7.42373 12.76721 2.78172 -0.995577 -0.692528 0.259384
H 0.67937 0.21599 2.93587 0.566326 0.353641 0.137696
H 1.88535 0.21742 4.00703 1.737934 -1.003535 -0.036764
H 5.95608 3.49076 8.61377 -0.073655 0.213711 0.327436
H 6.92341 2.50134 9.39034 -0.268386 0.005183 0.186616
H 8.68142 6.08828 7.02354 0.597808 -0.409896 0.099729
H 9.45812 7.23421 7.89638 -1.614451 -0.691462 -1.267437
H 3.07041 5.7461 6.27002 0.276707 -0.233173 -0.084238
H 1.92953 6.68016 6.70342 -0.005855 0.013045 -0.097815
H 5.14989 7.59033 6.85016 0.573244 -1.447454 2.158336
H 6.44062 6.96075 7.55522 -0.765915 0.134169 0.231695
H 5.74697 6.65137 3.7435 0.230319 0.821676 -0.040413
H 6.58222 7.94441 4.2774 -0.327967 -0.550419 -0.922104
H 2.19012 7.84688 12.10561 -0.362273 1.864945 0.231256
H 1.15425 8.26226 11.23401 -1.471844 -0.040447 -1.606949
H 6.95278 1.70619 7.03121 -0.208974 -0.314352 0.236823
H 8.09469 1.33075 6.14636 0.734201 -0.117924 -0.671797
H 11.88111 9.98579 1.57159 -1.373549 1.041147 0.520956
H 0.16036 9.78323 0.78459 0.141055 -0.635896 -0.057574
H 3.72623 8.88816 3.82885 0.693431 1.811853 1.53128
H 3.30655 10.29641 4.47307 0.360699 -0.435745 0.194049
H 10.45751 9.83669 4.22685 0.676935 -0.189801 0.508444
H 10.13491 10.41921 2.89169 -0.649528 0.250171 -0.236388
H 1.74061 1.95949 11.97901 -0.289725 -0.38979 -0.622555
H 1.46368 2.75356 0.25611 -0.255443 0.415357 0.956062
H 6.00467 11.22861 11.75091 1.579738 1.287616 -0.145111
H 4.76825 10.50561 11.36931 -0.038999 0.073262 0.780707
H 9.76149 4.56164 8.54828 -0.758415 0.21927 1.015435
H 10.09351 5.77585 9.32196 0.797996 1.383905 0.406807
H 1.38432 1.19246 7.74715 -0.607575 0.474835 -0.1233
H 0.09737 1.4677 8.49776 -1.917371 -0.398418 3.352011
H 9.43487 2.79477 2.25733 -0.22994 -0.035301 -0.449685
H 10.85511 2.29738 2.56297 -0.274611 0.235576 -0.048602
H 2.76727 9.75992 10.55431 -0.02121 -0.024279 0.196889
H 2.9494 10.42891 9.16625 0.04617 0.184405 -0.52485
H 4.56943 4.82855 9.89832 -4.140842 -0.906313 3.243682
H 5.03761 5.82258 8.8281 0.400059 -1.790038 0.526145
H 9.43504 2.07946 4.40683 1.321808 -0.419229 2.195168
H 10.36921 1.49927 5.70955 -0.074579 -0.333717 -1.021136
H 9.60906 11.24761 8.15139 -0.045504 1.441222 -0.011122
H 10.93051 11.49801 7.65341 2.118369 -0.585687 -0.787356
H 0.3074 11.28991 10.55581 -1.835547 -2.874128 0.603298
H 0.96568 11.95081 9.36461 0.495336 -0.429129 0.146303
H 3.40315 7.28462 1.90028 0.61418 -1.86156 -0.199112
H 3.11366 8.68963 1.57577 0.39685 1.418555 -0.118442
H 8.05869 5.64274 10.17141 -1.424827 0.707084 0.722869
H 6.45121 5.74387 10.38781 0.362919 -0.264171 -0.231771
H 7.57412 12.85847 10.78881 0.229265 3.222217 -0.457879
H 7.28023 11.48851 10.26881 0.593725 -0.039269 0.659912
H 8.30086 9.26128 4.49918 0.40543 0.473489 -0.553011
H 8.23742 8.44102 5.80252 -0.15132 -0.234202 0.473299
H 11.43511 10.71441 11.07011 -2.060144 0.764706 0.25972
H 11.84051 9.3814 10.18691 0.160212 1.592359 1.096651
H 4.61795 5.01487 2.41533 -0.39254 -0.490763 -1.293151
H 5.03957 4.05044 1.18395 -0.625529 0.930055 0.418676
H 10.41571 4.65428 6.26713 1.308558 1.003494 -0.521921
H 9.49562 3.56182 6.38658 -0.869778 -2.520902 -0.810678
H 8.37229 8.67593 0.41494 -0.137387 -0.213403 0.842604
H 9.63074 8.42829 12.44391 0.869728 -0.973314 0.34372
H 1.46183 3.66468 3.68719 0.524566 0.07122 -0.648076
H 1.00742 2.44619 4.44635 0.159746 -2.107486 -0.287607
H 0.83324 11.95451 0.38104 0.580054 -0.219905 -0.6275
H 1.5016 11.65461 11.88921 -0.102097 -0.166291 0.759576
H 0.30379 8.77984 3.12639 -0.516185 0.180286 -0.221499
H 1.64923 8.04052 3.05262 -0.907311 -0.484028 0.369899
H 8.15201 5.22586 12.39291 -0.02062 1.086043 -0.963167
H 7.86129 3.97554 0.10615 0.361066 -0.43855 0.509531
H 12.75001 4.92611 3.64347 0.081906 0.455607 -0.684131
H 0.01707 6.36135 2.94314 0.447701 0.59541 0.569369
H 12.53421 0.08718 10.10081 -0.761452 0.701074 0.221617
H 11.21961 0.10608 9.26012 0.342739 0.900475 0.504026
H 4.36951 12.18821 3.60194 -0.59054 1.327739 1.298235
H 4.23865 0.77772 4.19706 0.163408 -0.057464 -0.092452
H 5.74276 1.96274 4.85054 0.603888 0.173047 0.054861
H 4.6904 2.98242 4.08299 0.435399 -1.654664 1.851798
O 5.70443 10.73871 2.89608 2.123883 2.490842 -2.032556
O 11.12591 3.41655 0.49092 3.347601 0.511542 0.978799
O 5.09798 0.24004 8.50555 0.129283 0.267735 -1.201245
O 1.77345 6.68784 9.43883 0.210234 -0.386727 -1.666201
O 10.17361 11.36691 11.82701 -2.383419 -0.382128 0.693648
O 6.86651 11.20741 6.50507 0.226024 -0.592813 -1.490315
O 4.71589 1.23313 11.12851 -1.408765 -2.319609 -0.078882
O 12.11951 9.905 5.08926 -1.50146 1.41119 0.829718
O 7.52347 1.84438 10.95381 -0.66276 -0.513356 -1.372974
O 4.58609 6.76273 11.96031 -0.883127 -0.181381 0.001377
O 2.14109 1.69824 10.21581 2.073631 2.470734 0.018754
O 0.93639 8.07937 6.22981 1.127771 1.068918 1.099432
O 12.07781 5.6082 6.36955 2.010428 1.160268 -0.721564
O 11.76721 0.15324 5.50026 1.018571 0.512832 1.204642
O 2.83882 4.36431 10.49341 2.879821 3.908591 1.885201
O 3.53923 10.21801 0.94743 -1.940728 -0.346692 1.058597
O 8.97596 6.67312 2.72076 -2.13236 0.345795 -0.370431
O 3.19918 2.93182 7.20029 0.882945 0.617161 -1.103143
O 12.74071 0.12901 1.13434 -0.175443 -0.590583 0.691792
O 7.5555 10.47391 8.91235 0.33133 1.68932 -1.120857
O 6.57597 8.73677 1.17142 0.584124 -1.338991 -1.026137
O 10.24751 12.21551 1.53803 -2.802201 0.246187 -0.767811
O 11.16201 7.4733 0.06084 0.867035 0.307258 -0.263571
O 1.84118 3.99369 1.6659 1.957305 -2.68612 -1.041428
O 5.44662 8.69319 9.81859 1.357081 0.067747 0.847885
O 10.15431 2.38257 11.07031 -0.863987 2.90291 0.378141
O 8.01798 0.44968 2.39641 0.970069 0.694361 -0.977987
O 1.04438 0.5628 3.78152 -2.231845 0.741768 -0.120994
O 6.3775 2.61518 8.58604 0.312388 -0.359076 -0.614679
O 8.6509 7.01455 7.29026 0.763462 1.424922 0.756543
O 2.41767 5.86084 6.9912 -0.646848 0.438012 -0.38213
O 5.45464 7.05222 7.67873 0.546611 1.427901 -2.554709
O 6.21071 7.48132 3.46205 0.133405 -0.516592 1.148394
O 1.66179 8.68682 11.90051 1.938387 -1.965678 1.176704
O 7.20907 1.00962 6.39075 -0.685524 0.572446 0.1379
O 12.48151 9.28826 1.37849 1.439576 0.356781 -0.828973
O 4.01899 9.62709 4.51901 -1.204794 -1.77638 -1.491913
O 9.74572 9.85537 3.58016 -0.183347 -0.02692 -0.403056
O 1.05101 2.07152 12.65251 0.06573 0.249932 -0.030671
O 5.38972 10.61871 12.12921 -1.376098 -1.092643 -0.603869
O 9.60688 4.97201 9.45652 -0.124271 -1.715548 -1.118638
O 0.48112 1.57057 7.67825 2.205201 0.238172 -3.676293
O 10.07231 2.70869 2.96483 0.190002 -0.035002 0.520639
O 3.41273 10.24951 10.01471 0.019982 -0.159656 1.23924
O 5.22892 4.93864 9.30499 3.363212 2.5365 -4.071793
O 9.54351 1.93874 5.44485 -1.082393 0.753653 -1.081607
O 10.18241 12.01651 7.85641 -2.066689 -0.929353 1.095192
O 0.78683 12.05441 10.32271 1.802123 2.835498 -1.503704
O 3.12229 8.06973 2.32635 -0.631079 0.555871 0.599839
O 7.30582 6.10319 10.69091 1.420683 -0.395755 -0.200109
O 7.40401 12.01721 11.13081 -0.264008 -3.130539 -0.434944
O 7.69947 8.99712 5.21032 -0.249058 -0.44646 0.146387
O 12.12791 10.13471 10.80931 1.945248 -2.961789 -1.690062
O 4.45878 4.83582 1.43167 0.962645 -0.421161 0.615886
O 9.59671 4.44188 6.68475 -0.505845 1.400236 1.213213
O 8.77462 8.83737 12.50571 -0.742739 1.165244 -1.025834
O 0.79034 3.34396 4.2928 -0.632731 1.80082 0.824269
O 1.40925 11.30501 12.80551 -0.527384 0.622349 0.370357
O 0.71629 7.97782 3.4553 1.278845 -0.180993 0.044093
O 8.60775 4.59712 0.00438 -0.289714 -0.483208 0.499773
O 12.82611 5.41599 2.79352 -0.927337 -0.651588 0.081594
O 11.78651 0.71827 9.81699 -0.111477 -1.422752 -0.91502
O 3.90522 12.78651 4.26518 0.246786 -1.617619 -0.710833
O 4.81159 2.14488 4.69527 -0.755231 1.643157 -1.376363
Na 6.46793 8.1864 11.89411 -0.036559 -0.072607 -0.403996
Na 10.52571 5.70508 1.63055 0.335113 -0.749026 -0.772199
Na 0.93228 3.94582 6.49591 0.267727 -0.140628 0.25696
Na 4.81499 12.33751 6.54374 -0.135572 -0.278548 -0.169349
Cl 3.99777 4.97843 4.52846 0.271633 0.470498 -0.329696
Cl 2.13212 10.82541 7.5072 -0.224878 0.269882 -0.480535
Cl 11.41371 7.47365 8.92374 0.118654 0.06776 0.017078
Cl 6.46982 2.31226 0.73836 -0.279994 0.284443 0.11685
200
energy=-1094.15316648 config_type=nep2xyz pbc="T T T" virial="-18.52798 2.56849 -2.36254 2.56849 -23.59521 -0.38981 -2.36254 -0.38981 -7.29552" Lattice="12.819132805 0.0 0.0 0.0 12.819132805 0.0 0.0 0.0 12.819132805" volume=2106.570220183759 Properties=species:S:1:pos:R:3:force:R:3
H 6.28871 0.30081 11.73446 -1.843521 -0.707762 1.747274
H 5.57702 0.59544 0.35049 -0.227426 -0.032268 -0.213167
H 2.05086 3.44767 4.97871 -1.651362 0.351168 1.232452
H 2.75639 2.56244 4.0117 0.230904 -0.237746 0.040013
H 8.59777 1.5529 6.42954 0.060171 0.076335 -0.164228
H 8.66707 2.89293 5.59521 0.120094 0.079797 -0.540109
H 1.34524 3.26984 0.75993 0.617642 0.079604 -0.3046
H 0.88819 2.87609 2.11372 -0.353515 -2.226036 1.98263
H 0.32297 8.80569 10.72376 -0.389735 0.616528 0.547594
H 1.05642 10.10466 10.88736 0.358996 -0.0139 0.343505
H 9.64813 2.23693 9.25076 -0.146497 -0.378118 0.838414
H 8.85729 0.86917 9.73119 0.611711 0.614833 0.28574
H 3.88272 0.20847 7.89828 0.149491 -0.575912 -0.101264
H 2.90961 0.90709 8.99485 0.489137 -0.226835 -0.136972
H 11.90446 2.92542 11.39986 -0.725873 -1.29743 0.403442
H 0.12675 3.8932 11.79036 0.708771 0.526967 0.574583
H 6.31312 6.16681 0.71487 -0.52606 0.143802 -1.102381
H 5.65729 5.9089 12.12096 -0.606912 -1.356948 -0.586162
H 4.71699 3.46327 4.36985 0.505992 0.375304 -0.158638
H 5.93919 2.64365 4.05511 -0.156031 0.672856 -0.130627
H 8.09413 9.36212 12.65206 -0.353372 -0.889554 -1.06476
H 7.73008 7.82189 12.11956 0.680109 1.393393 0.051119
H 12.71646 3.49253 5.4247 0.17453 -0.571105 1.609819
H 0.14273 3.35441 7.14942 0.698802 -0.136216 -1.536217
H 4.65275 5.27742 10.43606 0.034169 -0.068804 -0.5619
H 4.74745 3.9463 11.07846 -0.248809 -0.212697 0.501525
H 8.19969 12.17386 8.31391 -0.183315 -0.140454 -0.168031
H 8.00396 11.39176 9.65456 0.432757 -2.418576 0.732172
H 10.81816 6.82346 6.2247 1.464922 0.115942 -0.529129
H 12.29796 7.41684 5.91921 -0.511924 -0.350305 0.040649
H 1.41964 7.66152 6.60416 -0.308975 1.024869 0.384894
H 0.4292 8.08931 7.71723 0.421106 0.768592 -1.809563
H 10.42396 4.67491 12.06826 1.152259 0.59126 0.639933
H 10.06811 3.97453 10.70936 0.289469 0.167557 0.134235
H 11.74776 5.00507 4.85947 0.487572 0.319774 -0.209504
H 11.28756 3.9337 3.84283 0.9956 -0.023707 0.650617
H 12.47686 0.47319 4.61984 -0.592196 -0.007564 -0.344033
H 0.38947 1.32423 5.71084 -0.187973 -0.551847 0.015065
H 8.36734 6.24489 5.52348 -0.27245 -0.921816 1.046504
H 7.43577 5.08756 5.31776 -0.240483 -0.433143 0.427277
H 7.81506 0.86944 2.04234 0.697256 -0.465283 -0.5462
H 8.30064 12.39916 1.27756 -0.528248 -1.021619 -0.261671
H 12.12986 1.26224 0.55702 -0.830563 0.392688 -0.913135
H 11.81656 0.78014 11.96606 0.218966 -0.627497 -1.23025
H 7.07887 10.42786 1.33953 -0.085904 -0.813178 1.28207
H 6.64181 11.20786 0.11972 1.136237 -0.039822 0.155284
H 3.94136 3.15286 6.66223 -0.400562 -0.262137 -0.748548
H 4.21605 2.23352 7.97469 0.038584 0.757366 -1.060708
H 10.10059 9.98477 5.94598 0.24686 0.585293 0.262154
H 11.01916 10.62646 7.01156 1.069226 -0.261765 3.102414
H 7.51634 9.02214 3.3463 0.006101 0.949946 0.055275
H 6.09969 8.74269 2.9591 -0.048358 1.713036 -0.269624
H 11.65836 9.9414 4.72857 0.356003 0.329142 -0.233476
H 11.44016 9.01184 3.48302 0.375486 0.974861 0.435664
H 10.79596 7.35636 4.05875 0.104297 -0.539791 0.349065
H 11.35706 7.17996 2.63688 0.827283 -0.207289 -0.35587
H 3.35144 10.78806 10.77186 -0.78607 -1.646147 -0.372992
H 3.52845 9.26718 11.23166 -0.023049 -0.327253 0.577647
H 7.21777 5.58635 2.37351 0.280834 0.142726 0.095503
H 5.97422 4.76388 2.7891 -0.49794 -0.586123 0.626771
H 3.46257 8.57812 7.6773 -0.978304 -1.362819 -1.35413
H 3.45355 9.15704 9.13431 0.884496 0.423423 -0.812206
H 9.20407 4.71476 2.63678 -0.388585 0.111168 -0.069188
H 9.44552 6.27352 2.59809 0.244618 0.499185 0.288167
H 12.17026 12.05246 10.36076 -0.075756 0.49161 -0.395082
H 11.29556 0.41785 9.98204 -0.457418 0.227863 -0.231553
H 1.6256 0.65196 4.16628 -0.856007 -0.330217 0.857593
H 1.81072 0.61406 2.6188 0.351633 -0.122631 -0.055418
H 5.39184 0.21911 4.29364 -1.077886 0.539022 -0.622361
H 3.8764 0.52104 3.79834 -0.417499 -0.103797 0.049532
H 2.04307 2.0529 10.40266 -0.096926 -0.098005 0.112912
H 0.77258 1.13913 10.21036 0.687435 -0.395893 -0.406078
H 1.94561 5.605 12.31486 0.40722 -0.851002 0.315886
H 1.41493 6.59678 11.31486 -0.191119 0.310854 -0.687619
H 10.38896 10.32606 9.37452 -0.484212 -0.076151 -0.033516
H 11.79346 9.96652 9.78227 0.491183 -0.20876 0.204758
H 10.90256 12.68966 3.00715 0.466632 1.242197 0.277665
H 10.64436 1.4225 3.23488 0.356171 -0.584719 -0.007189
H 12.33956 10.47806 2.24147 -0.710819 -0.044076 1.81566
H 11.97806 10.65886 0.72662 0.317358 -0.275541 0.397135
H 7.28206 8.47645 7.12256 0.2096 0.298475 -1.204648
H 5.95338 8.50399 7.97086 -0.183837 0.146499 0.098694
H 11.28386 3.3026 8.24945 -1.82422 0.452417 0.263646
H 9.86312 3.05897 7.52928 0.022376 0.396189 0.130091
H 2.83138 6.12164 7.35724 0.223892 0.191856 0.415867
H 2.86803 6.59028 5.8337 0.012282 0.379911 1.000104
H 7.13305 3.98756 1.00592 -0.022605 1.823729 1.090683
H 6.64921 2.64198 0.71463 -0.19296 0.109571 -0.342879
H 0.51061 8.30272 3.03638 0.025911 0.356092 0.665802
H 0.87841 6.7779 3.11677 -0.084943 0.576054 -0.361492
H 3.03823 0.29155 11.09976 -0.287954 -0.566057 -0.084279
H 4.32278 12.46236 11.77256 -1.332201 -0.350336 0.023539
H 2.87643 5.16537 4.12693 0.05993 0.482541 -0.352647
H 2.97443 6.73108 3.61463 0.576712 -0.687378 0.222119
H 7.65483 3.27237 7.63808 -0.275415 0.210846 0.037888
H 6.22762 3.44857 8.24302 0.400801 0.489449 -0.328752
H 3.20914 7.41083 12.65226 0.709177 1.472139 -0.076725
H 4.70198 7.8774 12.79646 0.411705 -0.194861 -0.282849
H 2.30264 4.76126 9.04918 -0.137432 -0.198059 -0.314513
H 3.62111 4.26219 8.35065 0.108656 -0.090284 -0.102251
H 1.32284 10.14516 6.08002 0.574944 0.339792 0.162075
H 1.22856 11.69416 5.72148 0.856256 -0.945348 0.274206
H 4.74625 1.61646 2.16883 0.183603 -0.289883 0.632561
H 4.13641 2.29377 0.88665 0.235771 0.095479 -0.281862
H 7.22867 6.0687 10.96006 0.809721 -0.379895 -0.355846
H 8.61929 5.26105 11.02856 -1.01899 1.174573 -0.861182
H 8.66031 9.09816 10.43156 0.133293 0.394419 0.306564
H 8.20304 9.20996 8.98505 -0.010946 0.302072 -0.060335
H 9.09694 11.90266 6.14619 -0.143814 0.544669 0.357198
H 7.62176 12.34616 5.92554 -0.192154 -0.240343 -0.02839
H 6.67506 0.75917 9.79722 0.487198 -0.26586 -0.018974
H 5.22359 0.97825 9.61003 -0.198203 0.630682 0.806635
H 0.21754 5.12221 8.70851 0.363957 -0.688402 0.466231
H 0.30253 3.85855 9.75449 0.112764 0.77026 -1.6839
H 10.94996 6.89276 12.79146 0.266659 0.166781 -0.053119
H 10.43126 8.26592 12.32196 -0.741483 0.187557 -0.214054
H 11.04586 6.98034 8.52761 -0.929114 0.551193 -0.737329
H 10.06609 8.08131 7.81578 0.438516 -1.593928 0.474731
H 3.38605 11.43466 6.40127 0.173245 -0.169366 0.037214
H 4.29286 10.81186 7.45839 -0.072128 -0.107678 0.093483
H 5.35763 7.13576 2.6778 -1.519471 0.275029 0.212277
H 4.25366 7.91173 1.87423 0.136033 0.223256 0.52542
H 1.87472 12.26296 0.23529 0.62961 0.3055 -0.390074
H 0.7434 12.04336 1.21685 0.475227 0.451332 -0.2669
H 5.63365 11.50366 5.87327 0.012737 0.572314 -0.95044
H 6.33367 10.94936 4.54931 0.107181 0.492021 0.173326
H 10.70736 5.25066 1.40724 0.455171 -0.167936 -0.488422
H 12.17856 4.6975 1.19872 0.946937 -0.54575 0.555863
O 5.7232 12.69896 12.49976 1.615075 0.546339 -1.511242
O 2.91296 3.29958 4.63942 1.320583 -0.125681 -0.93794
O 8.64288 2.53924 6.4903 0.095541 -0.664382 0.621836
O 0.97119 3.619 1.58122 -0.306489 2.215683 -1.673917
O 0.28226 9.6516 11.26956 0.283947 -0.866385 -0.854963
O 9.32091 1.70516 10.05202 -0.452614 -0.527911 -0.623435
O 3.85097 0.83426 8.64752 -0.229461 0.447484 0.049953
O 12.54706 3.50932 11.01986 -0.040361 0.34718 0.007592
O 6.16217 6.54637 12.61586 1.019533 1.311509 1.575477
O 5.65177 3.58308 4.07538 -0.228904 -0.694001 0.242542
O 8.31403 8.6265 11.98056 -0.316135 -0.658122 0.990203
O 0.33168 2.98651 6.22823 -0.311735 0.364212 0.062142
O 5.30746 4.71351 10.87986 0.196232 0.369716 -0.366997
O 7.97247 12.23526 9.26374 -0.22395 2.979381 -0.880649
O 11.57676 6.80342 5.54984 -0.871637 0.248476 0.535885
O 0.67622 8.35927 6.74538 -0.249859 -1.386344 1.049459
O 9.74052 4.21534 11.59186 -1.007818 -1.017327 -0.750593
O 12.10876 4.26974 4.30856 -1.673047 0.235732 -0.715512
O 0.35472 0.41341 5.28656 0.667192 0.71652 0.53068
O 8.05534 5.40888 5.99383 0.469687 1.634762 -1.500496
O 8.40714 0.52449 1.33726 -0.098023 1.501291 0.45163
O 11.51966 1.4323 12.60226 0.658789 0.478584 2.375096
O 7.4464 10.74746 0.51569 -0.741722 0.851658 -0.838893
O 4.47927 3.07795 7.44401 0.418507 -0.714182 1.695492
O 10.77416 10.70686 6.1311 -1.510407 -0.389707 -3.288076
O 6.76162 9.50644 2.93472 -0.180716 -1.808223 0.223328
O 12.01906 9.75046 3.82779 -0.826206 -0.970915 -0.288854
O 10.53956 7.34028 3.1084 -0.535813 0.671288 0.190818
O 3.07921 9.79323 10.55916 0.197639 2.090055 0.225257
O 6.23782 5.5605 2.30216 0.677998 0.532341 -0.367748
O 3.97986 9.08563 8.26684 0.778486 1.154618 1.606201
O 8.97949 5.54199 2.14155 -0.123429 -0.744907 -0.19501
O 12.13286 0.21919 10.40846 0.136485 -0.882205 0.355534
O 2.23529 0.88693 3.45693 0.24248 0.452469 -1.170387
O 4.76796 0.89042 3.84574 1.855591 -0.482098 0.44169
O 1.73891 1.21254 10.00076 -0.428911 0.744901 0.441348
O 1.78011 6.54131 12.20586 -0.214266 0.447276 0.297699
O 11.31566 10.60026 9.2399 -0.079481 0.316556 -0.270294
O 11.36756 0.73269 3.16966 -0.561379 -0.887753 -0.299545
O 12.65976 10.36436 1.3595 0.323167 0.36763 -2.130887
O 6.91616 8.37153 7.99758 -0.061657 -0.551498 1.337678
O 10.28246 3.43598 8.3565 1.846355 -0.571255 -0.478926
O 2.82483 6.92568 6.78832 -0.035449 -0.635306 -1.445648
O 7.24912 3.32992 0.35547 0.254096 -2.118114 -1.174571
O 0.55152 7.49322 2.51994 0.114885 -0.879374 -0.004014
O 3.34895 12.26576 11.48366 1.317484 0.55611 0.375663
O 2.58604 6.09473 4.2496 -0.431082 0.215047 -0.129833
O 7.16057 3.74944 8.35187 -0.351401 -0.625917 -0.103701
O 3.80079 8.23481 12.79486 -0.881321 -1.387795 0.191282
O 3.17124 5.05025 8.71835 0.162827 0.473939 0.352865
O 1.87847 10.94336 5.90297 -1.505655 0.681156 -0.353349
O 4.9587 1.93915 1.27765 0.08671 -0.043142 -0.289227
O 8.00635 5.80467 10.41236 0.280337 -0.583766 1.63664
O 8.825 9.64314 9.61865 -0.554926 -0.532967 -0.303962
O 8.41917 12.54716 6.4685 0.513703 -0.244217 -0.080743
O 5.9727 1.28946 10.21516 0.06358 -0.564653 -1.059705
O 0.57119 4.20121 8.81542 -0.641409 -0.25872 0.182413
O 11.23136 7.78087 12.52136 0.394782 -0.328365 0.331281
O 10.23976 7.09806 7.9246 0.006664 1.030667 0.259578
O 4.26777 11.58576 6.85024 -0.222891 -0.158891 0.240727
O 4.59567 7.79641 2.79594 0.997336 -1.041744 -0.812668
O 1.3222 12.76236 0.85192 -1.043879 -0.578364 0.725733
O 6.21317 11.77366 5.07863 -0.155437 -0.885525 0.510428
O 11.46366 5.16298 0.76984 -1.603905 0.491352 -0.156284
Na 0.45768 8.37817 0.43564 0.10607 -0.199096 -0.231584
Na 9.53213 2.27006 0.18106 -0.549241 -0.061371 0.281428
Na 7.39709 3.05305 10.46356 -0.315823 0.557805 0.290964
Na 8.09039 5.88787 8.27541 -0.044432 0.182042 -0.437813
Cl 3.00915 3.33183 12.02756 -0.62492 -0.156647 0.129013
Cl 0.12681 7.12413 9.40768 -0.059809 0.067724 0.512401
Cl 9.19971 2.77847 3.34649 0.04195 0.360347 0.031012
Cl 8.41949 8.90623 5.42049 0.37347 -0.375014 0.021621
200
energy=-1090.31011601 config_type=nep2xyz pbc="T T T" virial="-21.59534 10.68141 7.97473 10.68141 -28.41274 -0.37686 7.97473 -0.37686 -32.25872" Lattice="12.802398682 0.0 0.0 0.0 12.802398682 0.0 0.0 0.0 12.802398682" volume=2098.3312211315742 Properties=species:S:1:pos:R:3:force:R:3
H 4.05985 2.93604 10.33015 -0.128597 0.727736 -0.388155
H 2.88961 3.94048 9.86368 0.721819 -0.575073 0.333885
H 5.13686 8.89346 2.87349 0.95569 -0.73153 -0.954951
H 6.58493 8.39778 2.55601 0.695886 0.137323 0.527275
H 10.31705 4.50388 0.76941 -0.279474 -0.002985 -0.277747
H 11.01765 3.35145 1.38803 0.871477 -0.594884 1.233567
H 8.92193 0.44387 10.84455 0.451654 0.732267 -0.166591
H 8.724 11.76245 10.85175 0.032242 -0.385232 -0.133857
H 4.6008 7.01636 6.65637 1.690056 1.311484 -2.536301
H 5.40043 6.64055 5.29754 -0.366919 0.843097 0.023017
H 6.70947 3.2319 11.42785 0.293825 1.324496 -0.096025
H 6.47903 4.78031 11.01625 0.6904 -1.230687 -0.600761
H 12.49655 8.52807 6.13714 -0.092088 -0.05319 -1.196055
H 12.70895 9.19399 4.71236 0.012594 -0.051203 0.331736
H 5.41676 12.67485 3.35296 -0.377502 -1.230097 0.304105
H 5.00337 1.21521 2.72061 -0.794645 0.538318 -0.442355
H 4.70491 1.14958 8.978 0.045632 -0.279133 0.071947
H 4.44887 1.96845 7.6382 0.675594 -2.056934 0.327437
H 2.05209 1.90435 0.90332 1.736517 0.135772 0.621823
H 0.9125 1.88756 12.77765 -0.898745 0.503209 -2.065836
H 12.79125 2.91955 10.75755 -0.314836 -1.220766 -0.244869
H 11.42265 2.07369 10.79085 0.724641 0.073253 -0.356528
H 1.70801 5.99086 0.17537 0.036278 0.292586 -0.080463
H 2.03283 7.53223 0.58243 0.003907 -0.7219 0.251563
H 0.71446 11.79545 11.77065 0.255003 -0.242008 0.214346
H 12.56775 10.54725 11.79565 0.268098 0.233143 0.092433
H 12.51065 6.36404 2.89709 0.159232 -0.066262 -0.364636
H 12.56955 6.87392 4.33377 0.735713 -0.594389 -0.345768
H 9.18678 10.82735 1.76691 -0.80575 -1.025643 -1.16291
H 8.1842 11.70485 0.95847 0.469144 -1.879957 -0.154811
H 4.73094 11.56185 12.00875 -0.295914 -0.380301 -0.076272
H 5.34934 10.14205 12.00795 0.514499 -0.547682 0.249014
H 5.75724 7.11632 9.11737 -0.793994 0.574295 -0.019616
H 6.35555 8.43528 9.56808 -0.415041 0.47012 -0.326946
H 6.88385 7.85845 6.35842 1.365883 -0.046575 0.141418
H 8.07988 6.83907 6.6068 -0.198299 1.954092 -0.203711
H 3.70819 3.27131 5.96532 1.423206 0.108221 0.676557
H 3.6951 3.44733 7.52512 0.586397 0.526205 -0.382609
H 1.48855 7.7813 6.75236 0.906464 0.184731 0.650162
H 1.36359 6.92731 7.962 -0.139526 -0.516429 0.414228
H 10.45955 10.03265 10.51985 0.989362 -0.05711 -0.071023
H 11.13885 11.43095 10.36385 0.284342 -2.27483 -0.216783
H 12.18655 11.85575 1.51602 0.000225 -0.252422 0.012461
H 0.08511 0.38724 1.59203 0.567206 0.523892 -0.157212
H 4.78861 5.431 3.45733 -0.316005 0.29538 0.36979
H 6.16237 5.59768 2.85428 -0.159814 0.031877 0.978863
H 1.95345 12.65605 3.1611 -0.55501 -3.201194 -4.012379
H 2.46966 12.75281 4.52236 0.08067 0.16243 0.525721
H 10.68015 9.39224 7.78211 0.936783 -0.790367 -0.502045
H 11.18275 7.98138 8.16201 -0.201647 -0.547636 0.052204
H 12.78678 12.35835 7.62226 0.661287 -0.823188 -0.597336
H 12.71507 11.39405 6.43576 0.220469 -0.220858 -0.357137
H 8.14496 8.04257 4.60559 0.720577 -0.042464 -0.853134
H 8.93925 7.48718 3.29901 -0.285991 -0.271154 0.175001
H 9.76374 2.46123 12.24235 0.191768 -0.20418 -0.904727
H 9.05946 3.00767 11.01955 0.445298 -0.840409 -0.049161
H 11.73475 6.01921 11.80435 0.526118 1.151387 1.736245
H 11.90255 4.64382 11.16135 -1.063308 2.373459 -0.155673
H 1.02483 5.87312 9.51452 -0.331615 -0.32642 -0.234792
H 12.52195 5.52649 8.81458 -0.676949 0.088409 0.119752
H 9.46958 6.72253 1.01431 0.160967 -1.172018 0.893608
H 8.32366 5.70577 1.28708 -0.749066 -0.079493 -0.258779
H 10.90095 9.2745 2.38099 -0.510998 0.87291 0.409776
H 9.62002 9.38243 3.26842 0.187182 0.250032 -0.038019
H 12.58915 11.82925 3.77785 -0.304753 -0.107891 -0.273586
H 11.39885 10.95525 4.24551 -0.134009 -0.242377 -0.656946
H 7.18155 0.82446 0.1662 0.353119 -0.036613 1.271102
H 7.18264 0.62158 1.79749 0.069427 0.122827 -1.563706
H 4.72154 4.74837 9.20958 1.958724 0.801976 0.958568
H 6.23538 5.17071 8.80061 1.009042 -0.47331 -0.951196
H 3.44422 8.72409 9.5015 -0.189477 0.408974 0.280515
H 3.15149 9.91197 10.49775 -0.027727 -0.657537 -0.520026
H 1.7692 3.56909 6.1417 -1.324995 0.163334 0.932779
H 0.96694 4.45913 7.28686 0.222765 -1.176601 -0.607945
H 5.74767 10.72355 8.59597 -1.615723 -0.562637 -3.015045
H 5.61569 10.78245 10.03075 0.771884 0.109717 0.039209
H 1.46369 0.86093 10.30665 1.361198 0.081128 1.032082
H 2.89532 0.75348 11.15155 0.830643 1.299973 0.137766
H 6.05148 11.87635 5.79233 1.599744 1.569809 0.982611
H 5.81587 0.0449 6.94694 1.215172 0.405251 -0.615889
H 6.11702 8.63237 0.31815 -0.103089 -0.317034 -0.054171
H 7.18041 9.74182 0.35848 0.278038 -0.261762 -0.308708
H 9.86668 11.99825 5.96697 -0.439918 0.752965 0.59651
H 10.59665 0.11591 7.01754 -2.718257 0.091196 -0.825768
H 11.77615 0.94979 5.41671 1.444176 0.288871 -1.601534
H 0.3598 0.77641 4.57897 -0.017511 0.14196 -0.019083
H 12.28445 1.83114 6.97372 0.959815 1.343073 -0.836412
H 12.34755 1.35911 8.44894 -0.528015 0.407968 -0.128454
H 12.66465 7.88763 11.73805 0.3802 0.139772 -0.688366
H 1.33393 8.07883 11.49275 0.231613 0.223686 -0.395229
H 10.57115 5.19527 5.55695 -0.487506 -0.034287 -0.9807
H 10.34905 4.88343 6.98722 -0.826037 -0.392848 0.720056
H 6.20413 6.0124 0.33948 0.407968 0.030117 1.100161
H 7.02174 4.86514 12.64185 0.581605 -0.287928 1.383032
H 6.66291 2.2417 7.89667 -3.000468 0.230254 -0.544149
H 7.90982 2.77405 8.2617 1.142793 0.846038 0.279583
H 10.42315 0.94271 3.43809 0.081173 -0.119559 -0.151756
H 9.10855 0.90089 2.59896 0.380045 -0.091562 0.346119
H 4.00713 10.64475 6.06911 -1.085021 0.950653 0.389344
H 4.58451 9.251 6.31523 0.519434 0.065122 -0.069424
H 8.79266 9.22084 7.38489 -0.226421 -0.090504 0.300782
H 9.19054 9.48416 8.91742 -0.825477 0.701919 -1.151077
H 9.19235 3.77135 4.01844 -1.424741 -0.50954 0.58148
H 9.99375 4.76455 3.20971 0.137553 0.145663 -0.130641
H 2.03452 6.04355 3.83425 0.340002 -0.23062 -0.116286
H 2.55582 5.8818 2.43439 0.686333 0.16803 0.618525
H 3.8598 6.81974 12.54545 0.64229 0.09616 -0.073714
H 5.01569 6.97919 11.45445 -0.055238 -0.208649 -1.703775
H 2.29787 9.7917 1.93817 -0.264783 0.470763 1.373353
H 1.75551 9.49386 3.39462 -1.137277 -1.644186 1.078032
H 8.15298 8.87129 11.30035 1.230056 -0.294861 -1.525942
H 9.02316 7.90286 10.13625 -0.307857 1.778584 1.07091
H 0.47586 2.78267 1.87523 -0.242469 0.792134 0.365451
H 0.42584 4.24622 1.56191 0.023944 0.742486 -0.451664
H 3.16642 12.76935 6.83127 0.74687 -0.563705 -0.494766
H 1.95084 11.99115 6.60004 -0.356423 -0.911889 -0.265658
H 2.75754 2.37588 3.94106 -0.015393 0.337388 0.752624
H 2.98877 3.95279 4.00109 -0.271427 -0.339321 0.479365
H 4.22486 2.14446 0.63875 -0.036908 -0.1781 0.168549
H 3.57827 3.25457 1.45471 -0.010947 -0.131673 0.141526
H 9.59643 6.15801 8.81341 -2.084548 -2.221485 -2.739264
H 10.29885 6.32166 10.00305 1.163744 0.019725 1.37384
H 5.08382 10.39475 4.6196 -0.076877 1.04185 -1.145901
H 4.05695 10.90915 3.59693 -2.118144 -0.301543 -0.634493
H 7.80171 3.92412 5.82283 0.543689 -0.433929 -0.618056
H 6.92039 3.73089 4.62942 -0.159164 0.009209 -0.60695
H 1.64885 9.9731 12.56485 0.533501 -0.31336 0.823039
H 3.19978 9.48433 12.63525 -1.049558 0.09988 0.571073
O 3.77301 3.56399 9.61421 -1.272909 -0.350684 0.098097
O 5.67446 8.28947 2.28617 -1.397481 0.644069 0.321864
O 10.69065 3.62315 0.54772 -0.766074 0.570731 -0.930176
O 9.15369 12.45565 10.33365 -0.36568 -0.436582 0.049533
O 5.13409 7.43596 5.84175 -1.249921 -2.218446 2.436588
O 7.16673 4.13835 11.36965 -0.937669 -0.4443 -0.411009
O 0.12613 8.39814 5.23162 -0.371737 0.26529 1.13129
O 5.71526 0.75319 3.14481 1.548042 0.678749 0.016907
O 4.62715 1.00809 8.02311 -0.454931 1.848938 -0.870049
O 1.13177 1.67572 0.85489 -1.000692 -1.122806 1.345563
O 12.37385 2.04691 10.47355 -0.281928 0.876493 0.311652
O 2.28194 6.57616 0.71026 0.309951 0.61525 0.065417
O 0.4839 11.00555 12.29675 -0.589592 0.168706 -0.520375
O 0.084 6.11526 3.7591 -0.772199 0.659178 0.933499
O 8.51085 10.71855 1.01665 0.186579 2.887719 1.007641
O 4.53557 10.63355 11.77395 -0.007671 0.847113 -0.365399
O 5.56262 8.09322 9.1116 0.814407 -1.003137 0.393376
O 7.90474 7.83346 6.39195 -1.275599 -1.734507 0.014812
O 4.33221 3.43939 6.7687 -1.917707 -0.566371 -0.02851
O 1.92158 7.64953 7.63916 -0.598317 0.857595 -1.676438
O 11.35755 10.42595 10.31675 -1.327176 2.196505 0.426778
O 12.37995 12.57525 2.1304 -0.435941 -0.379072 0.157497
O 5.71821 5.47438 3.73544 0.486044 -0.320687 -1.045263
O 2.01001 0.45104 3.82243 0.472842 2.916458 3.698116
O 11.44245 8.72535 7.60741 0.040327 1.092313 0.243189
O 0.42627 11.53965 7.25307 -0.662613 0.689483 0.583625
O 8.43939 8.23567 3.65914 -0.467788 0.042237 0.672078
O 9.59662 2.2131 11.28055 -0.557211 1.208501 0.966002
O 11.46705 5.57048 11.03015 0.158759 -3.391424 -1.459294
O 0.65075 5.64145 8.63255 0.650171 -0.040624 0.65931
O 9.2474 5.90294 1.54484 1.182397 1.297978 -0.311947
O 10.36845 9.94002 2.91989 0.475129 -0.915379 -0.215273
O 12.22965 11.35045 4.55136 0.147585 -0.228016 0.901485
O 7.75093 0.59942 0.95686 -0.878192 -0.01146 0.608165
O 5.5632 5.32314 9.45048 -2.132065 0.017978 0.293535
O 2.72231 9.23726 9.92072 0.606863 0.507917 0.13099
O 0.97806 3.59787 6.76721 0.881532 0.756544 -0.608597
O 6.30146 10.80905 9.32051 0.853008 0.649192 2.774585
O 2.13406 0.32712 10.80465 -2.361607 -1.329194 -1.039305
O 6.5721 12.60745 6.30895 -2.829599 -1.859927 -0.244716
O 6.68435 9.16061 12.52625 0.161163 0.657686 0.360982
O 9.6418 12.74245 6.58482 3.414965 -0.586875 0.073707
O 12.41875 1.38145 4.77472 -1.603958 0.163043 1.305244
O 12.01095 1.1428 7.55071 -0.465007 -1.321586 1.765754
O 0.5149 7.97883 10.98605 -0.678666 -0.150651 0.748989
O 10.92695 5.37929 6.42324 1.452988 0.355225 0.013179
O 6.89469 5.39542 0.71611 -1.430494 0.461175 -1.365886
O 7.52631 1.94238 8.00542 1.969749 -1.535324 0.081485
O 9.47263 0.7674 3.49816 -0.373395 0.173449 -0.298915
O 4.83212 10.19105 6.22497 0.637558 -1.072832 0.239955
O 9.16609 9.90242 7.98831 0.138662 -0.364763 0.938594
O 10.06215 4.13973 3.94908 1.926132 0.821424 -0.517374
O 2.86862 5.76788 3.38228 -0.944131 -0.219434 -0.78952
O 4.78584 7.12798 12.35015 -0.5806 -0.076012 1.75956
O 2.22978 10.12345 2.91145 1.58046 1.415656 -2.5274
O 8.84825 8.85464 10.54365 -0.746972 -1.239438 0.430831
O 0.20642 3.66321 2.28341 0.055463 -1.414686 0.485342
O 2.86769 12.03685 6.23788 -0.253069 1.427917 0.682717
O 2.8853 3.13399 4.56551 -0.150618 0.288888 -1.09756
O 3.6513 2.2856 1.43105 0.411414 0.419093 -0.455052
O 9.93863 6.85707 9.29059 1.003931 2.248717 1.350209
O 4.97723 10.94925 3.76019 2.074177 -0.69029 1.308795
O 7.79234 3.44123 4.93848 -0.900081 0.335816 1.212688
O 2.30622 9.36964 0.2617 0.618849 0.026909 -0.778472
Na 12.38695 3.76206 4.70713 0.0567 0.265112 -0.505835
Na 8.12922 1.20701 5.29686 -0.244679 0.045196 0.101664
Na 0.6651 9.3694 8.89591 -0.119995 -0.106298 0.220871
Na 8.07435 12.12745 8.04785 -0.137999 -0.083002 0.668128
Cl 8.16487 4.8903 7.6384 -0.161823 0.075281 0.058914
Cl 1.38202 4.36749 11.76215 0.026044 -0.522935 -0.408279
Cl 11.88515 7.72987 0.98692 -0.155142 -0.104828 0.034055
Cl 5.43532 1.63014 11.62675 -0.405738 -0.260615 -0.04628
200
energy=-1089.36656995 config_type=nep2xyz pbc="T T T" virial="-23.44416 -2.70333 4.87895 -2.70333 -25.54095 0.08188 4.87895 0.08188 -20.64277" Lattice="12.805924416 0.0 0.0 0.0 12.805924416 0.0 0.0 0.0 12.805924416" volume=2100.065316950529 Properties=species:S:1:pos:R:3:force:R:3
H 10.77658 7.96343 2.27911 0.181296 0.178441 -0.359052
H 10.43068 8.81476 1.02415 0.290965 -0.006258 0.484423
H 10.63648 4.71981 1.09375 -1.153308 -1.979458 -0.877849
H 9.53069 4.26677 0.02916 0.061244 -0.105931 -0.326238
H 7.89223 3.63522 7.22553 0.302392 0.187553 -0.472937
H 9.20973 4.42288 7.79346 0.265833 -0.211301 -0.450623
H 9.84155 0.66502 5.35719 0.721622 0.04219 0.437001
H 8.71717 0.56142 4.27869 -0.088756 -0.340012 1.250858
H 4.33621 0.14557 2.96993 -1.022797 1.734484 -0.001439
H 4.84053 11.70928 3.71594 0.451316 0.720049 -1.944936
H 0.20786 8.33463 4.77935 0.312854 0.499115 -0.64739
H 12.27168 7.03061 4.1885 -0.080884 -0.292359 -1.053387
H 2.1028 9.41962 5.1765 0.467217 -0.394588 0.012931
H 1.91948 10.10908 3.77355 -0.375406 -0.472793 0.377929
H 3.67103 1.65241 12.55708 1.19701 -2.242827 -1.221468
H 4.00879 3.0071 0.30541 -0.35147 -0.503282 -0.10795
H 8.6569 9.23862 2.71982 0.870649 -0.433474 -0.476316
H 8.45301 9.91897 4.06468 -0.138299 0.13062 0.213496
H 1.39231 12.51598 11.00988 1.152333 -1.251502 -0.155975
H 0.30847 0.6167 10.54818 -0.095916 0.065898 0.372551
H 9.71906 2.42212 9.26786 -1.929293 -0.800144 -1.364603
H 10.17998 2.58841 10.72088 0.187222 -0.112473 -0.375805
H 3.54079 5.60003 6.91304 2.636808 0.767986 -0.668616
H 4.38251 5.4186 5.6395 0.274694 -0.539301 -0.955066
H 1.90559 4.24149 7.70408 0.717214 1.020894 1.001618
H 3.00207 4.08837 8.82531 -0.135402 -0.034417 -0.276956
H 7.18327 5.18515 8.64283 -0.98131 0.625172 0.641817
H 5.69842 5.74202 8.46908 0.459549 0.012923 -0.05431
H 2.29767 7.06138 3.93615 0.724018 -1.181358 -0.343248
H 3.07592 6.18869 2.87805 0.63868 0.284153 -1.249013
H 8.27243 6.38468 5.68011 0.161002 -0.720332 -0.567178
H 8.87321 7.74215 6.10131 -1.713901 -0.999311 0.105544
H 2.93979 8.37445 8.79499 0.941582 1.138947 -0.153251
H 3.89239 9.29943 9.61615 0.461461 0.32591 0.41159
H 10.38968 7.15387 10.20028 -0.562331 0.231313 0.495728
H 11.45068 6.14962 10.00628 -0.490704 0.706352 2.289062
H 9.19462 7.80508 8.1807 -0.107067 -0.469757 -0.403941
H 9.73626 8.96399 8.9738 0.0751 -0.089297 0.129234
H 6.49591 8.522 6.91878 -1.215109 1.574453 1.308982
H 5.103 9.02536 7.69413 0.770408 0.030741 -0.128393
H 5.22064 10.83338 11.18288 -0.252708 -0.881227 -0.204831
H 4.86825 9.54551 12.05398 0.003804 -0.142639 -0.592651
H 10.26538 4.62225 6.2697 0.774278 -0.154487 0.269827
H 10.92118 5.79207 7.03689 0.596819 -1.631506 0.394281
H 1.96638 7.84905 0.41553 -1.117526 0.934382 0.753669
H 0.63709 8.33525 1.25618 1.2098 -0.007079 -1.080462
H 8.26595 10.66018 11.39408 0.800209 -0.733061 0.132413
H 7.87201 10.21698 12.73478 -0.16315 -0.652615 -0.113523
H 4.18744 10.00768 5.17308 0.245839 -0.269663 0.401337
H 5.27755 10.85158 5.93182 0.398475 0.142341 0.90787
H 8.37515 7.84754 11.86008 -0.785121 -0.513372 -0.777337
H 7.33705 7.07257 12.59288 -0.589506 -0.41151 -0.185534
H 10.92058 11.91898 9.43449 -0.859749 -1.272873 0.358935
H 11.03148 10.45278 10.04828 -0.122223 0.211344 0.155591
H 11.53408 1.75045 5.1768 -0.040898 -0.178966 0.280361
H 12.28458 0.43579 5.60435 -0.649769 0.262114 0.326819
H 9.29198 11.07968 0.66445 0.517741 1.235898 0.904939
H 8.59168 11.65628 1.8923 -0.844611 0.35413 0.74034
H 5.53431 6.49506 1.34527 1.108557 -0.414522 -0.315291
H 6.63301 5.62686 1.90439 0.482439 -1.722077 0.871956
H 7.18007 10.45648 1.98669 2.301165 -1.551623 3.966072
H 5.97328 11.19278 1.61813 0.100967 0.126544 -0.492077
H 11.83548 7.53961 6.35531 -0.077611 0.249523 0.891857
H 12.34148 7.64761 7.81387 1.541819 0.022496 1.082897
H 0.81599 11.27008 5.17306 -0.400964 0.386709 -0.387595
H 0.66267 12.36198 4.01731 -0.487445 -0.441808 1.050924
H 8.59973 1.58172 7.2829 0.024151 -0.477475 0.301034
H 8.76228 0.22976 8.10038 -0.102681 0.861119 -0.180291
H 11.19428 2.96437 12.67264 0.641775 -1.044438 0.025728
H 12.08368 1.54945 12.59808 -0.656458 0.656924 0.178636
H 2.27002 0.98897 7.14303 0.270303 -0.352865 -0.57144
H 2.42434 1.54571 8.57208 0.612105 0.056668 0.712041
H 9.74444 2.96593 3.45955 1.38253 -0.561845 0.201096
H 11.13648 3.08383 2.81234 -0.456541 -0.296914 0.884532
H 7.67358 1.61248 12.19568 0.565348 0.08435 1.251373
H 9.11567 0.6791 12.20538 -0.888156 0.768881 0.569257
H 1.6245 4.87504 0.74234 0.416362 0.214233 -0.296417
H 0.14667 4.8178 0.89834 -0.461037 -0.044232 -0.084388
H 6.75412 0.71925 2.20187 3.017337 0.810405 1.504647
H 7.53909 1.89475 2.95222 -0.325521 0.344021 -0.263204
H 3.40733 10.92408 2.40898 2.323617 1.177114 -0.061975
H 2.55786 9.77474 1.76166 -0.174808 0.894679 0.7062
H 2.0235 2.73709 1.98543 0.221927 -0.490964 -0.89903
H 1.11579 1.63975 2.69373 0.664708 -0.052763 -0.594212
H 0.19519 2.82172 6.73465 1.012157 0.907291 -0.346887
H 12.34618 4.1725 6.678 1.241698 0.118996 -0.214234
H 0.23439 4.78664 10.99138 0.018387 0.604553 1.240818
H 12.15488 3.75284 10.34388 -0.962808 -0.669727 0.015838
H 2.01504 6.29246 9.21743 0.075483 -0.409542 -0.686087
H 1.62656 7.3168 10.25838 -0.263593 0.374619 0.945146
H 6.28417 8.85833 3.49855 -0.553518 0.018562 -0.392985
H 6.07119 7.62279 2.62081 -0.961281 0.937723 0.622089
H 10.59888 12.69548 1.66387 0.776985 0.971742 -0.035523
H 11.12888 1.20922 2.43152 -0.219993 -0.597065 -0.74253
H 7.34648 10.53048 8.47749 -0.129369 0.480688 -0.066464
H 8.66921 10.63368 9.33001 -1.00109 1.7029 -0.433736
H 3.52526 2.43824 4.95494 -0.579733 -2.302322 0.33111
H 4.13279 3.44699 3.99573 0.461656 0.000808 -0.503362
H 3.22011 10.71328 8.16162 -0.711335 0.655285 -0.37443
H 1.82284 11.26918 7.77035 0.448132 0.297312 0.02461
H 4.21671 7.81715 0.62948 -0.593496 1.231655 -0.57846
H 4.81139 9.1113 1.24453 -1.542058 -0.567774 -1.611923
H 6.26428 3.47232 12.33098 -0.322301 -1.346217 0.203924
H 6.33078 2.89413 0.93539 0.24735 -0.329783 0.043864
H 4.48086 8.23909 4.57835 -1.119359 -0.477487 0.614189
H 3.77933 7.56354 5.89246 0.505613 0.130095 -0.808357
H 0.05786 0.82083 8.6035 -0.018515 -0.012983 -0.181876
H 11.57368 1.38614 9.27242 -0.753032 1.042637 0.227985
H 5.03284 12.71618 7.90327 -0.399815 0.045901 0.068652
H 5.51378 0.86654 6.76913 0.062633 0.052171 0.062466
H 12.56938 9.44554 11.36588 0.99481 0.332651 1.08017
H 11.83978 8.30287 10.66498 -0.246505 -0.767103 0.189753
H 9.99715 10.47858 5.88318 0.950564 0.124745 0.025641
H 8.7268 11.34478 5.82802 0.504481 -1.008444 0.047345
H 2.32496 0.16046 5.02152 -0.73655 -0.475847 0.004133
H 3.45145 12.48188 6.01671 -0.66278 0.682334 -0.426224
H 8.19997 4.74494 4.13282 0.664322 0.325582 0.193922
H 9.55468 5.55362 3.80799 -0.78517 -0.866313 1.193766
H 3.77982 2.04165 10.20098 0.143506 0.200999 0.118012
H 3.86093 3.61129 10.54668 0.39709 -0.767188 -0.183183
H 1.45532 12.03918 1.90459 -0.808364 0.74079 0.753232
H 0.02978 0.04492 2.0807 -1.208059 -0.094425 -0.830196
H 9.1117 4.94913 10.32118 0.836354 -0.156997 -1.13018
H 8.10849 5.55324 11.28558 0.879991 -0.704072 0.026265
H 5.81142 5.03976 10.48728 -0.467079 -0.019481 0.819456
H 4.79808 5.18182 11.77028 -1.033976 1.682824 1.03593
H 6.56165 2.9942 5.09865 0.450099 0.001044 0.809572
H 7.65612 1.97842 5.53813 -0.340679 0.29608 0.373692
O 10.68198 8.88738 1.96583 -0.556529 -0.348456 -0.248805
O 10.15258 3.88371 0.67862 0.934964 2.189538 1.033561
O 8.3802 3.97885 7.99517 -1.023441 0.349224 0.914265
O 8.8905 0.48252 5.26931 -0.710062 0.185945 -1.679692
O 4.84467 12.19788 2.75682 0.674616 -2.759557 2.322855
O 12.52238 7.52636 4.96298 -0.089784 -0.095576 1.348492
O 1.42011 9.75811 4.58888 -0.26487 0.29409 -0.067838
O 3.27886 2.36076 0.19674 -0.84695 2.676151 1.411504
O 7.98953 9.68708 3.23451 -0.067316 0.180351 0.953054
O 0.99609 0.51996 11.26368 -0.929391 1.348536 -0.02461
O 10.40148 2.77655 9.7899 1.899067 0.745379 1.483165
O 4.42082 5.96707 6.41404 -2.930492 -0.445034 2.374783
O 2.58444 4.7741 8.25903 -0.993315 -0.701355 -1.21243
O 6.45389 5.75676 9.09066 0.504586 -0.709862 -0.762953
O 2.56856 6.14049 3.6727 -1.447324 0.501292 1.653419
O 8.07559 7.13414 6.24942 1.607738 2.147259 0.539625
O 3.63535 9.1343 8.69647 -1.098127 -1.547228 0.106611
O 11.02628 6.68909 10.78378 1.137031 -0.977008 -3.122462
O 9.18686 8.16519 9.07059 -0.038878 0.6287 0.401725
O 6.05805 9.25165 7.50418 0.815128 -1.749676 -0.83896
O 5.18979 9.84183 11.15438 0.256139 0.627096 -0.096138
O 10.91898 4.7618 7.00775 -1.535867 2.273601 -0.939259
O 1.37496 8.62549 0.64541 -0.352826 -0.960085 0.460366
O 8.53689 9.96102 12.04538 -0.941217 1.393205 0.065644
O 4.86107 10.70458 5.09117 -0.485413 0.550019 -1.539693
O 7.61976 7.22388 11.66538 0.959427 1.075603 1.059295
O 10.37538 11.11038 9.71936 0.922056 0.979778 -0.583173
O 11.57738 1.0965 5.90389 0.252108 0.234235 -0.63645
O 9.37593 11.78468 1.38315 0.654715 -1.504293 -1.968626
O 6.53268 6.46053 1.47352 -1.407758 2.161168 -1.000972
O 6.7174 10.67678 1.2482 -2.897029 1.522199 -3.701271
O 11.54008 7.60429 7.33639 -1.651237 -0.480078 -1.918429
O 0.45937 12.18518 5.00856 0.896533 -0.047974 -1.273558
O 8.64657 1.20688 8.17589 -0.11971 -0.851053 0.342395
O 11.78348 2.34763 12.12288 0.108089 0.233635 -0.162612
O 1.79775 1.38287 7.88349 -1.462224 0.455219 -0.037681
O 10.66978 2.58992 3.53974 -0.707065 1.114608 -1.059444
O 8.31238 1.01424 11.77498 -0.061117 -0.782228 -1.869387
O 0.83626 4.60897 0.25068 0.201365 -0.113287 -0.046604
O 7.69042 0.99765 2.62103 -2.641513 -1.241473 -1.061673
O 2.57116 10.52198 2.4445 -2.073925 -2.010037 -1.258435
O 1.4499 2.55823 2.72409 -0.55185 0.683785 1.443697
O 0.46641 3.76039 6.50527 -1.600668 -1.05031 0.309663
O 0.14559 4.25658 10.21328 0.790951 0.1683 -1.163518
O 1.80205 7.2376 9.33019 0.116075 -0.080723 -0.593165
O 5.5329 8.36986 3.07924 1.454334 -0.732515 0.015531
O 11.34428 0.59067 1.6864 -0.444185 -0.383368 0.793371
O 7.79329 11.11388 9.12537 0.861848 -1.472005 0.264394
O 3.83717 3.31308 4.89465 0.101908 2.191437 0.190166
O 2.76177 11.52618 7.79146 0.269341 -1.097144 0.13653
O 4.14184 8.82089 0.4953 2.378121 -0.307941 2.615354
O 6.24687 2.58089 0.01456 0.194912 1.643732 -0.303062
O 3.67934 8.27023 5.20133 0.691087 0.323099 -0.221916
O 12.12648 0.60709 9.2094 0.711109 -0.911319 -0.170099
O 5.65426 12.80378 7.17033 0.201916 -0.136952 0.092923
O 11.91158 9.26222 10.72158 -0.424309 0.22996 -0.882925
O 9.0521 10.39638 5.88906 -1.419641 0.948622 -0.337514
O 2.99528 0.46997 5.62868 1.541226 0.076093 0.334342
O 9.02088 5.13223 4.55789 0.284257 0.461122 -1.287816
O 3.35864 2.92326 10.04188 0.163834 0.488249 0.225174
O 0.93965 12.73543 2.39901 1.642661 -0.669208 0.347475
O 8.72736 4.77516 11.16038 -1.734211 0.520454 1.451401
O 5.37061 4.61747 11.29898 1.501917 -1.487721 -2.068545
O 7.05866 2.68075 5.90084 -0.059776 -0.461003 -0.978521
Na 1.5495 4.16732 4.36678 -0.085872 0.03611 0.140806
Na 6.82353 8.54154 9.83253 -0.063628 -0.122346 0.212429
Na 1.56649 2.8115 11.39908 -0.638285 -0.248311 0.494248
Na 6.73369 0.6635 9.85405 0.786939 -0.171369 -0.04878
Cl 4.34019 0.04771 10.61778 0.162055 0.268593 -0.106829
Cl 3.60248 5.90579 0.6805 0.003315 -0.127755 0.082724
Cl 6.59585 3.93359 3.03185 -0.091062 -0.286377 0.151581
Cl 11.70978 5.81782 2.42931 -0.131464 0.186657 0.355136
200
energy=-1090.6245823 config_type=nep2xyz pbc="T T T" virial="-5.71578 -0.69732 -7.20738 -0.69732 -11.31032 3.62198 -7.20738 3.62198 -3.79644" Lattice="12.655527115 0.0 0.0 0.0 12.655527115 0.0 0.0 0.0 12.655527115" volume=2026.9391727836687 Properties=species:S:1:pos:R:3:force:R:3
H 12.1826 8.93196 12.3542 -1.239832 -0.319843 -1.403491
H 12.394 10.166 0.6343 -0.6814 0.623 -0.175175
H 7.98366 8.10923 4.20086 -0.356789 0.489662 1.354044
H 7.67584 8.27301 2.71371 -0.094271 0.007253 0.037904
H 5.73338 12.4661 3.23208 -1.401527 -0.997342 0.406945
H 4.20642 12.4728 3.66582 -0.922275 0.710616 0.12285
H 9.33433 6.29174 1.76027 -1.482265 0.136179 -0.041396
H 10.7859 6.23962 1.29467 0.576319 -0.358784 0.200317
H 3.29997 7.80571 3.18521 -0.279628 0.648831 -0.294359
H 2.54184 9.10459 3.46274 -0.278673 0.349783 0.653984
H 1.81014 0.49326 8.39314 -0.174447 0.831857 0.386847
H 0.7081 12.0309 7.90549 2.867746 0.764101 0.301822
H 1.72753 5.35286 7.44073 2.741541 -0.634097 -0.928102
H 0.82961 5.58951 8.74392 0.444918 -0.450073 1.402696
H 2.60908 0.54799 0.32145 1.287727 0.560958 0.933627
H 4.17991 0.43238 0.24557 1.366807 -0.688849 -0.817881
H 3.02982 3.78899 11.0222 0.898224 0.35483 -0.032269
H 2.83363 2.2193 11.4255 0.145276 0.937006 0.023314
H 2.3253 6.2259 1.44657 -1.27657 1.024066 -1.93764
H 2.48448 6.29234 12.4688 -0.345413 0.031962 0.511072
H 10.8601 4.84016 7.11428 0.794751 -1.124806 0.917944
H 12.2045 4.6782 7.89997 0.014483 -0.04225 -0.340113
H 3.47689 9.35221 5.66339 -0.790997 -0.41414 0.543738
H 2.93023 7.94595 6.08154 -0.362846 0.607176 -0.096424
H 11.2579 7.5721 2.89899 0.741614 1.346681 -0.487486
H 12.0908 8.75853 2.14946 -0.222898 -0.700457 0.068293
H 4.49184 11.0159 8.44514 0.276849 -0.297733 -0.270229
H 5.39494 11.984 7.64431 -0.221629 -1.34614 0.263321
H 9.38344 1.38591 9.91768 0.238402 -0.753992 0.146291
H 9.49531 2.90615 9.87791 0.386637 0.037036 0.217539
H 4.30384 4.89462 12.6463 -0.465681 -0.119475 -1.491289
H 4.18885 4.45294 1.45615 0.111722 -0.000654 -0.016928
H 1.51626 8.26732 9.45797 -0.683211 0.148038 -0.289432
H 2.3054 7.32418 10.3689 0.349452 -0.117931 0.026355
H 3.89159 2.75778 4.28214 1.277425 -0.995657 0.91775
H 3.60558 1.47787 5.06801 -0.270042 -0.246794 0.441609
H 1.33153 10.9643 3.1283 -0.840923 -0.183122 1.351691
H 1.62771 12.0287 2.12012 -0.102042 0.902045 -0.321003
H 1.66263 2.70286 7.74741 0.256817 -0.119362 0.974567
H 1.89656 2.95122 9.30284 -0.770106 0.713684 1.128492
H 10.9855 6.03624 9.14832 -1.108192 -0.08685 0.448633
H 9.31916 6.05282 9.58493 2.194283 0.827397 -0.391236
H 6.1531 4.74705 7.24472 0.306547 -0.089417 -0.603624
H 4.99917 4.26026 6.27764 0.334682 -0.202981 -0.217405
H 6.87788 11.0295 5.83136 1.29985 0.950121 0.214865
H 6.74086 12.5311 6.22064 1.71294 -1.168402 -0.160868
H 7.27151 5.13152 2.66222 -0.080126 -0.385677 1.315387
H 7.89892 3.96039 3.38603 1.070884 -1.653207 -0.126927
H 4.54086 10.7695 0.21571 0.355008 -0.223963 -0.377052
H 4.41683 10.7364 1.67585 -0.34313 0.334568 1.369099
H 10.3652 1.69315 5.19417 1.520322 0.589698 0.675821
H 9.45071 1.62282 3.98712 -0.222062 -0.371309 0.449166
H 5.90744 9.18231 1.37928 -0.535558 -0.14619 -0.079322
H 7.34861 9.053 0.8664 0.886189 0.495122 -0.861113
H 7.85269 12.4346 2.51933 0.972458 -1.425715 -0.194832
H 6.7561 0.31845 1.36451 1.34844 -0.579364 1.672341
H 4.16618 7.82894 8.2099 0.115212 0.133038 -0.145999
H 5.20458 6.85348 8.74438 -0.00013 0.199664 -0.244505
H 6.77783 8.9076 8.69617 -1.417471 -1.029764 -0.999949
H 7.81643 9.68429 9.0853 1.158789 -0.652402 -0.557727
H 5.12202 10.6204 4.67334 -0.316516 1.146477 -1.500237
H 5.21186 10.567 6.2057 -0.420874 -0.408581 0.671024
H 7.67793 4.11386 11.5239 -1.114562 -0.893891 0.429938
H 8.08964 5.48421 12.2254 -0.76458 0.506994 1.672475
H 11.9345 2.98237 6.85181 -0.245549 -0.267797 0.500182
H 12.5459 2.42224 5.51129 -0.638077 -0.614088 1.420812
H 11.2032 2.41907 1.20268 -0.025083 0.299275 -0.216348
H 11.3255 3.95016 1.11425 0.487974 0.728612 0.046901
H 12.0773 7.97537 5.22673 -0.073586 -0.199462 0.323874
H 12.4331 6.73756 6.06875 0.654732 -1.051562 0.196809
H 5.76064 7.45956 6.26228 -0.781685 0.599923 2.205015
H 6.12934 8.34725 5.03033 -0.739993 1.516807 0.257096
H 7.53913 2.36113 10.2361 -1.159123 0.080385 -0.058764
H 6.4908 1.75386 11.1862 -0.269503 -0.613969 0.799565
H 0.62247 1.31518 2.34127 -0.011263 0.015619 -0.454341
H 0.11722 0.46688 1.09867 0.575623 0.442389 0.689183
H 5.48273 4.77085 3.94323 0.706432 -0.000186 -0.058559
H 5.00059 6.14547 4.64196 -0.058491 -2.065563 -1.113942
H 11.8873 5.76701 12.1668 0.330655 0.346803 -1.378524
H 0.41115 6.08409 0.59039 0.459666 0.192422 -0.831658
H 5.24806 1.56595 6.33225 0.167617 0.296361 -0.11066
H 6.64611 1.55473 7.09585 0.374125 0.669013 -0.062112
H 12.1347 4.24666 10.5424 1.25314 0.961625 -0.654201
H 0.91374 4.84304 10.8499 0.601382 -0.28197 0.520667
H 1.41251 1.17575 5.52841 1.83846 -1.266834 -0.303501
H 2.12232 0.25325 6.50956 0.337488 -0.571538 -0.059014
H 8.73295 2.21985 7.83861 -1.030536 0.025746 -0.837993
H 8.61055 1.95405 6.23493 -0.249951 0.017726 0.427373
H 10.7201 4.38632 4.57709 0.128144 0.086441 -0.178151
H 10.5792 5.80451 4.0387 0.041719 0.200935 -0.78896
H 10.2551 3.42797 11.7428 0.518785 0.475248 -0.4485
H 10.3481 4.61496 10.6402 -0.163997 -0.617695 0.330432
H 9.00121 9.75237 3.31843 -0.142942 -1.794784 -0.276568
H 9.69295 11.0497 3.06254 0.83539 0.502396 -0.817496
H 7.84071 5.45542 7.71043 0.675492 0.531229 1.809492
H 7.97444 4.05107 6.86894 -0.250174 0.559905 0.592482
H 2.43733 11.2906 9.37911 -0.692711 0.439035 -0.920461
H 2.79428 9.95781 10.0077 -0.18993 -0.992855 0.394056
H 2.3401 5.10102 3.2517 -0.254863 0.966768 0.02433
H 1.27048 6.2364 3.52617 -0.26794 -0.110133 -0.113858
H 7.17739 11.219 10.5683 -0.18803 -0.06004 1.064275
H 7.01428 11.7089 9.18276 -0.400804 0.185423 -0.93769
H 8.10853 2.17018 2.34816 -0.018551 -0.402272 0.50325
H 9.4712 2.93599 2.13474 -0.987535 -0.196333 1.324847
H 8.6998 8.3584 7.11879 -1.244083 0.492607 0.885469
H 10.0279 7.948 6.60454 0.435038 -0.506487 -0.509684
H 7.75544 7.17375 9.18716 -0.043361 -0.105844 0.272336
H 7.72481 5.76942 10.0915 -0.419782 -0.150344 1.190989
H 1.15187 8.87658 7.55599 0.882727 0.516173 -0.559406
H 12.4468 8.39278 7.56712 -0.690164 -0.369708 -0.386839
H 9.26433 11.7297 10.0719 -1.297649 -0.619882 -0.274029
H 10.4378 11.6998 11.0944 -0.586832 1.129912 -1.763586
H 10.8078 12.3175 7.96678 0.665174 0.507527 0.084679
H 11.8365 0.40684 6.91617 -0.752817 0.236349 0.514066
H 5.10425 0.79644 10.1477 -0.581079 -0.756208 0.333659
H 3.69398 0.01678 10.1796 0.396239 -0.755771 0.527712
H 12.1636 10.0783 4.04155 -0.13376 -1.02341 0.421516
H 12.125 11.2586 3.24915 -0.586096 1.11871 -1.356355
H 3.29577 2.38409 1.66286 0.066675 0.063888 -0.116067
H 2.29189 2.84703 2.69054 -1.118202 -0.002288 0.457447
H 8.793 10.7147 0.32872 0.11961 0.13863 0.208334
H 9.33145 9.62783 12.0037 -1.986869 0.373223 1.387668
H 3.32319 5.58345 5.50274 -0.175085 0.190902 0.727986
H 3.9155 5.6625 6.9542 -1.39725 0.328113 -0.986531
H 6.42895 5.61041 0.85113 -0.148528 0.347216 0.298921
H 7.0952 7.00472 1.40947 -0.244682 -2.052503 -1.102333
H 11.7385 9.2355 10.2442 2.283342 1.442825 -1.634784
H 10.9651 7.96469 10.3898 -0.597935 1.663304 0.819507
O 0.0388 9.28311 0.40234 1.674772 -0.099781 1.665754
O 8.36449 7.96417 3.35165 0.3744 -0.197304 -0.878173
O 4.9258 11.8846 3.49764 2.450708 0.176232 -0.841001
O 10.2151 6.23519 2.09078 1.228034 0.0611 0.260484
O 3.14471 8.71403 2.83801 0.523056 -1.32762 -0.038722
O 1.74421 12.2685 8.01149 -3.006698 -1.416409 -0.271536
O 0.94577 5.67213 7.80767 -3.388372 1.306758 -0.378913
O 3.4777 0.86685 0.69862 -2.557957 0.412866 0.02712
O 2.4335 3.11009 11.3478 -1.207212 -1.376326 0.121375
O 1.89815 6.59496 0.54518 2.022042 -0.645643 1.549506
O 11.3384 4.22211 7.75652 -1.04281 1.485042 -1.077204
O 2.64507 8.89237 5.99249 1.108867 -0.561485 -0.238676
O 11.9486 8.30047 3.00788 -0.536375 -0.719696 0.483143
O 5.25612 10.9893 7.82089 -0.22355 2.306785 0.458746
O 8.92238 2.15896 9.57016 -0.055896 0.101536 -0.560176
O 4.70771 4.99824 0.83492 0.615585 0.135767 1.561811
O 1.96279 8.22751 10.3145 0.282425 0.025368 0.190581
O 4.34946 2.09295 4.89636 -1.035621 1.242427 -1.285792
O 1.95111 11.191 2.45697 1.013422 -0.690398 -1.028664
O 2.15223 2.42694 8.55892 0.304416 -0.653977 -2.045527
O 10.3238 6.27133 9.83991 -0.753124 -0.495569 -0.108846
O 5.2287 4.4172 7.20336 -1.43848 -0.204323 0.823898
O 7.46937 11.8074 6.07661 -2.381749 0.201576 -0.098576
O 7.29276 4.66124 3.57257 -1.308486 2.306178 -1.376275
O 4.38026 10.1364 0.93404 0.082595 -0.173282 -0.993376
O 9.70103 1.13348 4.82838 -1.116289 -0.089617 -0.759246
O 6.70359 8.6159 1.42509 -0.383745 -0.317705 0.730513
O 7.18959 0.40572 2.3014 -2.408085 1.864391 -1.529042
O 5.09927 7.58891 8.10554 -0.074963 -0.333624 0.39843
O 7.72235 8.80385 8.57299 0.065801 1.53339 1.457332
O 5.19619 10.0142 5.4004 0.330054 -0.907719 0.6071
O 8.19532 4.90251 11.4911 1.310417 0.311605 -2.084865
O 12.235 2.12167 6.46986 0.754303 0.358622 -1.846709
O 10.721 3.22513 0.93776 -0.53016 -1.128061 0.202485
O 11.9156 7.52745 6.08164 -0.597548 1.298772 -0.56327
O 6.09706 7.47773 5.39343 1.26462 -2.377016 -2.22011
O 6.5791 2.48791 10.5797 0.925968 0.562973 -0.719631
O 0.91242 0.93057 1.48145 -1.059459 -0.557573 -0.242935
O 4.69446 5.23132 4.2545 -0.352722 2.107262 1.223876
O 12.1852 5.698 0.40113 -1.298989 -0.722771 1.767548
O 5.76003 1.16108 7.05952 -0.647227 -0.990884 0.185236
O 0.19846 4.91703 10.2255 -1.549522 -0.929444 0.327245
O 2.23241 0.56794 5.58489 -1.989601 1.698341 -0.157238
O 8.13148 2.32255 7.02208 1.49989 -0.140845 0.201474
O 10.4031 5.27075 4.81238 -0.259585 -0.523765 0.853857
O 10.5486 3.65079 10.823 0.131766 0.689573 0.190304
O 9.01563 10.6506 3.60023 -0.443175 1.453384 1.005198
O 7.64744 4.99369 6.9119 0.118263 -1.284524 -2.208736
O 3.0379 10.8809 10.0009 0.858782 0.398903 0.393112
O 2.13999 6.06698 3.15187 0.667962 -1.080634 -0.010485
O 7.60886 11.1822 9.71044 0.576253 -0.198816 0.028131
O 8.77716 2.66982 2.86132 1.463675 0.217144 -2.030104
O 9.08613 7.81151 6.44532 0.634632 -0.298372 -0.763376
O 7.74553 6.18376 9.22156 0.38534 0.437612 -1.101549
O 0.35435 8.97849 8.07714 0.261358 0.144997 0.959261
O 10.1013 12.1443 10.2421 1.877315 -0.10894 1.877185
O 11.4423 12.2148 7.23676 0.053851 -0.462134 -0.347955
O 4.20303 0.72214 9.78672 0.333747 1.530189 -0.742644
O 12.2462 11.0256 4.15874 0.189288 -0.17566 0.921564
O 3.06571 3.15254 2.23084 1.010429 0.005772 -0.27354
O 8.50795 9.88561 12.5775 2.141829 -0.570143 -1.748967
O 3.08617 5.93106 6.40108 1.704159 -0.56384 0.138683
O 7.29013 6.014 1.12171 -0.140068 1.589563 0.761832
O 11.0185 8.9372 10.7315 -1.911376 -3.230509 0.864605
Na 8.13475 6.05787 5.03641 0.211549 0.315656 0.267331
Na 9.81561 11.6339 5.55768 -0.107892 0.033564 -0.238823
Na 2.21523 8.98701 0.77626 0.325624 0.147789 0.162187
Na 4.50109 2.94507 9.16111 0.208802 -0.010852 -0.424089
Cl 0.18555 3.01873 3.74021 0.056835 0.07471 -0.137387
Cl 10.9495 11.7145 1.28307 0.044764 0.187481 -0.200306
Cl 3.92556 5.45454 10.4816 -0.097808 0.352238 -0.245704
Cl 6.00629 12.3792 12.1258 0.360165 0.07113 0.0535
200
energy=-1088.26538208 config_type=nep2xyz pbc="T T T" virial="-8.08666 3.67672 -6.4777 3.67672 -3.46703 -2.72106 -6.4777 -2.72106 -12.65753" Lattice="12.625184059 0.0 0.0 0.0 12.625184059 0.0 0.0 0.0 12.625184059" volume=2012.3946537452657 Properties=species:S:1:pos:R:3:force:R:3
H 1.57554 2.60184 7.34162 0.576152 0.420086 0.387395
H 2.01811 1.46707 6.38814 -0.133945 0.617546 0.194422
H 10.28665 3.06031 7.52559 1.542235 1.263109 -0.216965
H 11.47835 3.29205 8.48823 -0.061763 0.51756 -0.75912
H 4.22682 2.23052 7.46 -0.491563 0.47218 -0.603681
H 4.14015 1.75139 8.8964 -0.827548 0.312412 2.028951
H 1.64554 4.67908 10.12575 -0.109444 0.237865 -0.057066
H 1.47842 5.97191 10.96745 1.038275 1.778234 0.261016
H 3.84899 4.0287 0.7185 -3.064312 0.727241 -0.639081
H 2.27015 4.25834 12.59745 0.272619 0.365145 -0.748963
H 11.93435 8.14314 6.69384 0.030864 -0.138729 -1.059055
H 11.77465 7.95204 8.12154 -0.742708 -1.302035 0.146356
H 3.93565 8.52025 7.91776 -0.194671 -0.787082 -0.899035
H 4.68972 8.79751 6.63504 -0.134958 -0.452918 -0.065568
H 11.26675 12.20175 12.33125 0.350871 -0.357055 -0.071085
H 10.03735 12.52375 11.45665 -0.38563 -0.365062 0.291324
H 12.20365 8.56075 10.34925 -0.88225 0.131493 0.414461
H 10.59475 8.40878 10.09555 -1.111162 1.578624 0.988296
H 9.79234 1.96403 1.52191 -1.17434 1.241465 -0.792078
H 8.82789 3.23702 0.9951 0.81265 -1.295842 0.304565
H 12.03635 11.14005 9.5869 0.418262 -0.326772 1.51355
H 11.92935 10.17835 8.37809 0.084135 1.039721 0.435773
H 4.55511 3.2591 11.18445 -0.445607 -0.756285 -0.288188
H 3.23533 2.47471 11.26095 -1.574001 -0.512928 1.260212
H 3.04007 7.8362 10.98115 -0.130718 -0.688228 1.778111
H 3.19849 6.97444 12.48685 -0.427091 0.921082 -1.373337
H 8.96043 9.52625 1.18646 0.601987 -0.342821 0.8599
H 8.20339 9.31204 12.50905 0.395956 0.449594 -0.273774
H 5.42275 9.98485 8.18736 0.355036 0.587783 -0.122247
H 6.54465 10.38445 7.20531 0.096321 0.020704 -0.182873
H 0.40323 1.74108 9.0514 -0.279498 0.287807 -0.295476
H 0.42827 2.01782 10.52635 -0.001407 0.137923 0.558796
H 9.42608 1.81648 8.1593 0.067151 -0.434215 0.080683
H 9.23024 0.72014 9.23424 -0.29695 -0.469913 -0.184705
H 2.48119 9.59056 9.58849 0.534793 -0.986562 -0.051897
H 2.21546 8.17209 8.96052 0.197359 -0.789076 -0.252212
H 6.58784 7.4734 6.54433 -0.10404 -0.404147 0.666243
H 6.60666 6.71975 5.16423 -0.228506 -0.127397 -0.316217
H 11.91655 2.17622 2.95549 1.816265 0.573565 -1.199255
H 11.02815 1.10959 3.54208 -0.185655 -0.688001 0.079555
H 10.90775 11.66945 2.62947 -0.663496 -0.167275 2.345359
H 9.48962 11.92885 3.32601 2.051992 -0.331213 0.844411
H 3.47194 1.36695 4.76234 -0.300107 -1.373306 -1.630273
H 3.66028 2.77529 5.16174 0.231295 1.273891 -0.473684
H 7.61004 0.77971 2.5382 0.263639 -0.097774 0.417581
H 6.90042 12.12285 2.83131 -0.580455 -0.785078 -0.068693
H 10.00395 11.42075 8.78036 -0.470765 0.273581 0.499841
H 8.51806 11.34745 8.45367 -0.154252 0.081126 -0.140956
H 12.36865 10.38565 4.98764 -0.245732 1.004151 0.356961
H 0.38653 9.14559 4.77483 0.94929 -0.962233 -0.044441
H 3.54821 8.30768 4.51 -1.252534 -0.21957 -0.007899
H 4.95366 8.49291 4.47704 1.329137 -0.032935 -0.105271
H 3.44989 4.36374 3.79477 0.027138 -0.006227 0.325375
H 3.98415 4.67946 5.2459 0.246308 -0.274716 -0.199845
H 4.82265 10.69785 4.70259 -0.491266 -0.359266 -0.286026
H 4.36767 11.97215 3.92557 -1.076127 0.161332 -0.805023
H 9.93465 5.27833 8.83811 -0.232083 0.155113 -0.078841
H 10.22155 6.59801 9.64981 -2.160367 -2.027077 -0.718959
H 2.33631 7.82212 2.54273 0.58014 0.799343 -1.45572
H 1.52627 7.53504 1.43301 -0.529128 -0.435638 -1.313305
H 10.65805 9.37148 2.62225 1.07096 0.722716 -0.391489
H 10.41205 7.87419 2.91315 0.610481 -0.567167 -0.150969
H 7.66707 6.56187 8.47139 -1.172696 0.120396 -0.181186
H 6.08023 6.52866 8.70678 -1.005077 -0.714109 1.072426
H 9.96079 1.70606 5.26927 0.357966 0.52556 -1.298988
H 9.00481 1.22507 6.21326 -1.355282 -0.357382 0.107299
H 4.9053 5.21405 10.49505 0.56561 -0.378499 -0.089909
H 3.98571 6.32932 10.34615 0.334719 -0.174325 -0.667128
H 6.62871 7.16272 10.78935 -1.861576 0.429603 -2.089912
H 7.22218 5.97514 11.58445 -0.081664 0.225278 -0.177614
H 6.92052 8.5587 0.9838 -1.355763 -0.554757 0.961013
H 5.98949 7.41616 0.55492 0.028005 0.832655 0.908836
H 4.43133 0.26605 11.02815 0.042659 -0.127051 -0.134526
H 3.50031 11.98365 10.03985 2.601927 0.784016 0.894816
H 0.78684 6.73216 8.22866 1.043479 -0.479154 -0.039513
H 1.98212 6.81651 7.26385 -0.05151 -0.364006 1.321437
H 1.3837 0.6615 12.31735 0.252435 -1.642076 -0.046793
H 1.02325 2.0082 0.19209 0.749724 -0.457656 -1.979879
H 0.24373 9.58615 2.0065 0.711123 -0.302086 0.437941
H 12.28465 10.21925 0.81041 0.051739 0.147231 -0.455532
H 1.90907 0.05381 8.20964 0.478815 0.068448 -0.847397
H 1.37309 12.44605 9.56697 -0.170864 -0.33664 0.632535
H 12.50885 4.13942 11.76435 2.951717 1.24846 -1.699745
H 11.68165 4.16802 0.32248 -0.281536 0.300069 1.395019
H 12.04645 5.74859 6.22829 0.437067 -0.351544 -0.366016
H 0.34663 5.60453 4.90716 -1.192932 -0.784682 1.594023
H 7.08615 12.56305 11.90385 0.414006 0.485689 0.086176
H 8.23785 0.79946 12.58355 -0.147636 0.840781 0.841477
H 8.21812 8.12739 5.33499 -3.435985 -1.00374 -0.967061
H 9.53621 8.59843 4.63308 0.378836 0.337696 -1.720663
H 6.89165 1.1863 4.94913 0.309579 -1.223223 -0.911816
H 6.95715 2.29 5.85889 0.171834 1.259144 0.783077
H 10.21965 6.10114 2.49614 1.096849 -0.187465 0.900324
H 10.95325 6.10114 3.94913 0.269895 -0.09615 -1.034489
H 8.22184 5.5306 0.97151 0.153713 -0.092519 0.652013
H 7.93995 5.3495 2.5483 0.642974 0.398202 -1.134124
H 8.95455 4.98121 10.71735 0.014052 0.019961 -0.021489
H 7.86243 4.01285 11.26645 -0.703664 -0.375629 -0.238874
H 7.74535 4.51814 6.33566 -0.93717 0.021368 -0.203393
H 7.14812 3.47256 7.28803 -0.571914 0.518982 0.261941
H 3.1649 4.46418 8.03405 -0.609652 -0.458625 -0.029418
H 3.29631 3.55151 9.19001 0.142383 -0.610711 0.972918
H 5.83156 4.97466 3.77562 0.102479 0.670221 -0.011201
H 5.81441 6.35485 2.93577 1.417057 -1.285994 1.832761
H 12.36485 6.01243 1.87336 -0.625823 0.139727 0.10536
H 12.43115 6.05026 0.25432 0.429201 0.040831 1.350805
H 5.39772 5.08581 7.09863 -0.402482 -0.409127 -0.419415
H 4.23759 6.12329 7.09363 0.259485 -1.058321 -0.515895
H 8.38699 9.81785 6.20606 1.849301 -3.682722 -1.568444
H 7.92591 11.15115 5.95703 -0.259022 1.15725 -0.590156
H 6.18254 2.43848 8.65241 -0.897646 -1.045156 -0.144247
H 7.68282 2.47819 9.16135 -0.185455 -0.377473 0.029935
H 2.51318 10.28545 12.20855 -0.10278 -0.513887 0.16744
H 3.82767 10.90005 11.97255 1.223136 1.492569 -0.859572
H 5.20031 1.82811 0.57936 -0.211698 -0.940081 -0.66148
H 4.23414 0.70048 0.8583 -2.013611 -0.912673 1.849154
H 8.76711 9.82912 10.27895 0.014805 0.640721 -0.272293
H 8.52173 8.34457 10.61065 0.001494 0.017237 0.236628
H 1.71205 1.64335 2.32219 -0.639304 1.309333 0.248835
H 1.88508 3.18539 1.8955 -0.850214 -0.504695 0.053832
H 5.4399 10.34755 10.30305 0.604735 -0.435332 -0.256736
H 4.67799 9.16634 9.96381 -0.481825 -0.943188 0.018484
H 5.99751 11.85165 0.90986 -0.503934 -0.066727 0.736421
H 6.79487 10.60825 1.2575 -0.499766 0.413287 0.741262
H 2.54777 10.82765 6.95368 -0.33149 -1.427888 0.960703
H 2.14988 11.38135 5.57645 1.303463 0.272525 1.72471
H 9.01105 6.71755 6.16492 0.38732 -0.250562 -0.125376
H 9.79452 5.37536 6.27984 2.234942 -0.619399 0.333159
O 1.22761 1.85596 6.8379 -0.354957 -0.751274 -0.256888
O 11.05725 3.69384 7.67491 -1.144461 -1.464242 0.907405
O 4.51101 1.55552 8.06566 1.7075 -1.067782 -1.349659
O 1.24557 5.0685 10.92755 -0.897328 -2.695057 -0.269694
O 2.76273 4.15098 0.78679 2.376573 -0.902747 1.600406
O 11.65915 7.42767 7.27899 0.632697 1.203016 0.904133
O 4.10175 8.11631 7.02053 0.144902 0.85144 0.926137
O 10.77415 0.29602 11.94045 -0.029073 0.330058 -0.259022
O 11.46375 8.07151 9.93166 2.175109 -1.209695 -1.209109
O 9.09654 2.2797 0.87448 0.358149 0.092425 0.546348
O 11.91275 11.12575 8.65014 -0.656377 -0.685667 -1.804365
O 3.93789 2.66613 10.67545 1.981804 1.059308 -0.932535
O 2.85756 7.02183 11.55155 0.502815 0.393939 -0.526702
O 8.19665 9.83226 0.70663 -0.661927 -0.278038 -0.634693
O 5.58973 10.52985 7.37856 -0.338362 -0.79791 0.562333
O 12.53825 2.23712 9.72732 0.014539 -0.365291 -0.424049
O 9.27143 1.69336 9.10549 0.072274 0.494412 0.288778
O 2.92361 8.72846 9.34861 -0.754555 1.859967 0.795601
O 6.63978 7.59303 5.58681 -0.045933 0.746403 -0.479492
O 11.16935 2.06645 3.51354 -1.334139 -0.213662 1.084558
O 10.49185 11.76045 3.56911 -1.485483 0.820679 -3.150916
O 3.61718 1.88302 5.52821 -0.02651 -1.485571 2.119446
O 7.54548 0.10068 3.23725 0.761815 1.012455 -0.258993
O 9.10915 11.65555 9.16216 0.971496 -0.57687 -0.513785
O 0.50039 9.90789 5.3488 -0.795791 -0.102051 -0.286098
O 4.18092 8.88803 4.06798 0.240632 0.108693 0.238188
O 4.01331 4.01064 4.50609 0.061294 1.599675 -0.625754
O 5.09366 11.56075 4.382 2.127494 0.045147 1.621557
O 9.44153 5.92563 9.3848 2.664103 1.75751 0.531718
O 2.27142 8.13822 1.5559 -0.170107 -0.820563 3.149186
O 10.03335 8.75632 2.98399 -1.443435 0.291691 0.351295
O 6.77592 6.90013 8.18675 2.22967 0.520952 -0.634398
O 9.93592 1.44755 6.17743 0.786757 0.062189 1.091173
O 4.67254 5.84359 9.79917 -0.621072 0.507142 0.924372
O 7.1684 6.9425 11.50275 1.889909 -0.265927 2.095336
O 6.07173 8.09837 1.28059 0.835565 -0.506335 -1.380137
O 4.4484 12.06825 10.50225 -2.210571 -0.54126 -0.707267
O 1.77868 6.62371 8.23704 -1.230368 1.056852 -1.658592
O 1.34022 1.52939 11.94745 -0.819951 2.18202 2.198592
O 12.15095 10.17035 1.77107 -0.633987 0.197589 -0.069159
O 2.2114 12.47125 9.09913 -0.560529 -0.016897 0.302104
O 11.71095 3.81183 12.07725 -2.535568 -1.591082 0.226689
O 12.26285 5.12121 5.50389 0.852811 1.054598 -1.279939
O 8.02981 0.1649 11.90765 -0.223968 -0.967414 -1.106566
O 9.08685 8.41235 5.44396 2.773903 0.853354 2.581744
O 7.2953 1.3904 5.79441 -0.502725 -0.484793 0.079877
O 11.08775 6.33782 2.99311 -1.817427 -0.461104 0.105266
O 8.65657 5.41551 1.8419 -0.64401 -0.254123 0.613077
O 8.70273 4.41069 11.47885 0.484431 0.076917 0.265024
O 6.91833 3.96616 6.46411 1.234997 0.039508 0.115735
O 2.64999 3.75748 8.51187 0.081249 1.01083 -0.875739
O 6.32986 5.81948 3.66365 -1.35467 0.332716 -2.060293
O 0.30364 5.89103 1.09646 0.247897 0.200344 -1.48954
O 4.43822 5.15817 6.88328 -0.009723 1.767295 0.523721
O 8.08037 10.54335 6.66794 -1.087692 2.844982 2.190707
O 6.87386 2.99541 8.99136 0.975301 1.134997 0.325567
O 3.4683 10.10785 12.32145 -0.514597 -1.151079 0.870491
O 4.9145 0.92318 0.27099 2.341595 1.733966 -1.016927
O 9.13627 9.08828 10.76875 -0.337524 -0.872382 -0.089212
O 1.20846 2.5269 2.29016 1.219626 -0.976144 -0.531482
O 5.59924 9.43267 9.9429 -0.118068 1.449382 0.371311
O 6.07901 11.19855 1.64135 0.609674 -0.320683 -1.508278
O 2.72575 11.56175 6.40297 -1.024323 1.124139 -2.753076
O 8.95214 5.73978 6.16255 -2.069649 0.561472 -0.262993
Na 4.90518 12.38985 6.56604 -0.314048 0.645312 -0.077184
Na 3.993 9.66943 1.96238 0.327373 0.173192 -0.401641
Na 10.40335 2.3105 11.10185 -0.076319 0.360172 0.126113
Na 12.22175 2.72123 5.52049 -0.006065 0.418006 0.297431
Cl 2.89516 12.42175 2.78634 -0.59981 0.397887 -0.486096
Cl 0.6732 10.37265 11.51765 -0.765387 0.18348 -0.466661
Cl 2.12502 6.73248 4.57934 -0.450608 0.055294 -0.086594
Cl 5.59551 4.3775 0.255 0.487358 -0.245595 -0.176237
200
energy=-1090.26751567 config_type=nep2xyz pbc="T T T" virial="-16.1675 -1.77736 -2.65679 -1.77736 -12.10133 -0.84429 -2.65679 -0.84429 -29.75392" Lattice="12.569589615 0.0 0.0 0.0 12.569589615 0.0 0.0 0.0 12.569589615" volume=1985.9270708282331 Properties=species:S:1:pos:R:3:force:R:3
H 5.53529 5.63558 7.24357 0.922337 1.386115 -2.515246
H 5.6524 7.10686 6.83781 -0.165641 0.260227 -0.547327
H 10.04589 1.86336 0.65588 2.28794 0.648873 0.586983
H 11.27879 1.99483 1.75768 -0.629403 0.229534 -1.671963
H 4.38625 2.06898 10.14299 0.325118 1.811856 -0.890438
H 3.44043 3.18386 9.64723 0.467854 0.257688 -0.914527
H 4.3623 12.46409 4.84633 0.06093 -0.299083 -0.526976
H 5.50809 12.34149 3.85219 -0.145937 0.155648 -0.718769
H 5.87933 12.23039 8.63483 0.84758 0.995418 1.167184
H 5.96024 0.46857 10.10209 0.73931 -1.03497 -1.596653
H 1.89957 8.91301 2.01502 -0.156471 1.475349 -0.343748
H 3.00693 9.97418 1.55579 -1.441561 0.124651 0.037504
H 6.0467 2.72699 4.772 -0.269451 -0.369142 -0.234436
H 4.70145 2.85945 4.15751 -3.164237 -0.634239 0.470824
H 4.30169 11.48119 0.43992 0.547371 -1.392185 0.717281
H 4.8988 10.72329 1.73276 0.23545 0.242649 0.399918
H 2.67793 8.83595 5.58244 -2.107369 -2.828619 1.737364
H 3.27269 10.20799 5.76023 0.28391 0.064501 -0.076273
H 4.72012 7.744 3.25881 0.035851 -0.551519 -0.127799
H 4.17498 8.99959 3.9713 0.36292 -0.003119 -0.798052
H 3.29296 12.06489 8.86934 0.914201 0.06842 -1.327276
H 3.0448 12.27439 10.36169 -0.690052 -0.314929 -1.076329
H 11.76449 2.54052 7.82079 -0.047559 0.320734 0.191949
H 10.90369 1.29926 7.91753 -0.331575 -0.61216 -0.303449
H 2.23197 5.16268 2.57565 0.693526 0.941598 -0.101117
H 2.29168 3.88859 3.54498 -1.251218 1.010489 -1.154733
H 7.6892 0.43832 3.75924 -0.511124 -0.534688 -1.296119
H 7.87714 12.28869 2.37034 -0.818348 0.174565 0.298841
H 11.13399 12.42899 3.04631 -0.962699 -0.380569 -0.617231
H 9.90169 11.90229 2.06622 0.348926 0.422409 0.00684
H 10.71319 1.95265 5.69618 -0.259478 0.52778 -0.112668
H 12.19969 2.5574 5.82091 -1.182556 -1.512981 0.411812
H 0.46328 7.60547 3.06656 -0.647132 -0.255528 0.159557
H 0.38824 6.97446 1.55747 -0.33179 0.35334 0.919334
H 4.97087 4.92756 3.5958 0.160754 -0.256347 -0.430867
H 3.90496 5.79292 4.0997 -1.217381 0.727859 1.743279
H 1.70025 10.89669 2.97384 0.127207 1.901573 0.270765
H 2.61028 12.04079 3.48544 2.024078 0.377857 0.214765
H 7.31292 9.67508 1.51665 0.150819 0.550628 0.52138
H 6.22615 8.78228 2.27569 -1.034766 0.661025 1.410307
H 6.93606 6.81559 8.17215 -0.543983 0.127818 0.509197
H 8.18217 6.54559 8.85799 0.309898 -0.327153 0.677401
H 10.67099 4.98847 7.60025 0.272023 -1.733542 -1.267363
H 10.75149 6.21525 8.2593 -0.389448 0.481238 0.836855
H 2.43768 4.48127 8.15355 0.508877 1.375725 -0.709472
H 1.2351 4.03791 9.04175 1.187815 -0.260836 -0.278641
H 1.13067 9.59862 0.0346 0.321711 -0.022983 0.30269
H 12.43519 9.78975 11.81389 -0.661038 -0.01706 0.001357
H 3.09049 10.10059 10.04469 0.091613 -0.210668 0.123394
H 3.30619 8.55083 10.38309 -0.646892 -0.07373 -0.236341
H 9.32587 4.23669 10.61359 0.5286 1.324372 1.98914
H 9.41579 4.18334 12.15759 -0.623731 -0.71257 1.442894
H 11.84159 5.91235 4.08557 -0.141836 -1.061974 0.169523
H 0.15354 4.81034 3.47603 1.536457 -0.413623 -0.475206
H 10.22379 6.27319 0.82049 0.162585 -0.389586 0.517004
H 11.12759 5.43234 1.8217 -0.382422 -0.304206 0.301058
H 0.42731 6.11588 10.14049 -0.053862 -0.376735 0.054031
H 11.63949 5.33643 9.88074 -0.018479 0.127756 -0.376877
H 5.66657 3.20073 8.50488 -0.331614 -0.008201 0.7419
H 7.26513 3.4742 8.35581 -1.574874 0.314714 -0.160106
H 3.34768 1.63731 3.93417 -0.277564 0.411058 -1.180982
H 2.73207 2.02776 5.13381 -1.077278 0.961975 0.624596
H 0.57863 11.66139 9.2604 2.109065 0.120596 -1.002978
H 12.20639 11.62939 10.26109 -0.989344 0.265213 2.586196
H 6.41076 2.6145 6.72552 -0.339655 -0.799521 0.050585
H 5.9346 1.01203 6.54831 0.774197 1.886357 -1.259092
H 12.49489 10.78689 6.13358 -0.370304 0.217779 -1.642198
H 0.4998 11.19499 4.75378 0.439215 0.342014 -0.500914
H 11.33129 8.35716 4.19802 0.102179 0.201323 0.201726
H 12.38359 7.92996 5.42284 -0.164497 -0.19451 -0.693699
H 12.55795 7.59485 8.00463 -0.425795 0.095475 0.635503
H 11.31819 8.49674 8.42799 -0.299581 0.530282 -0.391478
H 2.34714 4.17162 12.54309 1.81787 0.3839 -0.66683
H 1.45885 3.86346 1.16007 -0.026522 0.126134 -0.654617
H 6.39525 6.85106 10.86529 -0.114114 -0.527488 1.335991
H 5.75071 5.96177 11.94519 -1.724553 -3.656307 0.217779
H 7.9414 4.50253 4.12951 1.009847 -0.660857 -0.362447
H 6.84782 5.40332 4.58274 0.321408 0.719352 0.075598
H 3.33725 6.98877 8.58706 -0.474939 0.117861 -0.333655
H 3.69449 6.01335 9.68234 -0.104002 -0.075013 0.234623
H 9.09026 12.14059 10.64819 -0.084481 -0.852878 -0.044641
H 7.92798 11.88079 9.64811 1.387173 -0.375309 0.288933
H 7.74832 1.73032 5.28185 1.747406 -0.76195 -0.541557
H 8.94911 2.33169 4.29311 -0.010965 -0.96462 0.522297
H 12.08299 4.39866 5.56705 0.486748 0.571161 0.494558
H 0.22942 4.77315 7.01035 -0.310791 -0.528956 -1.175883
H 9.23325 8.50426 4.41839 -0.919269 -1.379854 1.308575
H 8.63173 7.11073 5.06183 0.186857 1.362333 -0.092384
H 8.00535 10.18549 5.51321 -0.539724 -4.158752 0.879267
H 7.5679 11.27649 4.55285 0.282611 -0.079887 0.000557
H 5.31579 1.80004 1.04916 0.21279 0.926451 0.350443
H 5.74916 2.82891 2.2515 -0.491284 -0.436403 -0.489819
H 2.32695 7.05743 11.49949 0.148963 -0.267476 0.883306
H 1.50125 8.11084 10.85699 -1.173388 1.137152 0.336851
H 3.71486 6.3727 0.39544 0.080719 0.501795 -0.363466
H 2.81149 7.11575 1.30983 -0.431491 0.573931 0.135419
H 8.05111 6.00697 2.24685 -0.109413 0.224434 -2.356256
H 7.4237 6.54245 0.84678 -0.642424 0.807114 -0.285075
H 10.37279 10.29579 7.61734 -0.007665 1.018922 0.09629
H 10.24369 8.99088 6.81403 -0.774835 -0.053511 0.362126
H 12.11199 1.6438 9.77566 1.155537 0.941089 0.860718
H 0.68006 1.15158 10.78339 -0.739044 1.20906 -0.063156
H 0.37417 0.83566 2.95902 1.614969 -0.716594 -0.083007
H 12.10149 1.37994 4.15095 -0.195014 -0.070644 0.040141
H 9.62785 6.74426 11.03149 -0.404444 -2.227302 0.765497
H 10.33089 7.77809 10.25569 1.059117 0.218803 -0.699197
H 4.58994 3.9477 11.25649 0.254064 0.341623 0.483808
H 4.94569 3.92276 0.22335 0.256161 -0.651226 0.412773
H 9.37428 2.42936 9.44609 0.524228 -0.00352 -0.383243
H 8.07938 2.48149 10.28429 -0.332393 -0.316633 0.460441
H 7.91051 4.25808 0.99477 1.323627 -0.98804 0.578009
H 7.37218 2.7993 1.12933 2.396671 0.984992 0.052961
H 11.29759 12.14349 8.20875 -0.835477 -0.363279 -0.368933
H 9.77043 12.10399 8.55163 1.146831 -0.142248 -1.908183
H 9.30052 3.28874 2.60186 -0.120724 0.468947 0.393572
H 10.45159 4.07037 3.48842 -1.578115 -1.079123 0.54478
H 2.38173 2.26696 7.33258 0.07875 2.11701 1.963103
H 2.85465 0.83314 7.05208 -0.418617 0.571109 -0.274491
H 7.07261 10.92779 12.03999 0.590306 0.937867 0.687343
H 6.43452 11.05669 10.60019 0.309207 -0.995114 1.583242
H 1.10866 12.00789 12.56529 0.282468 -0.081862 0.445112
H 12.39759 0.3208 0.4097 0.864423 -1.17856 -1.532697
H 10.21709 10.13909 3.2155 0.501269 -0.229652 -0.114369
H 10.53859 8.96127 2.22263 -0.487631 0.248012 1.052186
H 5.13746 9.10929 9.12973 2.020471 0.796743 -1.641716
H 5.67432 10.01349 7.92317 -0.24232 0.116607 -0.200835
H 9.96153 10.33009 12.56758 -0.550576 0.753884 -0.177956
H 10.09639 8.82715 12.15169 -0.419546 -0.509581 -0.50166
O 5.85205 6.2453 6.43724 -0.937636 -1.608679 3.000009
O 11.01509 2.20526 0.78932 -1.445995 -1.077268 1.365941
O 4.4152 2.97193 9.62658 -0.866102 -2.274386 2.055967
O 4.53516 12.44569 3.87433 -0.203728 0.295171 0.976284
O 6.51732 0.07766 9.3246 -1.871728 -0.046282 0.566044
O 1.99777 9.88696 1.74612 1.298807 -1.984232 0.07838
O 5.57383 3.08594 3.98778 3.006449 1.463021 -1.00106
O 4.48665 10.57849 0.88067 -0.814642 1.035969 -0.936158
O 3.1784 9.46311 5.15144 1.731069 2.624714 -1.441926
O 4.63248 8.69148 3.12329 -0.323006 0.300667 0.764203
O 2.60665 11.93999 9.50433 -0.50076 -0.00503 2.360531
O 11.20159 2.05137 8.44101 -0.200383 0.552655 0.349267
O 1.6842 4.53364 3.01616 0.548527 -2.411242 1.032568
O 7.18614 12.42769 3.06884 1.244786 0.64599 1.159024
O 10.31279 11.83329 2.94783 0.36061 -0.1216 0.689244
O 11.64039 1.69578 5.75208 1.253485 0.779101 -0.544372
O 0.93668 7.15015 2.35251 1.207994 0.067831 -1.134476
O 4.3235 5.58819 3.29283 1.052929 -0.31277 -1.271969
O 1.69947 11.85129 3.4138 -2.207723 -1.995026 -0.581762
O 6.86136 8.84239 1.58198 0.871565 -1.115851 -2.008833
O 7.28242 6.82925 9.08836 0.595089 0.116766 -0.906445
O 10.23859 5.37575 8.34246 -0.037599 1.506113 0.624019
O 2.11779 3.74398 8.6428 -1.859876 -0.749478 1.2073
O 0.7441 9.4177 11.73299 0.436342 0.105341 -0.077297
O 3.72456 9.42323 10.36209 0.803373 0.052734 -0.096356
O 9.62066 4.7909 11.46769 0.314146 -0.376011 -3.346624
O 11.89469 4.90116 3.94906 -1.792997 1.739642 0.698163
O 11.10369 6.18522 1.23535 0.200042 0.714001 -0.741431
O 0.0246 5.23057 9.98774 0.347753 -0.249083 0.27513
O 6.34906 3.62339 7.9643 2.085526 -0.014595 -0.615938
O 2.76479 2.38599 4.20609 1.339499 -1.566826 0.613124
O 12.23299 11.45729 9.34619 -0.43603 -0.352143 -1.287069
O 6.32844 1.841 6.05266 -0.298977 -1.060333 1.789579
O 12.24119 10.92219 5.17233 -0.208639 -0.320785 2.245545
O 11.91449 7.66889 4.5997 0.30486 -0.43984 -0.011513
O 11.82919 7.72137 8.68233 0.7322 -0.90851 -0.146441
O 1.46473 3.94145 0.17211 -1.79645 -0.525881 1.523863
O 6.13674 6.77899 11.83789 2.052985 3.801464 -2.123332
O 7.73761 5.43219 4.1809 -1.121638 0.528907 0.246023
O 4.05572 6.43318 8.89923 0.571492 -0.150933 -0.117027
O 8.86503 11.51929 9.91091 -1.011373 1.451633 -0.625086
O 8.637 1.48412 4.78238 -1.32046 1.093056 0.563917
O 12.29079 4.08813 6.49949 -0.01479 0.596843 0.398289
O 8.77696 8.08233 5.24028 0.664519 0.095044 -1.29965
O 8.12809 11.05929 5.32361 0.37868 3.82913 -0.847156
O 5.59858 2.72517 1.26696 0.265534 -0.694258 0.4475
O 1.8674 7.24983 10.67949 0.561945 -0.95295 -1.208203
O 3.25106 7.23967 0.45319 0.649085 -1.28379 0.21348
O 8.12283 6.00991 1.21083 0.700136 -1.038543 2.789853
O 10.03019 9.40226 7.68079 0.119489 -0.808952 -0.434751
O 0.18709 1.96973 10.50099 -0.216552 -1.870882 -0.751004
O 12.07689 1.11775 3.19804 -1.09615 0.732621 -0.041975
O 9.61696 7.66815 10.87349 -0.498145 1.867624 -0.246774
O 4.67672 4.50782 12.07109 -0.683904 0.367373 -0.9172
O 8.68422 3.0178 9.77587 -0.156079 0.136029 -0.581572
O 8.30143 3.31634 1.15974 -3.450206 0.092346 -0.781372
O 10.41749 12.20289 7.70688 -0.736372 -0.163936 2.110123
O 9.56501 3.52225 3.53566 1.638807 0.760836 -1.022041
O 2.26886 1.56437 6.74274 0.329149 -2.618638 -1.732379
O 6.68594 10.41669 11.34159 -0.991093 -0.321237 -2.32745
O 0.22551 12.25559 12.29089 -1.23295 1.244681 0.847355
O 10.34959 9.1534 3.18696 -0.125601 0.199891 -1.155083
O 5.97347 9.3018 8.50275 -1.835075 -0.626696 1.86456
O 10.36299 9.49588 0.21453 1.04492 -0.152495 0.917685
Na 11.95819 3.52833 11.82709 0.345952 0.46814 -0.109638
Na 10.05919 12.19639 5.3418 0.085578 -0.05715 -0.110265
Na 8.09765 9.24733 9.67376 -0.09849 -0.232127 -0.102551
Na 5.27534 8.74322 12.17309 -0.233218 0.641151 0.514975
Cl 8.71025 12.44139 0.356 0.018641 -0.078113 -0.250561
Cl 4.56008 11.89079 6.93186 0.13424 0.064048 0.423719
Cl 4.28259 0.58194 11.74559 0.213907 0.159144 -0.148298
Cl 1.50108 7.04597 6.58531 0.115156 0.005718 0.367554
200
energy=-1088.25172745 config_type=nep2xyz pbc="T T T" virial="-35.04223 2.43324 -0.84256 2.43324 -13.34805 -3.17564 -0.84256 -3.17564 -21.05004" Lattice="12.820076942 0.0 0.0 0.0 12.820076942 0.0 0.0 0.0 12.820076942" volume=2107.035705034769 Properties=species:S:1:pos:R:3:force:R:3
H 0.5262 3.03001 8.18323 0.287033 0.598158 -0.13036
H 12.74397 4.38415 7.78344 0.530985 -0.508484 0.555238
H 0.41014 10.87517 5.05732 -0.516557 0.311353 -0.369867
H 1.80066 10.33787 5.16646 1.335126 0.323664 -0.344614
H 8.51579 8.24591 2.28207 0.063157 0.180164 -0.019839
H 9.26257 7.39786 3.37927 0.258063 -0.081033 0.29248
H 4.96316 4.86725 12.10977 1.043425 0.177543 -0.033972
H 6.5258 5.6477 12.24007 -1.315198 -1.452914 -0.63505
H 1.87847 10.68497 11.20527 -0.00918 0.556385 1.054245
H 2.60929 11.92867 11.29317 2.305822 1.930553 -0.889081
H 1.22676 3.78577 4.47607 -0.229864 -0.101641 -0.339734
H 0.65598 3.26205 3.06046 -0.487533 0.312428 1.541975
H 3.66117 8.12162 5.00092 1.23407 0.685015 -1.288324
H 5.16015 8.47162 5.16213 0.260938 -0.039027 -0.13582
H 11.48527 3.99314 4.32454 1.249534 -0.945668 0.193428
H 10.97097 5.10025 3.49698 0.153149 0.699251 -1.315323
H 2.55369 6.58475 8.56317 2.111245 -0.191077 -0.760411
H 3.53568 5.72075 7.63708 0.061976 0.365231 0.735834
H 7.33801 7.28063 11.31927 0.084132 0.373519 -0.828857
H 8.69369 6.68035 11.75787 0.615571 -0.158224 0.053707
H 4.06095 2.10169 8.05378 -1.857406 -0.116276 3.134459
H 5.44618 1.68274 7.5176 0.682997 -0.568591 0.455961
H 4.63584 10.34487 1.71132 0.059528 0.142285 0.170767
H 4.69637 8.98799 2.43332 -0.095657 -0.381893 0.305196
H 6.85078 6.29773 4.52475 0.137361 -0.068222 -0.715438
H 6.55175 5.62688 5.87884 -0.559551 0.615924 0.104529
H 2.37051 5.1141 1.48237 -0.520803 -2.583805 -1.119113
H 2.38383 5.93696 2.81038 0.113498 0.620071 -1.700185
H 11.67457 1.89377 0.25395 0.262323 0.908699 -0.590704
H 12.22047 1.11654 1.50387 -1.324055 0.51225 -0.855362
H 12.72117 5.53911 2.42771 -0.334234 0.066645 -0.528657
H 12.19207 5.13007 1.02155 -0.371704 0.568873 1.002
H 11.08957 11.63277 11.59167 0.904764 0.266805 -1.282567
H 11.28997 12.64797 0.05707 0.234896 0.813318 -0.402523
H 6.51224 9.11713 1.05348 0.32874 0.415573 0.191934
H 7.78841 8.38314 0.62758 -0.489699 1.47058 0.205973
H 3.99244 0.02089 2.50538 1.328881 -1.234895 -0.302933
H 5.59893 12.71547 2.40961 -0.570387 0.196196 0.023259
H 8.85045 2.455 6.92243 -0.045656 1.372715 0.089431
H 8.28176 3.98817 7.12771 0.886979 -0.959684 0.282126
H 10.64097 7.08877 11.26977 -0.083432 -1.114953 0.975002
H 10.68377 5.70901 12.00927 0.733862 -2.725055 -0.544407
H 10.61327 4.11645 6.70978 0.101836 0.342267 1.271423
H 10.45427 4.68025 8.24628 1.525641 -0.599256 -2.371457
H 8.37607 11.46237 12.66757 -0.915953 0.085375 0.08413
H 6.75958 11.74327 12.61107 0.966913 -0.176735 -0.172067
H 1.58117 10.75057 0.41932 0.684234 -0.210694 0.537462
H 2.44503 10.09127 1.64113 -1.548617 0.026596 -0.991591
H 8.02493 8.25259 8.86987 0.180362 -0.785477 0.619112
H 6.65041 7.69382 8.90924 0.233792 -0.578083 0.172791
H 10.68377 8.43432 9.07318 -0.25692 0.484643 -0.109094
H 11.63427 7.38303 8.58629 0.876726 -0.772781 -1.761243
H 1.36849 8.64287 0.60988 -0.811161 -0.533762 -0.144229
H 1.31128 7.16915 0.96015 1.257647 -2.185913 1.28999
H 12.75577 7.39367 6.12609 -0.072743 -0.348924 1.546406
H 12.07197 6.19092 6.71069 -0.902373 -1.157048 0.107732
H 9.34813 1.80229 11.05227 -1.885499 2.201052 -0.762339
H 7.97218 2.53809 10.48807 -1.123956 -0.676545 0.020964
H 8.01131 5.85395 8.4689 -0.279211 1.380757 0.393152
H 7.59048 4.59472 9.24882 0.026991 -0.071364 0.188292
H 11.97067 1.40468 6.10553 -1.307242 -0.566065 -0.48792
H 0.2896 2.35343 5.77003 0.067104 0.060866 -0.5512
H 2.11143 3.86553 6.40295 -1.002688 0.015691 1.427901
H 3.26162 3.58834 5.49953 -0.996071 1.002127 -0.468964
H 7.55817 3.36475 5.37677 -0.322976 0.02936 -1.438491
H 7.10915 4.09019 3.9233 0.422074 -1.2173 1.265309
H 2.29467 6.0921 5.01928 -0.500167 -0.692823 0.684868
H 1.20536 7.0621 4.27416 0.160527 -0.410179 0.53847
H 6.56272 6.02496 2.46453 1.647288 -1.895874 0.28113
H 8.11421 6.16481 2.50172 -0.216318 -1.301119 0.256498
H 5.73385 2.45244 3.42661 0.369881 0.075452 0.328497
H 4.42058 1.76144 3.16543 1.406617 1.167787 -0.768219
H 11.42737 7.65551 4.63897 -0.773776 -0.420021 0.129355
H 12.40137 8.74685 4.28 0.492003 1.28489 0.191696
H 11.52467 10.70117 1.0555 -1.090866 1.768907 -1.676221
H 12.75097 9.89447 1.50626 -1.736017 0.591775 0.768831
H 4.03944 1.22317 10.09937 -0.498964 -0.41513 -0.02512
H 2.65676 2.01291 10.05847 0.553401 -0.193121 0.291735
H 5.28857 1.09263 0.45901 -0.207764 -0.434669 0.196527
H 4.82091 1.75663 11.96747 -0.003062 -0.17749 -0.079043
H 6.11659 3.71771 10.82467 -0.305012 0.238614 -1.259682
H 5.1466 2.96943 9.82062 0.772985 0.702395 -0.027782
H 5.13506 11.98957 5.30495 2.146854 0.624231 -0.63042
H 6.45237 12.31197 4.41493 -0.066891 0.029376 0.188959
H 3.96947 10.26137 4.77101 0.136723 -0.144306 -0.038174
H 3.57244 11.03267 6.05818 0.375342 0.011499 -1.067017
H 2.80107 3.34334 12.54497 1.292805 0.995066 -0.735369
H 2.44686 4.65728 11.86697 1.802675 -0.577256 -0.19053
H 3.92965 1.56722 5.60647 0.200294 0.128089 -0.288954
H 2.82009 1.30033 4.54554 -0.43523 -0.239331 -0.169828
H 6.15673 0.01499 8.59688 -0.885334 -0.751135 2.164825
H 6.22836 12.77557 7.0994 1.031441 0.309436 0.154685
H 1.23911 12.33347 8.41009 0.368328 0.189436 -0.155113
H 0.98666 0.60034 7.32953 -0.479911 0.424633 -0.690885
H 1.28503 4.88912 9.5974 -0.037359 -0.347724 -0.428801
H 0.62127 4.61452 10.91397 -1.076181 -0.63969 0.606861
H 6.22087 4.48791 8.03601 0.469122 0.157086 1.09843
H 5.24036 3.90051 7.14083 -0.101038 0.491499 -0.197434
H 0.02039 12.17857 3.04446 -1.248253 -0.723243 1.476492
H 11.92387 10.88147 3.09076 -0.05261 1.347048 0.465924
H 8.08893 0.92406 0.43962 0.182292 0.328379 0.826804
H 9.20367 1.7504 1.29639 -1.502883 -0.168752 -0.810053
H 12.34377 2.32002 10.58737 -0.300557 -1.917128 -0.789582
H 0.26187 1.33501 9.50403 -1.177514 -0.438031 0.982835
H 9.55701 2.12589 9.32259 -0.511886 0.062389 -0.227935
H 10.94877 1.58654 8.97414 -2.230725 -0.326476 -0.880046
H 9.9031 0.34167 4.81045 0.621428 0.056223 0.193291
H 11.33817 12.55067 4.95269 -0.761905 0.45282 0.13557
H 8.48018 0.74388 2.86235 0.200203 -0.276875 0.546689
H 8.28489 1.44454 4.20948 0.228421 -1.081725 -0.46717
H 9.83127 5.67447 4.98911 -0.03405 0.714222 -0.074337
H 8.71415 6.71109 5.56133 1.809936 -0.023477 -1.037176
H 0.46617 3.46779 0.30884 0.667075 0.159843 1.474763
H 1.41385 2.6863 1.27444 0.544242 -1.241871 0.146479
H 5.00049 10.07237 11.04457 -0.101312 -0.116214 0.638644
H 4.36642 9.4284 12.37197 0.817328 -0.073356 -1.100604
H 5.85191 7.73733 6.76501 -0.664731 0.754026 2.313125
H 4.60534 7.44723 7.70902 0.605586 0.761238 0.64175
H 3.25014 9.09837 10.49127 0.416024 0.079761 0.047915
H 2.06118 9.64755 9.50662 0.17453 -0.070079 -0.812633
H 0.82174 1.12919 11.65937 -0.98854 -0.313848 -0.724253
H 1.82373 0.79095 12.70067 0.421542 -0.643298 1.022261
H 5.24653 6.9689 0.92722 -0.110335 -0.491725 1.690536
H 4.38612 6.27485 2.06439 -0.167665 0.186778 -0.383327
H 4.96915 9.69472 7.85045 -1.391169 1.920554 -0.641331
H 4.48644 11.21307 8.44331 0.15374 -0.813574 -0.602578
H 2.63559 10.39817 7.76749 0.375753 -0.057267 0.152145
H 1.13232 10.25257 7.27683 1.187686 -0.236216 1.383781
O 0.76737 3.98346 8.17034 -0.461012 -0.363353 -0.69256
O 0.91602 10.16047 5.46956 -1.066705 -0.444914 0.532353
O 9.18443 7.54281 2.41601 -0.006377 0.040695 -0.003984
O 5.96079 4.81887 12.00347 0.449101 1.239567 1.386379
O 1.94638 11.51597 11.78697 -2.334751 -2.89501 -0.047067
O 0.41429 3.4431 4.02943 0.741268 -0.018717 -1.125868
O 4.42912 8.60795 4.54866 -1.501919 -0.772024 0.934148
O 10.71827 4.53448 4.20958 -1.316246 -0.030755 0.788648
O 3.52766 6.448 8.30287 -2.345508 -0.393826 -0.125551
O 7.84637 6.99103 12.07977 -1.2132 -0.067243 1.01718
O 4.58623 2.05574 7.30597 1.07959 0.767645 -3.886376
O 4.49094 9.38522 1.57844 -0.093225 0.79118 -0.218801
O 6.57397 6.50559 5.4213 0.277464 -0.374562 0.830595
O 2.52072 5.97526 1.78384 0.448827 2.093864 2.880999
O 11.38627 1.32417 0.9607 1.169723 -1.479558 1.698627
O 12.00157 5.73269 1.79239 0.560698 -0.622787 -0.244105
O 10.84487 11.90217 12.45277 -1.355098 -1.183652 1.73674
O 7.48604 9.23095 1.10492 0.088357 -2.159356 -0.739741
O 4.77162 12.20437 2.39392 -0.858473 0.416355 -0.184104
O 8.7829 3.36456 6.52273 -0.647112 -0.456639 -0.018832
O 10.50967 6.60532 12.14767 -0.272367 3.993565 -1.064819
O 11.12837 4.52016 7.46525 -1.898124 0.46217 1.041447
O 7.63046 12.02527 0.13478 0.012887 0.472108 -0.05646
O 1.55999 10.05267 1.14469 1.482258 0.809401 0.465522
O 7.55006 7.46071 9.2627 -0.372309 1.592979 -0.973323
O 11.29177 7.74099 9.38247 -0.340659 0.408225 2.251778
O 0.8273 7.7911 0.46906 -0.898113 2.117418 -1.729333
O 12.60937 6.91643 7.00068 0.945666 1.438982 -1.365854
O 8.90148 2.64932 10.65627 2.434807 -1.387596 1.376661
O 8.24077 4.94118 8.61926 0.431874 -1.29283 -0.282492
O 0.03195 1.6496 6.37106 0.931005 0.459593 0.56631
O 2.52436 4.26908 5.65095 1.852454 -0.889258 -0.749197
O 6.99782 3.28 4.52917 0.239655 1.043921 -0.272573
O 2.11682 6.70329 4.30844 0.176889 0.916292 -0.987602
O 7.44358 5.42941 2.71625 -1.84302 2.792011 -0.809845
O 5.20829 2.16888 2.66016 -0.938932 -0.624968 0.663795
O 12.27217 7.81265 4.2068 0.238837 -0.942649 -0.222348
O 11.73667 10.07327 1.71351 2.8247 -2.612762 0.552043
O 3.59936 2.05708 9.8289 0.057126 0.652134 -0.409669
O 5.29658 1.91284 12.78987 -0.031591 0.446926 -0.470885
O 6.02793 3.4405 9.85742 -0.11485 -0.8081 0.884415
O 6.11401 12.33227 5.31847 -2.184515 -0.657714 0.493197
O 3.56677 11.10587 5.05905 -0.450676 0.213874 1.351542
O 3.27455 4.12114 12.10757 -2.59546 -0.161998 0.72468
O 3.62615 1.80069 4.69495 -0.112906 0.015925 0.881796
O 6.64832 0.38114 7.89598 0.397844 0.397671 -2.438525
O 1.44048 0.43428 8.1577 0.199487 -0.5058 1.343675
O 1.18481 5.25274 10.49217 0.914548 1.522596 -0.101264
O 5.64154 4.78399 7.34324 -0.702444 -0.872098 -1.268615
O 12.13237 11.71377 3.64398 1.686067 -0.129055 -1.412288
O 8.22383 1.69659 1.06208 1.470606 -0.188709 0.183214
O 12.30577 1.36629 10.16967 1.540323 2.039318 -0.609287
O 9.95573 1.55431 8.62734 2.908325 -0.320275 0.239401
O 10.66897 0.27837 5.45401 0.147382 -0.580612 -0.055215
O 8.62464 0.57891 3.82742 -1.056849 1.660312 -0.230096
O 9.60252 6.64842 5.06109 -1.773079 -0.126129 1.005311
O 1.00226 3.53931 1.18444 -0.577836 0.762152 -0.856736
O 4.83177 9.22435 11.51327 -0.642456 0.207157 0.464676
O 5.39815 8.08657 7.63925 0.42871 -1.340293 -2.600988
O 2.29929 9.19689 10.33817 -1.071648 -0.66588 1.086378
O 1.67393 1.39186 11.98047 0.638423 1.271125 -0.433538
O 5.25829 6.68728 1.88989 0.112443 0.394964 -1.34917
O 4.41227 10.58987 7.669 0.976337 -1.062944 1.231953
O 1.73421 10.25957 8.11548 -1.598759 0.458682 -1.822763
Na 11.33777 7.87745 1.15831 -0.210931 -0.5199 0.333682
Na 9.69314 12.29797 7.60182 -0.134651 0.894979 -0.288641
Na 6.52197 3.33149 1.02624 0.131317 0.032182 0.210613
Na 0.6117 7.51269 10.91467 0.156392 -0.025238 -0.03786
Cl 11.86117 3.75627 11.94007 -0.440563 0.152546 -0.35445
Cl 4.86204 12.34957 10.58937 0.134545 -0.569301 -0.136226
Cl 9.45487 9.95295 8.05005 -0.03277 -0.853389 0.333728
Cl 1.69341 0.50232 2.11479 -0.139903 0.060406 0.244349
200
energy=-1090.51256662 config_type=nep2xyz pbc="T T T" virial="-16.83072 -0.04578 1.91177 -0.04578 -14.55807 -4.58171 1.91177 -4.58171 -12.11153" Lattice="12.607338905 0.0 0.0 0.0 12.607338905 0.0 0.0 0.0 12.607338905" volume=2003.8734099587757 Properties=species:S:1:pos:R:3:force:R:3
H 9.99242 2.43504 8.97238 -0.510415 -0.543297 -0.381531
H 10.23011 3.29853 10.13331 1.848975 2.118101 1.383772
H 7.9996 11.45011 0.74084 0.759357 -0.070836 0.465165
H 9.07835 10.44701 0.20815 -0.144667 0.434124 0.41971
H 1.12001 4.86718 10.69731 -0.31689 1.735069 -0.534328
H 0.55921 6.36517 10.63951 0.07332 0.037049 0.148954
H 7.05275 0.68025 0.56567 1.375913 2.383587 -0.910544
H 6.11677 12.17061 0.3061 0.075879 0.192958 0.57132
H 10.96861 11.58951 9.37809 -0.06017 0.150516 0.437401
H 10.63941 10.19311 8.85495 0.227231 -2.218489 0.524645
H 6.55812 4.31557 3.1584 -0.925588 -0.12251 -0.140808
H 7.71663 3.33812 3.37485 0.321482 0.948438 -0.166015
H 12.36501 3.14458 0.1043 0.131129 0.318215 0.371789
H 12.39051 2.89338 11.22371 0.682344 1.322018 1.199593
H 4.41976 6.60434 9.94905 -0.142705 -1.023506 -0.046715
H 5.15695 5.93986 8.77794 0.455111 -0.268488 -0.737842
H 4.15906 4.04979 9.98787 -0.142744 0.085362 -0.609725
H 3.54797 3.58683 11.26031 -0.440253 -0.877388 -0.546974
H 7.92439 5.20171 4.81309 -0.634021 -0.459089 -0.620911
H 9.01789 5.28224 5.80097 0.517683 -0.288439 0.681914
H 1.87509 3.13133 4.69587 0.132827 -0.58904 -1.116684
H 1.80488 2.51017 6.14864 0.267876 0.85452 -0.927716
H 4.33928 9.53335 1.76296 -0.240075 0.21883 1.178973
H 4.96486 8.52416 2.67104 0.779735 -1.01914 0.297601
H 8.72723 11.41001 8.54604 -1.222716 1.227663 0.115816
H 8.11444 11.74741 7.27305 -0.803187 -0.148973 -1.510642
H 5.57519 4.64988 11.99821 0.223497 -0.124787 0.183903
H 6.52509 4.4016 10.76021 0.533468 0.489155 1.135163
H 7.64505 1.09306 5.03047 -0.005829 0.072263 -0.064136
H 6.21708 1.54135 5.39924 -1.621866 0.768735 -1.086685
H 1.43784 5.99783 1.26818 -0.167084 0.242924 -0.185792
H 0.02973 5.63584 1.85575 1.23337 2.24636 -0.867224
H 2.36877 2.70691 9.358 -0.587898 -2.640054 0.047617
H 1.64695 1.17406 9.63567 -0.011106 1.330749 0.121896
H 4.4911 2.84857 3.24421 0.620484 1.168657 0.105491
H 4.32278 4.06873 2.19294 1.275166 -0.62353 1.888932
H 5.22423 0.74538 9.58223 0.530402 -2.51407 1.58221
H 4.51473 1.98889 9.51128 -1.459365 1.691878 0.835732
H 9.87388 5.75709 2.23399 -2.004311 0.687501 -0.643183
H 8.28261 5.41245 2.17574 1.309122 0.841282 0.267667
H 7.56757 5.96923 12.01311 1.769005 0.526535 0.348865
H 8.7253 6.32815 0.5104 0.067017 -0.032227 0.354955
H 7.29261 11.19901 4.74394 -0.034603 0.426301 -0.822932
H 8.76176 10.66111 5.01379 -0.060966 -0.384536 -0.581915
H 3.80945 0.87699 4.46134 -0.619075 -0.183101 0.681274
H 5.15055 0.65647 3.77687 1.011674 -1.196734 -0.387286
H 5.54609 11.13931 3.47166 -0.842443 -1.271732 -0.18398
H 6.399 11.98411 2.43905 -0.389279 0.267614 1.078509
H 7.5455 2.755 11.95821 -0.695872 0.79579 0.436117
H 8.73107 2.10323 11.35651 0.082372 -0.327053 0.256233
H 0.46483 2.99609 8.25766 0.396867 -0.34661 0.397532
H 12.30061 4.35106 8.65692 0.099339 -1.747221 -0.982382
H 0.75999 10.81271 7.08267 1.164427 -0.261126 -0.738162
H 2.14261 10.22421 6.28632 -1.623071 0.480881 0.474375
H 12.60271 0.55315 5.9969 0.006354 -0.085981 -1.164888
H 11.92371 1.27609 4.70247 1.639371 -1.386387 0.561361
H 3.2255 10.54001 12.31121 0.278801 0.329589 -0.244764
H 2.38951 9.47179 0.42775 -1.401315 -0.264975 0.287621
H 0.04147 12.54751 0.10329 -0.073888 0.638483 1.376462
H 12.01611 0.79149 1.30277 0.437729 -0.748541 -0.569451
H 0.83428 8.93896 9.66774 0.085552 -0.585633 -0.024329
H 0.49721 9.1942 11.15301 0.341077 -2.78144 -1.164818
H 10.58971 6.56572 9.98256 -0.331024 0.47332 0.271462
H 9.45453 5.77756 10.85431 1.573168 0.597489 -1.331131
H 2.66883 11.46091 4.21717 0.045228 -0.096986 0.278277
H 1.47096 12.42801 4.10639 -1.961128 1.250718 1.609737
H 2.82674 0.73264 7.62335 1.440925 0.496361 -0.832776
H 4.4168 0.81451 7.45795 -1.068144 0.286351 0.097699
H 4.01926 11.56521 6.15136 0.110339 2.629533 1.709221
H 4.46761 10.29181 5.617 -1.089015 -0.329481 -0.188039
H 5.1931 7.27242 6.5513 -1.183483 1.413999 0.011815
H 6.47643 6.60447 6.73009 0.378277 -0.602471 -0.187134
H 2.63783 8.42839 3.43507 2.853293 0.69267 -0.625191
H 1.3416 7.93604 2.73091 0.820195 0.503485 1.877266
H 8.86633 8.09387 6.89017 -0.161651 0.114602 -0.067883
H 10.25391 8.5774 6.41883 -0.636036 0.057175 0.03506
H 3.68699 9.06417 8.27265 -1.462202 -1.30998 -0.941699
H 2.24003 8.95622 7.69286 0.13151 0.196179 -0.231426
H 8.89662 6.86509 8.48268 -0.531118 -0.080147 0.232131
H 7.5623 7.55471 8.901 -0.21292 0.548589 0.788428
H 6.14168 9.14138 9.13771 0.584558 0.282339 0.656451
H 5.81771 8.56068 10.50581 0.396507 -0.278 0.150487
H 6.25304 6.81858 4.52557 -0.098581 -0.272598 0.218536
H 6.34221 7.0486 3.0094 -0.57691 -0.749575 -1.754532
H 11.73301 5.68644 3.87206 -0.793181 1.559738 -0.005354
H 12.02411 7.09287 4.54039 -0.587198 -0.229114 -0.870589
H 0.14494 8.57083 6.9125 0.044612 0.355059 -0.014775
H 12.37481 7.15025 6.51641 -0.226503 0.459099 0.928701
H 6.12378 11.33461 8.43253 0.738159 0.209141 -0.109336
H 5.18067 10.97181 9.61304 0.220745 0.137221 -0.978562
H 9.02279 0.71229 7.50217 -0.499174 -0.584798 0.602046
H 9.64708 1.74634 6.61474 -0.039194 0.701474 -0.132539
H 8.50087 8.19157 11.78171 -0.329857 0.201935 0.029473
H 7.81853 9.39493 10.94091 0.885387 -0.730897 0.779094
H 9.59546 2.65793 4.06715 0.472111 0.719715 0.466797
H 9.41435 1.75459 2.89232 -0.260342 -0.554284 0.15891
H 6.60659 9.61133 6.16206 -1.645004 -1.294168 -1.071301
H 5.94031 8.6105 5.03897 0.359998 0.55725 0.346029
H 11.66601 11.89541 7.59002 1.735733 0.799008 -0.334027
H 0.07652 0.11837 8.37937 0.246485 0.266888 -0.09383
H 9.13089 10.05761 2.40057 -0.971185 0.570064 -1.255883
H 10.49401 10.26331 2.94655 0.428045 -0.133826 0.177803
H 3.49003 0.68095 11.82271 -1.909235 1.695662 1.58223
H 1.95955 1.05794 12.29341 -1.418344 -0.465054 -0.447064
H 4.33584 3.20159 6.52057 0.46048 0.40704 0.08039
H 5.2658 4.49633 6.58666 -0.276742 -0.765767 0.131203
H 0.47964 8.08349 0.73303 -0.054433 1.505083 -0.396452
H 0.30232 9.57436 1.28778 -0.124693 0.204268 0.190027
H 3.09443 11.48331 9.22136 2.359376 0.899588 -0.461003
H 1.74518 11.56381 9.73723 -0.697664 -0.108191 0.28861
H 3.86197 6.73787 11.88941 -0.63591 -0.659832 0.936036
H 3.70646 8.32805 11.82491 -0.690226 1.006486 1.031913
H 10.80071 3.74427 5.15597 0.83878 -0.036901 -1.916073
H 11.32901 3.79283 6.5903 -0.222475 -0.039306 0.239153
H 0.07448 11.56621 2.28093 -0.157887 -1.224501 0.095565
H 0.3685 10.54801 3.48199 -0.323141 0.013788 -1.205141
H 4.67073 6.17801 1.2478 0.091671 -0.196016 0.037219
H 6.05342 6.47035 0.61413 -0.340116 0.208847 0.591733
H 9.59391 12.60391 1.11108 0.55519 -0.002351 0.187673
H 9.4665 1.44314 0.67041 -0.114018 0.559705 -0.197644
H 9.89494 8.73793 10.48431 0.683959 -0.161182 -0.306315
H 11.46891 8.37907 10.26851 0.163373 0.196479 -0.065506
H 7.71131 5.18883 9.02999 0.438283 2.978694 -1.006712
H 8.37309 3.88817 9.36435 -0.552925 -0.122595 0.189421
H 1.66414 5.06283 5.77402 0.486873 -0.043608 0.390009
H 1.85971 6.48071 5.24936 0.218418 1.03709 -0.931447
H 1.05797 2.84531 3.04438 -0.000968 -0.666421 -0.136757
H 1.99269 3.56062 2.24532 0.836433 0.913017 -1.01663
O 9.59801 2.70914 9.8166 -1.350877 -1.287369 -0.791141
O 8.92866 11.13271 0.91435 -0.712821 -0.810635 -1.086012
O 1.09662 5.72525 10.15851 0.098656 -2.131926 0.594716
O 6.71283 12.55291 1.01902 -1.434819 -2.293504 -0.302937
O 10.52601 11.10741 8.66336 -0.253996 1.806385 -0.560008
O 7.5243 4.31237 3.25719 0.341646 -0.961967 0.212167
O 0.02606 3.61256 11.90841 -0.708792 -1.73304 -1.68621
O 4.51609 5.7329 9.45561 -0.517786 1.337936 0.604996
O 3.65053 3.27857 10.31451 0.268494 1.226682 1.000989
O 8.17725 5.70459 5.59713 0.423771 0.360779 -0.103564
O 2.05121 3.30424 5.61054 -0.129708 -0.329399 2.08681
O 4.54744 9.37169 2.73359 -0.667561 0.938124 -1.387978
O 7.94879 11.97401 8.19096 1.589055 -1.431066 0.968007
O 6.52229 4.59761 11.76051 -0.710663 -0.32991 -1.287399
O 7.00374 1.18431 5.7487 1.09316 -0.602702 1.064048
O 0.60432 6.45186 1.51611 -0.851084 -2.471076 0.7879
O 1.91428 1.84788 8.96489 0.410487 1.379657 -0.265658
O 4.84093 3.76946 3.0361 -1.440658 -0.083123 -1.86641
O 5.1787 1.50487 9.06164 1.440626 0.54165 -2.269309
O 8.96442 6.16327 1.98769 1.061544 -1.877936 1.380452
O 8.4384 6.49094 12.18761 -1.84323 -0.43207 -1.665819
O 7.99035 11.09291 5.39106 0.084714 0.075338 1.488894
O 4.46172 1.3057 3.91691 -0.611766 1.228547 -0.278759
O 6.05011 11.93481 3.38561 1.118077 0.557049 -0.41302
O 8.21004 2.10743 12.19131 0.403917 -0.419652 -0.767692
O 12.27391 3.51072 8.08612 -0.531818 2.051021 0.858006
O 1.17218 10.06361 6.56888 0.565054 -0.268386 0.165835
O 0.06232 0.64887 4.99164 -1.527212 1.545735 0.361581
O 3.28465 9.78284 0.29269 0.916983 -0.19837 -0.12823
O 0.19319 0.22614 1.06227 -0.392914 0.242577 -0.370655
O 0.57767 8.40366 10.44421 -0.170203 3.343569 1.549532
O 10.11061 5.73193 10.05811 -1.400365 -1.09423 0.936419
O 2.109 11.97391 3.61173 2.109317 -0.887941 -1.697096
O 3.57145 0.79239 6.9459 -0.426397 -0.553423 0.467931
O 3.65139 10.88561 5.64233 0.766222 -2.652016 -1.420212
O 5.58039 6.42897 6.39094 0.929342 -1.222397 0.282936
O 1.74269 8.29433 3.59767 -3.70532 -1.437284 -0.957653
O 9.28749 8.67948 6.23392 0.99397 -0.448514 0.084557
O 3.0288 8.40433 7.8631 1.329763 1.011994 1.155748
O 7.95594 6.99813 8.2277 0.865832 -0.493978 -0.581134
O 6.59309 8.74322 9.9343 -1.456619 -0.003422 -0.961335
O 6.54528 7.44064 3.84114 0.67787 0.715549 1.640922
O 11.37731 6.6409 3.94755 1.076276 -1.260211 0.827942
O 12.13041 7.85557 7.16595 0.360305 -0.672193 -1.05156
O 5.31185 10.85171 8.62457 -0.786813 -0.60082 0.756084
O 9.12858 1.66135 7.42303 0.825892 0.397396 -0.21542
O 8.58157 9.15519 11.54791 -0.151912 0.359165 -0.468213
O 9.02125 1.95921 3.77942 -0.295981 -0.496496 -0.862323
O 5.77106 9.062 5.90273 1.453137 1.495292 0.448407
O 12.58141 12.38091 7.47019 -2.111033 -0.98558 0.672584
O 9.6468 9.84007 3.15759 0.763054 -0.713317 1.569995
O 2.85498 1.33526 12.38701 3.259766 -1.313715 -0.930108
O 5.17342 3.5573 6.8865 -0.303933 0.405436 -0.323402
O 0.56187 9.06614 0.48395 0.258501 -1.525673 0.255904
O 2.33569 10.95291 9.28125 -1.816145 -0.777133 0.370769
O 4.06565 7.54468 11.43481 1.540672 -0.207088 -2.188292
O 10.52431 3.88858 6.03602 -0.503283 0.169933 1.502921
O 12.50491 10.62661 2.61262 0.0741 0.775894 0.658821
O 5.53965 6.58263 1.43868 0.751251 0.345507 -0.186779
O 10.00201 0.89163 1.25119 -0.033219 -0.084167 0.457421
O 10.60211 8.4614 9.82569 -0.978332 0.443058 0.109489
O 7.48512 4.32484 9.24919 -0.142971 -3.187035 0.668155
O 1.91305 5.97471 6.04703 -0.679234 -0.825577 0.815748
O 2.00927 2.7816 2.78634 -1.101122 -0.459968 0.855262
Na 6.84463 2.24424 7.78532 0.271019 0.347666 -0.146188
Na 9.05773 7.40457 4.1938 0.017821 0.461471 -0.200411
Na 2.17882 6.28281 8.38755 0.447179 0.312936 -0.455103
Na 2.96443 0.78037 2.01071 -0.280394 0.128222 0.099502
Cl 11.65751 3.70271 2.78507 0.004746 0.296483 0.268744
Cl 3.36979 4.8721 0.42982 -0.324366 -0.050031 -0.117176
Cl 12.48511 0.50855 10.73771 -0.00946 -0.537861 -0.614195
Cl 4.93869 11.92451 11.35201 -0.217453 -0.012166 0.037146
200
energy=-1088.57767212 config_type=nep2xyz pbc="T T T" virial="-6.53517 4.12919 -0.40002 4.12919 -9.52855 -7.43455 -0.40002 -7.43455 -12.22664" Lattice="12.870929718 0.0 0.0 0.0 12.870929718 0.0 0.0 0.0 12.870929718" volume=2132.2089231965265 Properties=species:S:1:pos:R:3:force:R:3
H 6.47494 0.21947 12.20981 -1.133565 0.247672 0.337083
H 7.17721 12.22391 11.19721 -0.413284 -1.354205 -2.388841
H 3.41115 2.63972 2.99479 -0.056479 0.168371 -0.495964
H 4.36329 2.00345 2.00657 1.368361 -0.096317 -0.201604
H 10.33221 11.67021 3.17898 0.236319 -0.122446 0.409834
H 9.8508 12.60921 2.14472 -1.112457 0.214478 -3.413585
H 12.65201 8.56208 8.16521 -1.095511 -1.043005 -0.676991
H 12.11771 7.72011 6.91098 -0.14668 0.209816 0.185087
H 11.25931 7.34258 0.18719 -0.547907 -0.442646 0.527711
H 10.53111 7.19536 11.65091 1.037775 0.41481 0.462968
H 8.87384 2.54804 0.82628 -0.188148 -0.038326 -0.281783
H 7.78393 3.49366 1.33183 -0.498723 -0.066821 -0.60207
H 1.88363 12.10241 9.11452 -0.518133 -0.035024 -0.226571
H 3.13136 11.38471 9.74789 0.261775 -0.106358 -0.310965
H 5.4113 4.77671 7.97574 0.716418 1.432966 -1.733816
H 4.62291 3.55329 8.3465 0.280399 0.245512 -0.0947
H 9.30275 10.32061 12.25541 -0.836916 -0.624614 -0.789334
H 9.05707 10.21621 10.74141 -0.540724 -0.274463 0.201701
H 12.55101 4.52237 10.00121 0.332686 0.149995 -0.399193
H 12.18651 2.95987 9.92981 -0.199002 0.820792 -0.033236
H 12.77881 0.07402 12.20601 3.080275 -0.319064 2.384773
H 11.39541 0.96302 12.03471 1.024136 -0.228025 0.260821
H 1.17122 5.52505 8.42079 -0.392711 0.655279 1.173081
H 0.5243 6.65456 9.48014 0.878077 -1.467231 -0.547635
H 2.22016 6.10636 2.25714 -0.849472 0.04495 0.096925
H 3.30218 5.51329 3.20271 0.137679 -0.708757 0.837299
H 9.40534 7.6108 3.6348 -0.092324 0.333076 -0.009603
H 8.11169 8.49177 3.58533 -0.375265 -0.135861 -0.027074
H 3.3399 6.6122 11.08841 0.283025 -0.015214 -0.460966
H 4.36308 7.52223 10.34191 1.064835 -0.026457 -0.06227
H 7.23053 9.92084 12.73591 -0.897477 -1.060529 0.470059
H 5.73746 10.06261 0.44817 0.687624 -1.141672 -0.173859
H 11.31371 4.19812 1.96704 -0.306477 -0.759278 -0.018785
H 12.25411 3.1918 1.38638 2.150509 -0.264835 -0.857807
H 9.01089 11.90021 5.86543 0.077894 -0.223476 0.317628
H 7.98572 0.21244 6.04911 -0.008177 0.017252 0.048457
H 6.85034 1.75465 1.17779 -0.027828 -0.420852 0.296425
H 6.3081 0.37374 1.91032 0.179611 1.419095 -0.063129
H 1.30825 8.565 1.80238 -0.444619 0.64628 1.2282
H 0.47636 7.90524 0.6963 0.334261 0.332432 0.096146
H 0.02979 1.51487 8.45888 -2.094352 0.419534 -0.838031
H 11.82221 2.22696 7.39939 0.430921 0.094959 0.462269
H 5.56041 2.75754 9.99361 0.17093 0.155696 0.271579
H 6.52991 2.09968 9.03021 -1.145776 -0.805658 1.05427
H 2.30047 12.68471 2.17325 -0.546527 -0.200494 1.336395
H 3.09677 0.92195 1.46354 -0.253024 0.532163 0.307154
H 6.47656 8.93934 1.78904 0.404375 0.318115 -1.306996
H 5.69492 8.59064 3.04128 -0.159164 0.033102 0.305493
H 11.52511 9.74521 3.26576 1.063975 -0.60897 -0.344419
H 9.98861 9.42694 3.45026 -0.066773 -0.359171 0.501014
H 4.13542 7.64533 6.45504 0.3156 -0.170999 0.159085
H 2.98568 8.66023 6.74596 -0.106698 0.117626 0.351267
H 3.79004 9.90191 1.75417 -0.606365 -1.189449 2.074417
H 3.90551 11.43791 1.40219 -0.124777 -1.034122 -0.485396
H 3.86372 8.72786 4.36274 -0.543677 -0.06454 -0.419062
H 3.3393 7.85882 3.13889 0.592195 0.731097 0.426432
H 10.20111 9.7986 6.85369 -0.154913 -0.717628 0.088993
H 10.63601 10.38271 5.48744 -0.077899 -0.178705 0.133568
H 6.58216 8.38212 8.74968 -0.066716 -0.486141 0.641105
H 6.61121 9.57554 7.86981 -0.001027 -0.369961 -0.339611
H 3.73468 4.98296 10.04671 -0.394478 -0.192763 1.166561
H 2.28341 5.20173 10.51601 -0.637936 0.089758 -0.276712
H 5.3696 5.6077 5.64631 -0.115009 -0.345689 -0.203394
H 6.54758 6.389 6.35743 -0.15795 0.142762 -0.239397
H 4.08396 2.62217 6.19799 -0.155387 -0.58285 1.894667
H 4.12471 1.17416 6.92035 0.440383 0.591069 0.604881
H 9.30481 7.32435 9.69627 -0.036716 -0.481449 1.153873
H 9.51917 5.8711 10.38731 -0.434623 0.674423 -0.113077
H 2.14254 4.57493 6.35399 1.181943 0.085289 -0.477595
H 0.71003 4.37712 6.56138 -3.140927 -1.945814 -1.063793
H 1.68309 9.74451 8.9731 0.615993 -1.631789 0.55618
H 2.29528 8.22036 9.4679 0.417704 0.593854 0.116116
H 8.93797 9.4443 8.65228 -0.570866 -0.142443 0.000378
H 10.23401 8.65813 8.27995 -1.19759 -1.067149 0.415947
H 4.13325 12.43621 5.53319 0.271615 -0.26697 -0.954624
H 4.74222 12.37971 4.01985 0.032284 -0.076615 0.603474
H 7.24778 7.53937 10.69181 0.415012 -0.120037 0.207191
H 6.38775 8.49291 11.56741 0.165036 0.445746 0.494285
H 8.9673 12.54681 12.29421 -0.265004 -0.245967 0.442267
H 10.49001 12.08251 12.35991 -1.497809 0.455157 1.461827
H 2.81739 2.35773 8.4395 0.637001 -0.267783 -0.761536
H 1.58562 2.97519 9.09581 -0.224862 0.52467 0.104415
H 7.59972 12.30181 4.05509 -1.079985 -0.20395 -0.411947
H 7.16451 11.23001 3.0179 -0.336423 0.006371 0.243802
H 0.25136 1.29293 5.92927 -0.347303 0.550869 -0.068515
H 1.70863 0.89635 6.37237 -2.25141 -0.901228 -1.522757
H 5.73358 6.92765 12.79831 -0.505489 -0.19206 -0.2583
H 4.46918 6.99487 0.81992 0.3302 -0.908361 -0.504362
H 8.71579 4.18199 8.8058 -0.331832 0.492564 -0.475833
H 7.84619 4.22059 10.21861 0.32413 -0.055727 -1.161932
H 1.73323 0.81453 12.12681 0.002311 -0.496337 0.494811
H 2.17775 1.7512 11.03701 -0.191751 0.51449 0.173928
H 10.24691 1.01909 8.27721 -0.440901 -0.283575 0.371708
H 9.04228 12.83561 8.56813 -0.087881 -1.628954 -0.153073
H 1.46008 11.84421 0.41157 0.808002 0.777569 2.324521
H 0.59651 10.99061 12.35911 -0.176557 -0.170226 -0.303002
H 6.8537 4.07099 12.24141 -1.693812 0.959692 -2.159492
H 5.97757 5.13786 11.39711 -0.604775 1.85922 0.328484
H 7.65588 2.88813 7.21554 -0.209066 -0.760514 0.006187
H 7.89895 1.41192 7.76347 -0.781143 1.492222 -1.655842
H 0.45608 5.72642 0.12638 -0.495895 2.233392 0.525829
H 12.74441 4.57852 12.22651 0.322321 -0.222362 -0.295202
H 6.95187 2.24526 3.76768 -1.335289 0.112454 -0.922549
H 7.40858 2.64052 5.21609 -0.123475 -0.66593 -0.800562
H 0.7951 8.65964 4.01644 -0.009016 -0.956654 0.585226
H 0.72474 10.08281 3.66 0.500126 1.45439 -0.063669
H 6.82839 5.47388 2.56561 -0.340631 -1.128178 -0.485337
H 5.87631 5.51389 1.44148 -0.847216 0.138527 -0.955047
H 12.16001 5.91386 5.26055 -0.700734 -2.526618 0.391594
H 11.97221 6.91249 4.07529 -0.847625 -0.39767 -0.997606
H 2.50276 11.86901 4.16117 -0.394272 0.212969 -0.173309
H 1.19691 12.62601 4.38136 -0.464586 0.574196 0.717008
H 11.82611 9.23122 12.24791 -0.053775 -1.086657 0.014541
H 11.54521 10.31431 11.21101 1.495214 -0.318659 1.438008
H 5.14534 0.76364 10.76821 1.503434 1.542219 -2.493517
H 3.93371 0.75849 11.64161 -0.57522 0.046092 0.505619
H 12.74381 12.20501 10.06441 0.367704 -0.372323 -1.187242
H 12.51321 11.93061 8.52033 0.111399 0.094245 0.075098
H 4.59763 11.58601 11.13661 0.685517 -0.49035 -1.088573
H 5.04949 10.28051 10.05801 0.017672 1.025664 0.650468
H 8.58673 7.52062 5.50139 0.236441 0.41222 -1.202327
H 8.21594 7.57968 6.94872 -0.158961 -0.11171 0.395197
H 8.71117 5.29865 6.67905 0.332682 -0.507469 0.644339
H 9.66192 4.04187 6.916 1.337672 -0.383083 -0.731681
H 10.51971 2.54409 0.46014 0.949675 0.310327 -0.375051
H 10.91491 2.92293 11.86201 0.489126 0.978582 -0.578808
H 5.18558 12.06251 7.45811 1.597712 -0.128322 -0.047339
H 3.73795 12.13041 7.90222 0.114253 0.225412 -1.538714
O 7.29778 12.65531 12.00731 1.126101 1.18573 1.551898
O 3.49841 2.41609 2.03559 -0.566828 0.782273 0.510054
O 10.16571 12.61981 2.99936 1.064621 0.07871 2.959322
O 11.84731 8.08127 7.78135 1.296519 0.84267 0.497408
O 11.41921 7.40542 12.10751 -0.583831 0.095803 -0.690024
O 7.97406 2.83368 0.6164 0.106436 0.676315 0.767904
O 2.69477 11.61731 8.89979 1.126759 -0.199547 0.217936
O 5.05385 4.34995 8.72962 -1.395528 -1.501155 1.616923
O 8.80464 9.76677 11.57141 1.076103 1.118467 0.731863
O 12.17141 3.7727 10.48431 -0.381078 -0.99032 0.537866
O 12.01111 0.22728 11.75771 -4.215028 0.401442 -2.970745
O 0.96312 5.75229 9.4022 -0.601453 0.654177 -0.833944
O 3.15482 6.04365 2.41673 0.549454 0.631185 -0.933264
O 8.95172 8.37289 4.07957 -0.32391 -0.853031 -0.464252
O 3.45188 7.46625 10.60631 -1.015129 1.414478 0.454312
O 6.47824 9.37794 0.27111 -0.092957 2.552091 -1.085317
O 11.40711 3.22312 1.76557 -2.068922 1.273562 1.047044
O 8.65291 12.70781 5.45634 -0.114984 -0.185936 0.032089
O 6.10421 1.31442 1.63654 -0.581989 -1.222439 0.319689
O 1.36283 8.24944 0.90491 0.197746 -0.771012 -1.556904
O 11.92151 1.74901 8.27216 1.908841 -0.577305 0.740356
O 5.98289 1.89065 9.87139 1.38148 0.691992 -1.447272
O 2.81744 12.86931 1.39353 0.387063 -1.035207 -0.961093
O 6.59194 8.60099 2.67089 0.033427 -0.687398 1.795424
O 10.72321 10.02061 3.68982 -0.329761 1.6807 0.199777
O 3.49628 8.24769 6.05122 0.109794 -0.064432 -0.57477
O 4.15582 10.49491 1.13494 0.65445 2.191544 -1.713417
O 3.72512 8.74474 3.37823 0.015139 -0.831365 -0.142655
O 10.36461 10.61731 6.40451 0.148872 1.080506 -0.667339
O 6.4189 8.61205 7.83625 -0.117306 0.856943 -0.168264
O 3.16727 5.04271 10.88601 0.918073 -1.066529 -0.792223
O 5.62944 6.06137 6.45471 0.094332 0.236771 0.623891
O 4.04227 2.14635 7.12588 -0.467689 0.346907 -1.883878
O 9.22711 6.79529 10.56571 0.323909 -0.279274 -0.932739
O 1.39455 4.90302 6.84942 1.934702 1.838595 1.690249
O 1.55084 8.76358 9.1456 -1.121464 1.237367 -0.716384
O 9.24996 8.52537 8.54179 2.021916 0.973773 -0.593157
O 3.94048 12.52801 4.55151 0.151382 0.104366 0.069616
O 6.33946 7.78853 10.91071 -0.312541 -0.556562 -0.729834
O 9.61088 12.14001 0.02561 2.471476 -0.497442 -1.183027
O 2.16582 2.21573 9.14143 -0.537446 -0.399996 0.607883
O 6.80317 11.98651 3.51002 1.170908 0.196836 -0.009357
O 0.864 0.55882 5.8607 2.524029 0.883591 1.845192
O 4.95066 6.39654 0.1924 0.083182 1.189158 0.853749
O 8.51779 3.7581 9.65565 -0.368193 -0.545509 2.258959
O 2.0879 1.70056 12.01681 0.636683 0.228398 -1.037247
O 9.30622 0.87156 8.52993 0.681734 2.062452 0.293202
O 1.39271 11.56641 12.40151 -0.331668 -0.722122 -2.308803
O 6.31224 4.26837 11.37071 2.435448 -2.702182 2.193944
O 7.27397 1.97236 7.11951 1.427428 -0.303848 2.039399
O 0.61498 4.83621 12.79891 0.545979 -2.144744 -0.218329
O 7.6639 2.19969 4.37477 1.580812 0.480201 1.343314
O 0.48146 9.22257 3.3153 -0.129693 -0.257138 -0.499191
O 6.37061 4.8557 1.93393 1.545444 0.607698 1.45829
O 12.34051 6.7549 4.93491 1.529749 3.017892 0.832596
O 1.54142 11.89091 3.8816 0.690461 -1.321158 -1.269144
O 12.15661 10.09791 11.98711 -1.56474 1.058765 -1.698218
O 4.71642 0.24862 11.40891 -1.282488 -1.473701 2.282856
O 0.29187 11.82021 9.23261 -1.562221 0.710141 1.395296
O 4.44411 10.67471 10.71721 -0.744959 -0.726864 0.457598
O 8.25121 6.95825 6.20343 -0.209689 -0.625534 1.08145
O 8.88627 4.47873 7.23325 -1.634464 1.132546 -0.220332
O 10.39931 2.30758 12.37601 -0.786274 -1.19676 0.262108
O 4.36859 12.34941 7.07683 -1.761253 -0.162759 1.800166
Na 3.04479 4.05618 0.18227 -0.170084 -0.120755 -0.014554
Na 2.9252 9.47282 12.01761 -0.147997 0.056187 0.068624
Na 8.2093 1.90745 11.17391 0.147305 0.357814 -0.527469
Na 9.99501 1.38569 4.72952 -0.21652 0.085215 -0.544783
Cl 11.47191 3.36939 5.84718 0.12704 -0.245944 -0.199391
Cl 7.59221 11.46561 8.5956 -0.329631 -0.463736 0.432028
Cl 10.74691 6.57054 2.24822 0.186302 -0.17655 -0.175869
Cl 3.9297 4.0787 4.83839 -0.311848 -0.050936 -0.357746
200
energy=-1087.94617796 config_type=nep2xyz pbc="T T T" virial="-10.90596 0.1712 1.96238 0.1712 -23.25838 -0.79688 1.96238 -0.79688 -18.35797" Lattice="12.889928818 0.0 0.0 0.0 12.889928818 0.0 0.0 0.0 12.889928818" volume=2141.6650880795887 Properties=species:S:1:pos:R:3:force:R:3
H 7.99667 5.37949 5.59201 -1.246286 0.79012 -0.625222
H 8.75923 4.49585 6.4318 0.695271 -0.408488 0.159449
H 10.80845 3.24469 8.56598 -0.487786 -0.415603 -2.213366
H 11.40475 2.87058 7.09722 -1.962583 0.13152 1.435885
H 11.27755 12.50145 2.03973 0.634297 -0.335759 0.835296
H 10.84785 12.65865 0.63148 -0.404347 0.33268 -0.395062
H 10.26935 0.87509 4.74351 -0.508749 -0.394566 0.146788
H 9.34023 12.71775 5.49267 0.919708 0.351236 -0.443268
H 1.40844 7.05973 0.54648 0.025981 2.052948 0.704641
H 1.9052 8.25231 1.47273 0.538698 0.038472 1.744268
H 6.02573 0.05 7.75492 0.081241 -0.191867 0.80545
H 5.49909 0.89223 6.73723 -0.418837 0.848875 -1.513713
H 9.87743 1.24897 2.55031 -0.350685 1.098388 1.20369
H 8.69792 2.07756 3.15804 -1.767665 -0.011335 0.024074
H 3.85616 1.53935 12.44285 0.660885 -0.035546 -0.639258
H 4.76504 2.76402 12.21525 -0.13686 -0.844487 -0.680198
H 10.99345 9.81109 4.26304 0.905548 0.230742 -0.842459
H 9.94787 11.05955 4.44637 0.59282 1.309111 -0.37619
H 7.47364 11.47765 6.81429 -0.122226 0.004206 -0.379561
H 6.90276 11.71045 5.3505 0.940605 0.310065 1.020212
H 3.25111 8.65403 8.79073 -0.519619 -0.226342 -0.036932
H 3.89344 9.63179 7.76662 0.083729 -0.900032 0.579663
H 5.66101 4.03531 6.88661 0.809443 -0.96623 -2.003765
H 5.05803 4.4382 8.03633 -1.585741 0.959188 1.852368
H 6.75471 7.53942 1.95078 0.458884 -0.114643 -1.279344
H 6.92156 8.29329 3.32735 -0.611749 -0.627943 -0.799982
H 4.5378 2.40894 3.07702 4.609113 2.176322 -0.71487
H 3.8317 1.31709 3.65589 -0.458091 -1.045037 0.3008
H 11.25765 12.70895 11.08725 -0.406785 -1.764494 -2.687666
H 10.89305 1.00419 11.89285 -0.691047 1.127189 0.120247
H 7.22391 8.5533 7.60962 0.67714 -0.283308 0.193141
H 5.85829 9.08878 7.93369 -0.448814 -0.092734 0.037363
H 2.59045 4.45702 4.63837 -0.417778 0.061064 -0.922351
H 2.50195 5.85501 4.02774 -0.050049 1.355852 -0.055527
H 0.31282 3.3094 4.28934 -1.323828 -0.286787 -0.178017
H 12.47735 1.96007 3.94576 -0.326508 1.451887 -0.09921
H 1.36558 8.22636 6.36941 -0.129909 0.235652 1.526987
H 0.90445 9.27775 7.52518 0.653476 -1.03168 0.043478
H 2.0341 2.61545 2.02408 0.410819 -0.18799 0.82501
H 0.46182 2.81838 2.17744 0.037314 -0.0612 0.797865
H 8.11914 9.60835 2.53761 -0.118759 -0.246756 1.440824
H 8.02097 10.40625 1.30799 -0.322528 0.273224 -0.252697
H 3.39407 7.13522 5.98925 -0.276583 0.135695 -0.280992
H 4.29161 7.21562 7.16745 1.6246 2.547907 2.37343
H 2.15943 2.5235 10.44815 0.603653 -0.101308 -0.210712
H 0.8667 3.22953 10.84805 0.173348 -0.508809 0.277769
H 12.44295 5.24315 1.51797 0.856216 0.935258 -0.435715
H 0.97965 4.82667 1.22947 1.475546 -1.858939 0.331732
H 1.61333 7.44089 8.72666 0.298894 0.344966 -0.319556
H 1.53312 6.39439 9.86635 1.196618 1.541714 -0.162062
H 2.54744 8.59228 12.04845 1.038068 0.761557 0.262432
H 2.84137 8.50963 10.60565 0.532313 0.51121 0.513537
H 11.72385 9.07681 2.37331 -0.020195 0.404173 0.721284
H 0.16386 9.13179 3.16393 1.495528 -0.399208 0.367285
H 12.49915 6.74 5.59281 -0.074548 -1.072684 -1.462161
H 0.23565 5.99609 4.28321 -1.103447 0.503222 1.217692
H 5.03896 8.78322 11.92755 0.474066 0.114344 0.867383
H 5.43168 9.51511 0.32627 -0.162842 0.27824 0.272387
H 8.40878 5.80099 2.16796 -0.434387 -0.214519 0.389125
H 7.56255 5.61153 3.45662 1.425062 -0.817687 -0.986437
H 3.62015 12.16775 0.63665 0.94127 0.318448 0.357937
H 4.51576 12.42375 12.31295 0.600128 -0.267057 0.749999
H 12.60135 1.27788 9.77086 -0.194856 -1.009234 -2.228591
H 0.1931 1.09984 8.29331 0.496874 -0.017824 -0.453068
H 0.16639 4.94133 12.06365 0.27267 -0.143405 -0.605511
H 12.35915 4.94004 10.70215 -2.370513 0.686761 -1.506191
H 12.33785 12.54765 3.90527 -1.847302 -1.732437 0.865373
H 0.76941 12.75235 3.24218 0.486692 0.052352 -0.739051
H 6.22006 2.41353 3.66032 -0.116206 0.499094 1.169897
H 6.76205 2.26075 2.2272 -0.049037 -0.075491 -0.300525
H 1.3331 11.17105 11.23025 -0.229794 0.528804 -0.510801
H 2.47627 11.90775 10.46645 -1.766006 0.088818 0.044623
H 3.65241 11.42195 5.55287 0.166277 -2.101502 0.406399
H 3.1367 9.9797 5.23702 -1.297276 -1.10187 -1.340115
H 3.22724 4.66132 9.31232 -0.069006 0.909072 0.261033
H 2.95813 3.6497 8.18956 -0.803687 -0.183589 -1.519358
H 4.64114 3.14037 5.24641 -0.960674 -0.695698 0.010143
H 5.73486 4.13475 5.10811 0.547245 -0.501119 -0.485867
H 5.5755 11.58585 10.40585 0.266159 0.109135 -0.553945
H 4.32406 10.73905 10.70055 -0.575156 -1.896388 -0.005032
H 6.09234 6.29967 10.65795 -1.211746 -0.035605 -0.751236
H 4.62087 6.77017 10.37455 -0.663266 0.953371 0.129827
H 11.49185 10.35135 7.96615 -2.073178 1.301673 -0.497484
H 10.54115 10.50275 6.76165 -0.330397 -0.163272 -0.803789
H 9.1235 9.36347 10.45295 0.300804 0.37839 -0.23806
H 8.20416 8.93378 11.53605 -0.044481 1.666427 -0.500891
H 8.53722 7.67396 0.97197 0.376625 1.10999 0.196741
H 8.49533 6.60895 12.75565 -0.318055 0.048887 -0.317659
H 8.60171 11.43565 11.75665 0.288337 -1.071576 -0.620659
H 8.03118 12.38585 12.77715 0.246045 0.530007 -0.806359
H 4.45418 9.10619 2.22936 -0.110631 1.177245 0.561671
H 3.34603 10.25255 2.21966 1.364676 -0.288839 0.185974
H 10.81905 4.10724 0.66537 -1.099255 0.897406 0.539836
H 9.8515 5.3696 1.2319 1.441297 -1.142911 -0.430247
H 7.4665 8.63123 5.10559 0.457363 1.859822 -1.907088
H 8.63539 9.44518 4.46479 2.978375 0.722713 0.465724
H 7.38128 3.56401 0.24456 -0.085836 -0.545323 0.451057
H 8.32239 3.51347 1.53155 -0.54346 -0.627923 -1.111121
H 7.00109 0.12736 1.86872 -0.13409 0.675556 0.456186
H 6.088 11.95655 1.18651 -0.113933 0.484235 -0.086678
H 7.37238 11.14895 9.64996 -1.039851 0.888224 -1.535838
H 7.49805 12.61835 9.26757 -0.583253 -0.240154 -0.538288
H 5.37337 0.20751 3.4787 2.160725 2.095553 -1.650195
H 4.74165 11.76135 3.44087 -0.231406 -0.34211 0.20384
H 9.80178 9.48198 0.9372 0.923606 -0.795089 0.435047
H 11.22245 9.59021 0.26403 0.267726 -0.488741 0.21711
H 5.1104 6.01348 5.75076 1.365184 0.304369 -0.24202
H 5.98369 6.26968 4.44393 -0.104553 0.690649 -0.655805
H 5.54975 4.66662 0.45898 -0.084623 -0.288102 -0.291073
H 5.57049 4.64072 11.75605 0.223496 0.055761 0.526952
H 5.01281 5.72921 2.64422 0.183821 -0.179606 -0.692103
H 3.91813 4.71272 2.59546 -0.178378 -0.182276 -0.169831
H 0.98758 11.16705 9.08582 -0.140807 -0.303987 -0.891006
H 0.8228 11.54525 7.51656 0.136743 -1.244164 1.029805
H 8.65326 0.48198 10.57605 -0.296768 0.495804 0.191589
H 8.34894 1.83572 9.64342 0.146699 -1.005423 0.553332
H 9.23796 6.89172 8.79192 -0.207431 0.012828 -0.538071
H 9.37769 6.33952 7.29773 0.143942 0.406619 0.325466
H 10.89005 5.78918 8.83597 0.146437 0.330513 -0.953281
H 10.05645 5.50282 9.99545 -0.097433 -0.352473 0.329009
H 0.3449 10.71335 0.43031 -0.779765 0.206341 -0.570618
H 0.49704 9.41074 12.72535 -0.133818 -1.044886 -0.193412
H 7.50616 4.48123 10.46935 -0.161168 -1.656809 -0.559817
H 7.08548 3.97658 9.10709 -0.186864 -0.268822 -0.288216
H 1.86515 0.76758 6.54308 -0.93595 -1.062889 -0.225739
H 0.93861 0.36713 5.43945 -0.766382 0.017639 -1.238697
H 10.01805 3.22621 11.18025 -0.338509 0.175748 -0.209736
H 9.29581 2.65807 12.53595 1.420863 0.476355 -1.002457
O 8.90652 5.147 5.73119 0.612359 -0.602924 0.855277
O 10.53945 2.88045 7.64684 2.166372 0.335945 0.45585
O 10.60255 0.0447 1.53411 -0.308045 0.037098 -0.274186
O 10.29885 0.05839 5.29351 -1.0013 0.016668 0.488776
O 1.60442 8.06051 0.60533 -0.735841 -2.001285 -2.31034
O 5.60142 0.91609 7.67285 0.229004 -0.570447 0.775008
O 9.60283 1.88431 3.3134 2.171244 -1.00776 -1.197979
O 4.36161 1.98443 11.72555 -0.077024 0.994424 0.944841
O 10.15385 10.15305 4.58932 -1.546802 -1.378691 1.559335
O 7.57469 12.03255 6.01762 -0.683416 -0.34539 -0.628311
O 4.10054 8.93765 8.46311 0.266122 1.394625 -1.081201
O 5.90369 4.12024 7.78987 0.971689 -0.153909 0.496116
O 6.34153 7.66228 2.78918 -0.527435 0.018608 1.923093
O 3.70906 2.09319 3.11537 -5.050717 -1.019967 -0.148119
O 11.43275 0.2157 11.89065 1.470327 0.968863 2.51473
O 6.4204 8.84805 7.1893 0.299375 0.162085 -0.374428
O 2.41131 4.94235 3.77322 0.363772 -1.247247 0.742561
O 12.31175 2.97065 3.96846 1.977685 -1.084114 0.284412
O 1.17843 8.3096 7.35806 -0.363426 0.669589 -1.582419
O 1.19515 2.70806 1.56801 -0.405998 0.121187 -1.624022
O 8.33925 9.54836 1.6207 -0.325839 0.422629 -1.237071
O 3.88983 6.6001 6.62737 -1.195746 -2.654315 -2.364683
O 1.31334 2.33331 10.85705 -0.847993 0.205585 0.092789
O 0.44599 5.59146 1.21757 -2.29113 0.700535 -0.176315
O 2.09241 7.18101 9.55423 -1.481008 -1.945839 0.508032
O 3.19478 9.00346 11.39835 -1.485099 -1.233268 -0.571997
O 12.14095 9.34822 3.24635 -1.443077 -0.015093 -1.277069
O 12.30895 6.08427 4.85987 1.057822 0.321058 0.045822
O 5.7616 8.8515 12.60515 -0.301315 -0.330782 -0.976505
O 8.32863 5.19371 2.95284 -1.129709 0.796526 0.470522
O 4.52984 12.51015 0.41745 -1.416203 -0.253289 -0.781787
O 12.35295 0.86068 8.86059 -0.204836 0.853294 2.653439
O 0.24789 4.65656 11.12015 1.847038 0.075705 2.01325
O 0.07263 0.31783 3.73907 1.048562 1.776628 0.190353
O 6.52649 1.75893 3.02739 0.726561 -0.374513 -1.025944
O 1.46385 11.87755 10.54535 2.038764 -0.640154 0.789722
O 3.74552 10.43815 5.7761 1.327066 3.207655 1.38301
O 3.36522 3.76318 9.04083 0.878182 -0.833041 1.253238
O 5.593 3.13917 5.10486 0.24025 1.356407 0.176827
O 4.68847 11.59675 10.77515 -0.178752 1.809546 0.279325
O 5.18895 6.01826 10.30565 1.767645 -0.956386 0.622517
O 10.58255 10.76255 7.68428 2.369803 -0.725808 1.233259
O 8.5258 9.78281 11.08565 -0.44275 -1.843118 0.526067
O 8.27521 6.77393 0.80082 0.229011 -1.114546 0.364694
O 8.51041 12.37775 11.89205 -0.647063 0.640755 1.460328
O 4.32676 10.08845 2.32425 -0.997103 -0.654629 -0.672559
O 10.55975 4.68318 1.43674 -0.037873 0.216762 -0.363213
O 7.74614 9.21749 4.2951 -3.439131 -2.354636 2.118092
O 7.92236 2.93744 0.80822 0.733794 1.163986 0.644037
O 7.0097 12.15855 1.46058 0.39495 -1.211169 -0.686355
O 6.92101 11.82565 9.02096 1.871604 -1.101795 2.107658
O 4.82364 12.56615 3.98186 -1.695436 -2.028046 1.580687
O 10.67235 9.00533 0.83106 -0.39277 0.717562 -0.345263
O 6.03521 5.81315 5.28341 -1.255509 -0.473738 0.870977
O 5.90744 4.18184 12.56235 -0.59374 0.544083 -0.121873
O 4.75805 4.93118 2.1364 0.032434 0.523507 0.69638
O 0.80915 10.76985 8.17517 -0.308274 1.688352 -0.482693
O 8.60469 0.87393 9.66202 0.264285 0.711069 -0.550401
O 9.76015 6.95319 7.96517 -0.132743 -0.04141 -0.232212
O 10.79895 5.10191 9.50468 0.211341 -0.463112 1.184243
O 12.77865 10.15405 12.62305 1.170282 1.031395 0.506137
O 7.29742 3.60565 9.98492 0.505103 1.588318 0.704093
O 1.19729 0.05193 6.296 1.65356 1.083889 1.746792
O 10.18395 2.76158 12.00245 -1.153892 -0.616408 1.553117
Na 10.48475 4.27503 3.80826 -0.239702 0.180881 0.121064
Na 0.76221 1.02538 12.65585 0.025337 0.027675 -0.060202
Na 10.27215 0.29473 7.93235 0.253086 0.065297 -0.160994
Na 5.24598 2.23999 9.43307 -0.17906 0.221121 0.153828
Cl 8.20897 6.62379 10.72935 0.217758 -0.258484 -0.145443
Cl 2.32412 8.31377 4.12111 -0.322023 -0.534399 0.054714
Cl 2.34979 3.10498 6.19835 0.15628 -0.141426 0.163182
Cl 1.56749 12.06665 1.47695 0.174383 -0.307233 -0.148917
200
energy=-1088.47301853 config_type=nep2xyz pbc="T T T" virial="-12.21489 2.26273 -2.54567 2.26273 -18.89058 6.94286 -2.54567 6.94286 -11.29588" Lattice="12.961640358 0.0 0.0 0.0 12.961640358 0.0 0.0 0.0 12.961640358" volume=2177.6089920844797 Properties=species:S:1:pos:R:3:force:R:3
H 1.8813 8.77213 9.84138 1.216401 -0.731495 0.047566
H 2.21067 7.30524 10.11827 -0.226817 -0.541027 0.124118
H 11.30087 1.3949 9.80958 -0.317736 -0.144197 1.295995
H 11.99547 1.81593 8.58592 0.119499 0.174876 -0.482068
H 2.17519 6.25337 12.86137 -0.026082 0.042387 0.586161
H 1.35673 7.56439 12.90717 -0.430469 0.565192 -0.361045
H 11.17177 7.76785 8.43367 -0.985595 0.742729 0.118974
H 10.07877 6.80537 8.05392 -0.886124 -0.275933 -0.066918
H 0.26464 3.03042 12.31557 0.014732 0.082782 -0.369645
H 1.10673 1.89552 11.61867 -0.084803 2.061831 -0.070133
H 8.85123 2.35411 6.99116 -0.598859 -0.86053 -0.77141
H 9.87463 2.46018 8.1477 -0.195252 0.322224 -0.65541
H 8.13406 7.71648 5.73071 0.428303 1.053662 1.209427
H 9.1343 8.18507 6.83717 1.407809 -0.229508 0.753158
H 7.63607 10.25187 6.87354 0.218387 -1.068321 -0.204676
H 7.15715 11.66347 7.13747 0.546657 -0.666041 1.12341
H 11.92387 12.88797 2.53966 -0.227512 -0.578925 0.289848
H 11.05937 1.00772 2.99439 -0.65062 1.331098 0.31579
H 9.95724 12.02787 4.30604 -0.653799 -0.167899 0.024762
H 8.58946 11.35687 4.87878 -2.51639 -1.18118 -1.460341
H 7.34657 0.44848 10.69477 -1.349289 -1.541499 -0.543422
H 6.04574 12.42067 10.71047 0.85155 0.313318 0.055312
H 9.74241 12.44457 12.63847 -0.127607 1.36296 -0.6504
H 8.85838 0.66319 12.03287 1.517672 -0.455641 0.124352
H 4.71795 8.20181 0.99113 2.8486 -0.012748 -1.229256
H 3.41562 7.69768 1.16762 -1.264832 -0.179491 -0.12572
H 2.2915 3.91354 12.34057 0.777124 0.696171 -0.161296
H 3.5806 4.72356 11.85307 -0.248899 -0.338086 -0.282429
H 11.31317 8.75574 1.51479 0.125864 1.31562 -0.654015
H 11.63097 9.99457 0.51806 0.18556 -0.539122 -0.524703
H 11.36997 5.94905 3.10632 -0.629521 -0.010776 0.203218
H 11.05197 6.65396 1.75171 -0.030854 -0.311485 0.47841
H 5.87002 8.90714 11.41287 0.221977 -0.343167 0.817154
H 4.91086 9.9495 10.83877 0.886763 0.224727 -0.030392
H 5.64123 2.94801 5.10504 0.282397 -2.143836 0.248426
H 4.69996 2.22966 5.96081 -0.019101 -0.691273 0.333219
H 5.16327 11.37967 7.87341 0.314194 -0.093667 0.023463
H 3.76472 11.89057 8.32651 0.734999 -0.633451 0.200235
H 4.64878 3.34687 8.54445 -0.253536 -0.213764 0.323908
H 3.6659 4.12526 7.64751 -0.240663 0.433145 -0.015356
H 11.61757 1.59422 5.68661 0.696815 -1.202015 0.636144
H 11.86797 0.26695 6.62113 -0.282503 0.740593 -0.44865
H 2.98956 11.23377 6.72406 0.896355 -0.04535 -0.023285
H 1.72822 10.93237 6.05311 -2.788521 -0.294391 0.041121
H 5.54612 9.51263 4.05654 -0.684904 -2.407993 0.71042
H 4.76547 8.39158 3.383 -2.267936 -0.999883 -3.800391
H 9.0236 7.94167 11.42847 -0.328364 0.637258 -0.104746
H 9.50844 7.89011 9.98813 1.160381 -0.480921 -1.63793
H 2.46378 1.63898 4.87457 0.663037 0.64224 -0.194677
H 1.34781 1.1144 5.64595 -0.620891 0.077892 0.709112
H 4.09316 4.69071 0.75316 0.866339 0.534926 2.170705
H 5.50553 5.18919 1.55507 -1.172297 -0.81482 -0.014159
H 9.77299 2.3865 4.14749 -0.656287 -0.111633 -0.216331
H 10.41247 3.7132 4.68991 -0.222404 -0.473105 -0.399079
H 3.31357 10.08587 1.09606 1.043275 -2.108107 0.092821
H 3.34582 11.43707 1.96111 -0.855042 -1.174228 -1.00188
H 12.93587 8.8768 9.03971 -0.146467 -0.186887 -0.16943
H 0.23397 8.91829 7.52476 -0.149907 0.641053 -0.720434
H 6.17272 7.05998 12.08797 -0.157743 -0.055622 1.086621
H 7.04261 8.00713 0.05176 -0.392081 -0.23204 0.196816
H 3.90235 5.98936 4.49618 -0.96471 0.467362 -2.272398
H 3.95432 5.7288 2.88178 -0.617331 0.093042 0.472021
H 4.55715 8.15385 5.72219 1.181911 -0.262666 -1.76383
H 3.61271 8.94694 6.4375 -1.497145 2.52604 0.072954
H 3.45986 12.87177 3.41215 -0.360137 -0.137604 0.401801
H 2.85147 11.62057 4.3322 1.255333 0.658027 -0.790692
H 8.17232 3.57127 8.56549 2.23388 -0.763683 -1.649384
H 6.68544 3.59163 8.59466 0.712164 0.43255 0.746123
H 0.05554 6.00535 10.34727 1.158058 0.213979 -0.203561
H 0.99238 4.85205 10.48487 0.52989 -0.318671 0.400415
H 10.15887 11.81857 8.0746 -0.140774 -0.118165 1.119317
H 10.00557 11.65727 6.54488 0.0316 0.06557 -0.485659
H 10.90697 6.93412 11.90667 2.060279 0.090199 -0.146439
H 12.28157 7.75188 11.68007 -0.756025 -0.417182 -0.035996
H 7.91346 5.87309 1.23323 -0.437805 -0.027217 -0.316151
H 7.66078 5.56936 2.66778 -0.860326 -1.022303 -1.55205
H 1.90896 2.01497 2.19843 -1.648825 0.194209 -0.646036
H 3.25524 2.74411 2.31444 0.506905 0.614468 -0.292212
H 1.20565 11.73097 0.54679 2.35366 -1.708749 -0.341926
H 12.81857 12.06487 12.74957 1.170591 -0.110883 0.92388
H 10.61617 3.15256 0.63864 1.154785 0.93203 -0.395644
H 11.37777 4.54876 0.82115 0.347385 -1.219638 -0.377776
H 3.78112 11.60477 12.75697 0.247042 -0.016446 -0.392739
H 3.96136 12.63497 11.59637 -0.098093 0.377121 -0.085343
H 6.0368 6.25021 10.32807 -0.009255 -0.578241 -0.519335
H 5.72956 4.83415 10.97757 0.225092 0.335773 -0.248491
H 0.23475 6.78201 5.36004 0.620158 -0.047714 0.451002
H 1.689 7.55209 5.63654 -2.991225 -0.232182 -1.16875
H 10.00447 12.17517 1.81185 0.421061 1.908163 1.191789
H 10.12367 10.82857 1.40155 0.01303 -0.915272 -0.210889
H 6.62779 10.93367 3.26832 0.093898 -0.136179 -0.116069
H 5.56527 11.70957 4.17851 1.697625 -0.663415 -0.033423
H 0.87295 1.76982 9.136 0.277454 -0.346392 -0.7899
H 0.88252 3.15922 9.48752 0.02043 1.052949 0.881554
H 12.41327 3.10443 1.68961 0.64902 -0.023078 0.401097
H 12.19297 2.71127 3.16454 1.743751 0.361176 -0.956812
H 8.37468 2.83932 12.85137 0.124987 -0.188732 0.740989
H 8.18286 3.60668 1.30056 1.179861 -0.841424 -1.11367
H 6.70118 5.23538 5.37998 1.194809 0.527005 -0.517582
H 5.62102 4.75187 6.293 -0.383376 -0.403887 0.387769
H 7.41056 8.96537 2.52538 -0.580053 0.553904 -0.473577
H 8.04816 10.15467 1.87811 -0.203304 0.431253 -0.395219
H 3.526 1.20724 8.93593 1.656244 1.84688 1.147459
H 2.6493 1.04724 7.62782 0.632128 -0.102789 0.711943
H 2.64005 6.4141 7.24974 0.499191 -0.133071 -0.473548
H 2.01173 5.64189 8.30759 -1.153347 -0.05091 2.081452
H 9.89544 12.17437 10.41137 0.904511 -0.959257 0.214789
H 10.79277 10.81447 10.03137 1.021855 0.104293 0.707367
H 7.08036 7.59352 7.85911 1.278554 0.765181 -1.713319
H 7.49926 7.05783 9.25281 -0.173479 0.468243 -0.632062
H 0.04667 12.40557 9.99334 -0.496187 0.150108 -0.303781
H 1.32448 12.25177 10.63217 0.529675 0.354528 -0.128451
H 1.18627 3.86783 3.84648 -1.132026 -1.020245 -0.167554
H 2.20136 4.77156 4.21638 -0.429602 0.140281 1.381878
H 12.13487 11.01457 6.78358 0.354804 -0.446837 -0.129728
H 12.54877 10.01397 5.69126 -0.648167 -1.104287 -1.80847
H 9.28721 5.66435 6.11269 0.216764 0.346311 0.113347
H 9.43724 4.60361 7.17669 0.028939 -0.921117 0.545156
H 6.51939 2.42825 11.58227 1.636098 -0.415145 -0.659548
H 7.73151 2.77685 10.63537 -0.165462 0.767796 -1.099775
H 1.85528 10.15047 2.58469 -0.333678 0.035565 0.198154
H 0.39032 9.77268 2.25223 0.862785 0.13819 1.595529
H 12.58447 6.48232 7.68985 0.621586 1.636258 0.664025
H 11.37887 5.73877 7.16891 -4.962167 0.255986 -0.974258
H 8.0036 0.14191 5.94404 1.385548 -0.090506 -1.403002
H 6.69986 0.99126 6.148 -1.197 1.204742 -1.098914
H 7.77193 0.83198 3.14747 -3.365778 -3.99949 0.387445
H 8.33417 1.84585 2.18162 0.519889 -0.521751 2.317882
O 2.63855 8.11868 9.83539 -0.838167 1.140687 -0.084835
O 11.17447 1.38623 8.87142 -0.389225 0.249319 -0.659188
O 1.95667 7.04074 0.46448 0.152443 -0.839123 0.126511
O 10.17257 7.6947 8.44835 1.989206 -0.330799 -0.332725
O 0.98713 2.91086 11.65847 -0.217128 -1.975649 0.503865
O 9.27315 2.99715 7.54039 1.503352 -0.47445 1.176648
O 8.25637 8.32443 6.52467 -2.071768 -0.752873 -2.092531
O 7.44509 10.81427 7.62201 -0.78414 1.715473 -0.678986
O 11.07137 0.06408 3.00774 1.073479 -1.033247 -0.700738
O 9.39224 11.76127 5.05877 2.66681 1.491017 0.834613
O 6.96818 12.51987 10.38087 0.385222 1.124691 0.588417
O 9.79408 0.29852 12.03277 -1.417014 -0.772896 0.442303
O 3.94692 8.44804 1.44875 -1.222121 0.555568 1.36118
O 2.87509 4.71559 12.51767 -0.405558 -0.459395 -0.04527
O 11.66987 9.68282 1.4279 -0.151487 -0.865709 0.923817
O 11.75187 6.18728 2.25867 0.445774 0.373551 -0.865588
O 5.77619 9.50769 10.66407 -1.116675 0.38109 -0.743926
O 5.4314 1.96578 5.37439 -0.092795 2.751291 -0.460945
O 4.31295 11.05627 8.18973 -1.131895 0.915083 0.125229
O 4.49953 3.64168 7.63377 0.553188 -0.213003 -0.154234
O 12.30167 1.01185 6.13796 -0.56347 0.630503 -0.279879
O 2.64469 10.88747 5.88924 1.642144 -0.057598 -0.23338
O 5.1934 8.53224 4.16497 3.123025 3.453042 3.19636
O 8.92669 8.372 10.55087 -1.336678 0.164298 2.108464
O 2.13564 1.66517 5.78355 -0.295669 -0.661539 -0.212886
O 4.56131 4.82745 1.67355 0.406914 0.350768 -1.69425
O 10.60077 2.77858 4.45509 0.74051 0.359115 0.366124
O 2.95217 10.95087 1.13632 -0.347537 3.041537 1.031957
O 0.01125 8.31001 8.23427 -0.109007 -0.474621 1.017153
O 6.11816 7.74216 12.80407 0.393752 0.340438 -0.719587
O 3.39056 6.16311 3.62116 1.220667 -0.812459 1.640348
O 4.04808 8.13454 6.52132 -0.114387 -2.194677 1.896336
O 3.4512 11.90827 3.55435 -0.23584 -0.047815 0.459128
O 7.48404 3.8697 9.10902 -3.477945 0.550909 1.467312
O 1.00337 5.74399 10.12497 -1.525781 0.227047 0.032067
O 10.65097 11.80557 7.25848 0.928625 0.054265 -0.447176
O 11.90607 6.83941 11.75157 -1.289276 0.517719 0.037434
O 7.30487 5.28046 1.73463 1.236833 0.675801 1.841263
O 2.73416 2.02007 2.64144 1.285532 -0.974975 1.286787
O 0.42194 12.21297 0.58945 -3.54422 1.877319 -0.446583
O 11.52447 3.60928 0.49596 -1.724548 0.486194 0.47502
O 4.27983 11.78747 11.91567 -0.132947 -0.228198 0.093906
O 5.71262 5.79933 11.11717 -0.354285 -0.196405 0.015892
O 0.73487 7.5996 5.20219 2.487819 0.169973 0.764124
O 9.49055 11.55417 1.32183 -0.508837 -1.158874 -0.945301
O 6.49335 11.29517 4.17167 -1.885504 0.647097 0.152006
O 0.65494 2.63939 8.72936 0.088495 -0.955798 -0.201193
O 0.00043 2.8356 2.49782 -2.145823 -0.342656 1.090915
O 8.76668 2.90548 0.81127 -1.342079 1.252727 0.590106
O 5.92243 4.69844 5.37753 -0.921307 -0.108634 0.1193
O 7.15965 9.8095 2.07774 0.716042 -0.78615 0.650188
O 2.93332 0.65531 8.49234 -1.796038 -1.899511 -2.29123
O 2.44335 5.49425 7.48984 0.435058 0.247545 -1.316806
O 9.97349 11.29227 9.96606 -1.819309 1.087638 -0.645763
O 6.74388 7.24329 8.66025 -0.98288 -1.104313 2.304277
O 0.85921 12.91637 10.09647 -0.422343 -0.237292 0.619822
O 1.45689 4.2729 4.67857 1.203444 1.191888 -1.332044
O 12.90177 10.49087 6.40511 0.318532 1.382793 1.999108
O 9.55536 5.54841 7.06328 0.102665 0.711498 -0.345967
O 7.52616 2.28487 11.42877 -1.627487 -0.492199 1.517739
O 1.08268 9.71914 3.00912 -0.815142 0.115249 -2.001941
O 12.25427 5.67426 7.34854 4.610692 -2.082921 0.078348
O 7.24483 0.28886 6.4651 -0.135469 -1.044689 2.340091
O 8.35982 1.49919 3.17753 3.195277 4.618627 -2.625836
Na 0.6124 3.91728 6.75997 0.405377 -0.276643 -0.198748
Na 4.67741 8.20664 8.87916 0.153242 0.502291 -0.127308
Na 1.43975 7.52628 2.96427 0.153211 -0.415498 -0.045074
Na 7.92351 10.46807 9.88959 -0.371752 -0.187167 -0.08221
Cl 4.38629 2.42677 10.77687 0.309921 0.310695 -0.093735
Cl 12.78117 10.06667 10.97557 0.023626 -0.404751 -0.040586
Cl 9.12619 5.76325 4.2282 -0.117918 0.082394 -0.137481
Cl 9.04756 7.64455 0.83195 0.747636 -0.125298 -0.314441
200
energy=-1089.46706372 config_type=nep2xyz pbc="T T T" virial="-18.19913 -4.48651 2.29484 -4.48651 -7.82132 2.98396 2.29484 2.98396 -16.63222" Lattice="12.614920616 0.0 0.0 0.0 12.614920616 0.0 0.0 0.0 12.614920616" volume=2007.4908095269313 Properties=species:S:1:pos:R:3:force:R:3
H 0.14627 12.51441 10.16206 -0.61657 -1.982398 0.230321
H 1.22891 0.77703 9.62185 -0.581859 0.172637 0.425718
H 5.44834 3.35923 7.08755 0.168508 -0.701696 -0.210515
H 4.31726 4.46988 6.78896 0.621885 -0.641886 -0.116129
H 11.57656 2.48722 6.81767 -0.055989 1.151084 0.291279
H 12.01366 1.15634 7.04344 0.391024 -2.769721 -0.110136
H 0.81166 4.8941 1.31466 0.118977 0.389566 1.724199
H 1.77193 4.87356 2.61366 -0.841712 0.383535 -0.512435
H 1.81665 9.55139 3.78834 1.438365 -0.301189 -0.123152
H 0.35833 9.24506 3.83024 0.555508 1.016757 -0.210033
H 10.26496 2.50586 9.74558 -0.119102 0.201738 0.211481
H 10.10866 3.70857 10.74286 -0.766361 0.606145 0.22243
H 7.4244 10.42346 12.19966 0.257217 0.246271 -0.100897
H 6.32916 10.89496 11.33376 -0.45895 0.347681 -0.050901
H 4.98839 1.56896 2.74789 0.763859 0.182675 0.290849
H 4.58671 1.11907 4.12737 0.465095 0.321644 0.024619
H 4.28259 6.24402 11.83296 1.81061 -0.48189 -0.289288
H 5.36082 6.25809 10.67296 0.076723 -0.380084 0.246996
H 2.57217 5.72589 6.58413 0.098055 0.243721 0.024176
H 2.79556 6.57833 7.93962 -0.478043 0.059393 -0.091879
H 5.77138 8.55863 0.85229 -1.05416 0.745454 0.859469
H 6.04158 7.49176 12.40786 0.461091 0.198444 0.600927
H 2.47743 7.37761 10.18796 0.947568 0.494096 -1.355118
H 3.71269 8.18165 9.6023 1.822591 0.775143 0.589218
H 5.57734 7.12683 8.58216 0.038895 -0.684128 0.161781
H 4.88211 5.69035 8.6229 0.655532 0.05747 -0.089643
H 10.18656 0.8627 8.26444 0.048573 -0.507886 0.188501
H 8.92607 1.56457 7.76541 0.148222 -0.846681 0.48818
H 11.07596 7.33598 4.66903 -1.505572 -0.503036 1.52211
H 10.63236 5.94763 4.95584 -0.480676 0.162174 0.525353
H 1.80786 4.7643 11.51576 0.044174 -1.119969 -0.75905
H 2.31478 3.34094 10.78026 -1.289622 1.366712 1.034693
H 8.24793 5.25609 11.84496 -0.945622 0.610352 2.011503
H 9.24688 6.04406 10.80156 -1.892667 -1.687771 1.159629
H 4.35269 7.54896 2.16975 -1.069564 -1.085542 -0.273342
H 3.07081 6.90905 1.55808 -2.014164 0.714846 -1.469803
H 3.05595 12.12486 5.15297 -0.796616 0.368218 0.634085
H 3.4071 11.46736 3.86709 0.698468 0.183924 0.004955
H 10.78026 4.05238 3.47387 0.913039 -0.061113 0.409038
H 12.22636 4.50029 3.25552 1.157259 0.735051 -0.852036
H 6.5961 1.38103 12.35946 -0.137211 -0.126518 -0.051872
H 8.08719 1.18031 12.18806 -0.541587 0.246463 -0.315033
H 2.34021 1.49431 1.72941 0.223443 0.186705 -0.133315
H 0.84309 1.35009 1.97065 -0.183495 -0.147552 0.31367
H 3.56034 11.38846 12.07666 1.939665 -0.632091 0.282898
H 4.56187 10.74046 0.46098 0.092553 0.09241 -0.603793
H 5.30896 10.55376 5.75764 -1.124479 -0.357698 -0.376662
H 6.53876 11.31496 5.90809 -0.221104 -0.463245 0.934038
H 5.28137 7.95313 4.02197 -0.120354 1.165145 -0.336864
H 6.42737 7.05876 4.57479 -0.659653 0.256347 -0.264622
H 0.05874 8.35631 1.91942 -0.307032 -0.537472 0.528168
H 0.19406 6.7405 2.29311 -0.711053 2.182597 0.848139
H 9.228 12.04396 6.11795 -0.633184 2.765504 -0.184312
H 9.42774 10.75696 5.47041 -0.095871 -0.491028 0.012892
H 9.40188 6.69965 2.24607 -0.62151 -1.5594 -0.090074
H 10.41866 7.78551 2.22606 -0.266932 0.088524 -0.043809
H 11.40186 5.21899 0.15985 0.351457 -1.0176 -0.35055
H 10.60266 4.11983 0.81096 -1.329199 -0.223809 0.821604
H 6.88773 5.03946 2.18396 0.164813 -0.046927 -0.209237
H 5.52615 5.71207 1.86326 -0.144376 0.325168 -0.041444
H 6.55525 9.39057 7.23711 0.162118 -0.742937 0.63881
H 7.23219 7.93525 7.31946 -0.417127 0.258977 0.135041
H 8.76066 6.53559 6.16232 -0.684801 -1.020634 0.192688
H 7.77627 5.28164 5.83773 0.436895 1.535229 1.277989
H 8.33138 8.30805 10.80576 0.946658 -0.74099 -0.847562
H 7.91306 7.94231 9.42564 0.327615 -0.024672 -0.407873
H 6.03997 3.85141 4.62436 1.979745 -0.212309 -0.626961
H 7.44282 3.70834 3.81277 0.203755 -0.15611 -1.933199
H 7.05467 10.37416 1.75777 -1.740908 -2.118351 1.147275
H 8.41147 11.03706 1.90389 -1.627942 0.453935 -0.875881
H 2.31161 9.35577 9.3161 0.274588 1.048483 -0.073672
H 2.12077 10.56336 10.27966 -0.484033 0.313883 0.817356
H 5.34508 3.63858 0.55584 -0.019696 -0.323551 -0.124639
H 4.77067 4.21072 11.89706 0.408658 -0.97755 0.426165
H 9.03797 8.20849 5.24941 0.164995 -0.017887 0.302192
H 8.91753 8.29099 3.76729 -0.228908 0.019251 -0.535155
H 12.23626 2.40939 3.63073 -0.677476 -0.308776 0.112669
H 11.32306 0.99133 3.43364 2.607892 1.27171 0.201527
H 11.40916 12.19136 0.57593 -0.806425 0.693392 -0.477357
H 10.06116 0.43705 0.66205 -0.870309 0.280206 0.908765
H 3.47603 4.82837 4.46624 -0.641528 -1.177937 -1.813213
H 4.25203 5.99284 4.97321 -0.131794 0.095644 0.212372
H 0.46248 0.42445 4.80178 -0.379389 0.408621 -0.766982
H 0.67972 11.45976 4.71723 0.282876 0.147465 -0.386758
H 3.41477 3.15872 8.35014 0.752959 0.677452 -0.519335
H 2.5681 1.95582 8.05278 -0.096543 -2.413663 -1.350388
H 8.52151 0.94066 2.15543 -0.177349 -0.711227 -0.274469
H 9.03596 2.24016 1.78173 0.266112 1.530001 -0.216918
H 9.27974 8.91233 0.44874 -0.321 -0.086869 0.337885
H 10.32636 8.1264 12.35226 0.927927 -1.304306 -0.10897
H 3.21252 1.91957 10.02136 -0.204504 -0.240836 -0.068026
H 3.96947 2.0255 11.35726 0.00487 -0.233386 0.278662
H 4.00041 3.39146 3.19066 0.642288 -0.950126 0.232669
H 3.93766 4.64504 2.2928 -0.59617 -0.492634 0.791182
H 9.50076 3.59651 6.6229 -0.765034 -0.194096 0.321469
H 8.05782 3.15092 5.97006 1.096628 -0.009118 1.609574
H 5.8344 9.1806 9.30102 -1.51226 -0.487227 1.865489
H 5.02504 9.44129 10.79426 0.51252 -0.479648 -1.40485
H 12.08516 11.18356 8.94937 -0.151912 -0.343109 0.288617
H 11.36456 10.83926 10.26336 -1.609563 0.409203 0.524995
H 10.74826 11.36196 7.01757 0.03581 0.26929 0.285793
H 12.25286 11.60586 6.65318 -0.5894 0.474105 1.028942
H 4.76378 0.21881 0.47257 1.604759 0.880354 0.844022
H 5.99155 12.56353 1.37131 -0.114646 0.619736 -0.351741
H 11.34366 4.45958 5.824 0.141335 0.195728 0.952922
H 11.30276 5.12801 7.3274 0.654111 0.668847 0.465814
H 12.06416 8.97739 9.62163 0.978844 1.649809 -0.100223
H 10.82836 8.16193 9.71404 -0.375758 -0.186619 0.20027
H 4.74839 0.63166 9.70902 0.941417 -1.619227 -0.565558
H 4.72311 11.69856 9.56631 0.896116 1.118823 -0.819724
H 6.43956 2.80932 10.36236 0.202788 0.343748 -0.203444
H 6.56947 2.13733 9.04953 0.141778 -1.453049 -1.428654
H 2.2916 11.77126 8.07907 0.75653 0.298555 0.897717
H 2.20434 12.42376 6.78636 0.285384 1.002586 0.699343
H 10.18766 12.33436 11.31546 -0.651505 -0.215517 -1.003005
H 9.26494 11.15076 11.12126 -0.148691 0.497555 -0.742914
H 0.41399 6.03232 8.17593 -0.287692 -0.886866 0.151637
H 11.90716 6.64445 8.87603 -0.408355 0.381321 0.761812
H 6.2742 1.1586 6.16896 -0.057693 0.140617 1.022675
H 5.54346 0.67921 7.45124 -0.77383 -1.075603 0.506223
H 1.17515 10.87466 0.5186 1.084123 0.92682 -0.720469
H 1.70171 12.32956 0.27785 -0.222615 0.942743 0.388285
H 11.33396 9.97222 0.66717 -0.14144 -0.137451 -0.087646
H 11.43376 10.84796 1.95123 0.404217 -0.48117 -0.087086
H 6.7105 0.50887 4.04594 -1.016856 0.492754 0.328904
H 7.97611 12.49985 4.14491 3.422683 -1.423499 -1.626231
H 12.03506 7.38857 11.25956 -0.143691 0.148482 -1.071518
H 0.03962 6.98953 12.53216 1.787506 0.024198 1.090067
O 0.37323 0.80891 10.10166 1.183596 2.069074 -0.258764
O 4.83959 3.98563 7.47578 -1.395928 1.196522 0.132052
O 12.08796 1.9849 7.46121 -0.273296 1.644995 0.15881
O 0.89228 5.2246 2.26895 0.594641 -0.930956 -1.239109
O 0.99359 10.01306 3.81896 -1.944579 -0.93309 0.241156
O 10.73696 3.11362 10.33856 0.834514 -0.901894 -0.503436
O 7.27101 10.70006 11.27536 -0.023107 -0.507794 -0.032543
O 5.18517 1.79053 3.69882 -1.30876 -0.850195 -0.637319
O 5.25545 5.95775 11.61096 -2.029665 1.010018 -0.023816
O 2.18353 6.00376 7.43506 -0.311779 -0.182192 0.337843
O 6.48699 8.11287 0.43015 0.760063 -1.059569 -1.414898
O 2.9126 7.7538 9.33641 -2.884868 -1.548838 0.532097
O 5.67433 6.1959 8.89215 -0.214587 0.601441 -0.047173
O 9.22214 0.77358 8.32779 -0.422052 1.888827 -1.039142
O 10.44526 6.84098 5.31224 2.286213 0.413833 -2.185233
O 1.52953 3.88588 11.09616 0.770661 -0.506661 -0.372454
O 8.71183 5.19805 11.04536 2.740946 0.769475 -3.399004
O 3.86368 6.68589 1.97423 3.029974 0.213906 1.72888
O 3.80457 12.00806 4.58063 0.320178 -0.35021 -0.877848
O 11.68606 4.05662 3.90913 -2.329464 -0.318259 0.386841
O 7.28128 1.35322 11.66346 0.394405 -0.109893 -0.318796
O 1.51195 1.34661 1.26417 -0.384639 -0.04792 -0.155193
O 4.58269 11.20156 12.19066 -2.399105 -0.047914 0.388332
O 5.91521 10.75966 6.46232 1.530906 0.754312 -0.595732
O 5.50484 7.05725 4.23927 0.886137 -1.277221 0.846603
O 12.34936 7.66935 2.55068 0.960023 -1.486694 -0.98668
O 9.37116 11.16366 6.35178 0.10078 -2.616067 0.003978
O 9.44308 7.64249 2.18163 1.111343 1.357897 0.182048
O 11.44566 4.25031 0.40155 1.218177 1.086783 -0.773109
O 5.9495 4.86295 2.03766 -0.407599 -0.390665 -0.110973
O 6.75555 8.59717 7.86133 0.140988 0.557286 -1.105009
O 8.00922 6.00302 6.53421 0.103179 -0.517968 -1.348608
O 8.66982 7.77658 10.02016 -0.956233 1.145897 1.071829
O 7.04477 3.84577 4.64794 -1.853857 0.567631 2.795546
O 7.52 11.08346 1.39288 3.201087 1.596552 0.148734
O 2.37114 10.36266 9.38607 0.22525 -0.867619 -0.915404
O 4.88476 3.32533 12.36226 -0.195102 1.273127 -0.491811
O 8.52603 8.65984 4.5793 -0.312732 0.354404 0.124405
O 12.28696 1.43309 3.51066 -2.02698 -1.203997 -0.351636
O 10.85546 0.29728 0.1526 1.963404 -0.770037 -0.304931
O 3.59152 5.31296 5.26101 1.020185 1.313965 1.574763
O 0.92431 12.28646 5.17812 0.488637 -0.66923 1.316344
O 2.55735 2.75471 8.52484 -0.524067 1.543347 1.658754
O 8.63795 1.48315 1.3616 0.088619 -1.180969 0.524187
O 9.97234 9.00248 12.40046 -0.476128 1.510803 -0.099281
O 3.45257 1.38937 10.81106 0.612936 0.538748 -0.23238
O 3.38808 4.048 2.87184 -0.261783 1.232565 -0.899536
O 8.64626 3.11153 6.81198 -0.447691 0.107806 -1.453519
O 5.11132 8.88339 9.96911 1.25783 1.127562 -0.058054
O 12.22046 10.80796 9.86884 1.206778 -0.192011 -1.11917
O 11.59016 11.76786 7.3881 1.232721 -0.480342 -1.100549
O 5.47053 0.71781 1.02961 -1.293032 -1.378553 -0.205072
O 11.00286 4.41406 6.74963 -0.569564 -1.347588 -1.895344
O 11.79336 8.08102 9.78883 -1.029965 -0.813437 -0.260095
O 5.29057 12.47606 9.26835 -2.101945 0.379982 1.560158
O 6.46549 2.99408 9.39831 -0.032216 1.528398 1.830709
O 2.62244 12.60996 7.67348 -1.32664 -1.123288 -1.361611
O 9.62671 11.90016 10.59296 0.824652 -0.480648 1.6954
O 12.17036 5.75009 8.61962 1.425377 0.326264 -1.182776
O 5.995 1.42565 7.07967 0.972596 0.752003 -1.568336
O 1.86817 11.42156 0.03324 -0.781345 -1.696417 0.139481
O 11.98536 10.41716 1.24792 -0.413278 0.464716 0.099082
O 7.29067 0.10299 4.7047 -2.612676 0.902611 1.516968
O 11.87346 6.84796 12.04166 -2.107468 -0.41662 0.313359
Na 7.47651 12.61076 9.59831 0.725028 -0.270875 0.595749
Na 12.01376 2.13019 12.04206 0.556723 0.359506 -0.374043
Na 7.6922 5.00737 8.71914 -0.362313 -0.393904 -0.004261
Na 0.39553 3.53735 9.00848 -0.1741 0.000737 0.212307
Cl 9.97218 11.81456 3.30228 0.165642 0.14513 -0.206792
Cl 2.22896 6.63756 12.06616 -0.005992 0.192251 0.132568
Cl 8.8692 4.42202 1.9728 0.522939 0.09444 0.603306
Cl 4.53067 9.65552 2.45265 0.06887 0.188882 0.022776
200
energy=-1090.19529708 config_type=nep2xyz pbc="T T T" virial="-21.01822 -0.86876 9.53711 -0.86876 -19.15971 2.64159 9.53711 2.64159 -12.95338" Lattice="12.921199799 0.0 0.0 0.0 12.921199799 0.0 0.0 0.0 12.921199799" volume=2157.289978180812 Properties=species:S:1:pos:R:3:force:R:3
H 2.23086 1.901 5.83926 -0.055795 -0.387121 0.153947
H 1.98663 1.53792 7.30369 0.521555 -1.168705 -1.681184
H 5.89229 10.45984 3.61326 -0.354719 0.59315 0.521064
H 6.65164 11.79364 4.0562 -0.438203 1.056535 1.00409
H 12.48934 4.69122 11.67684 0.760726 -0.744147 -0.342449
H 0.7758 3.79108 10.97804 -1.525919 0.375623 0.627469
H 3.89066 10.32984 7.42271 -1.290476 0.688168 0.390668
H 3.38463 10.21364 6.03674 -0.522517 0.025065 -0.040124
H 9.77785 5.03819 6.76739 0.668838 0.047565 -0.00057
H 9.07383 3.67353 7.18031 0.286333 0.1109 -0.198603
H 7.74959 5.37471 8.21236 -0.601901 -0.740112 2.254876
H 6.49436 5.6149 9.12561 -0.860471 0.73625 0.135089
H 9.05978 1.1101 7.12513 0.700481 2.599672 0.969822
H 10.34534 1.96481 7.64073 -0.965642 -0.384029 -0.086576
H 4.30999 8.06649 11.96074 0.22809 -0.63619 -0.826791
H 3.69414 8.94639 10.87284 -0.135987 0.258893 -0.220238
H 5.03562 2.93116 11.48984 0.554981 -1.299823 -0.680134
H 5.97865 1.92514 10.70204 -0.659549 0.384725 0.020512
H 6.83582 6.93425 12.36924 -0.084602 0.375898 0.604637
H 7.64309 6.25394 11.27574 0.010241 -0.314705 -0.207593
H 7.49789 2.20126 8.67771 0.579396 0.422452 -0.243021
H 6.37108 3.37683 8.7104 1.2926 -2.328758 0.362658
H 4.60543 7.15362 9.64877 0.451469 -0.629398 0.393149
H 4.75998 6.93647 8.19932 -0.177901 0.481068 -2.040339
H 12.44514 9.52637 10.27534 0.780782 0.503564 -1.183518
H 0.03399 9.29635 8.75139 0.176312 0.263001 0.169456
H 12.33914 11.33874 11.60154 0.547844 0.673375 -0.46321
H 11.32664 11.11694 12.73414 0.390809 -0.717685 -0.889397
H 8.10205 8.44539 5.02946 0.803931 0.894261 -0.518563
H 8.0849 9.83536 4.31938 -0.140856 0.301899 -0.093151
H 4.66745 7.20694 1.24295 0.225879 0.173836 0.504063
H 3.44029 6.50997 0.64782 -0.083482 -0.214832 -0.581509
H 0.30666 7.90587 2.54045 0.305553 1.084006 -1.263675
H 0.30278 7.81947 4.07092 0.181224 0.180745 -0.147681
H 12.65854 1.47751 5.27742 -0.041805 0.160411 0.607817
H 11.73034 1.16071 4.04059 1.301676 -0.446684 0.772624
H 1.94334 6.37634 3.06014 -1.526354 0.862586 -0.924799
H 2.17363 6.24853 4.57913 -0.131441 0.023835 -0.240101
H 7.62618 8.17175 1.73889 0.276719 0.003754 -0.604792
H 7.75526 9.23804 0.66745 -0.297125 1.106564 -0.225326
H 9.57102 12.75604 0.61157 0.711267 1.22017 0.267252
H 8.93159 11.49824 0.65868 -0.246314 -1.181632 0.272438
H 2.15185 10.30104 11.63414 0.834894 0.232902 0.439049
H 1.7229 10.05654 10.24874 0.393996 -0.018061 -0.63215
H 8.31145 11.33754 8.57381 0.617229 0.957263 2.111751
H 7.3747 11.60304 7.33796 -0.136802 0.782408 -0.370822
H 4.36853 12.42884 8.9472 -0.310567 0.946803 0.706986
H 4.26992 0.71254 9.9794 0.50532 0.211602 1.312282
H 5.66907 3.49623 0.69714 0.407643 0.014169 -0.055626
H 4.17298 3.89112 0.95281 -0.761275 1.049843 -0.191943
H 1.41996 5.60907 7.02406 -0.330976 0.652991 -0.513149
H 1.09744 7.12211 6.57183 -0.033415 -0.355995 -0.017843
H 12.19294 6.80514 11.16574 -0.059062 -0.110216 0.836489
H 12.73064 7.52652 12.48784 1.288984 1.211145 0.743487
H 10.18904 11.94954 5.70485 -0.221847 0.128457 0.552719
H 9.1096 0.00899 5.06464 -0.369637 -0.038928 0.374323
H 10.38524 9.25244 7.30578 0.280899 -0.011998 0.3074
H 10.09844 9.62533 5.83561 -0.07573 0.072533 -0.083483
H 10.06024 5.18358 11.01124 -0.219478 0.167084 0.393697
H 9.06819 4.61826 12.16774 0.408711 0.876782 -0.761282
H 2.25377 4.25482 4.09352 -0.003769 -0.476383 -0.094025
H 3.26007 3.09666 4.20044 0.093192 -0.161438 -0.078226
H 4.47083 5.10551 10.17124 -0.198974 -0.56167 -0.199009
H 5.57194 5.11954 11.18984 -0.365459 -0.570742 -2.4e-05
H 5.97653 10.53234 8.81001 0.074038 0.112379 0.116008
H 4.74201 9.99114 9.50695 -0.285937 -0.312887 0.869228
H 8.57658 9.1272 11.02724 0.6417 -0.082598 0.735365
H 10.07554 9.64327 11.08124 -0.104988 0.167752 0.417746
H 6.98386 8.65602 10.04754 0.3987 0.578934 -0.040063
H 6.13506 9.03518 11.17484 1.012213 0.886956 -0.2522
H 10.24514 2.41862 2.0189 -1.008144 -0.831207 -1.102658
H 10.17094 1.78284 0.60702 0.765566 0.213168 -0.598709
H 12.06344 4.05429 1.5178 0.005425 1.520473 0.08362
H 11.99224 2.67473 0.99007 0.593808 0.204444 0.989738
H 9.82812 8.11963 2.88565 0.042625 0.324554 0.43628
H 11.35154 7.67079 2.91335 -0.085287 -0.06544 0.103028
H 12.73904 5.46305 5.94798 0.144355 -0.682582 0.433227
H 11.60264 4.84487 5.11533 -0.706296 -0.10902 -1.07814
H 4.30797 4.47247 6.4971 0.029572 -1.271742 -0.257522
H 3.2279 4.17093 7.4228 -1.104986 -0.317033 0.953448
H 1.49641 10.35684 3.18079 1.067967 -0.138912 -0.637745
H 0.04838 10.74584 3.40871 0.431827 -0.629595 0.506459
H 10.69584 11.43384 2.00867 -0.544014 -0.100684 -0.794462
H 10.80234 11.65094 3.49998 0.144116 -0.12246 -0.006917
H 12.35474 12.25874 5.60127 -0.378982 0.332138 -0.592374
H 11.85654 10.99704 6.56219 0.980569 1.308518 -0.711792
H 1.32166 12.12164 10.76704 -0.126084 -0.062161 -0.402839
H 0.65874 0.51966 11.01064 0.517174 3.429779 1.467801
H 6.94311 11.12754 1.94951 0.956791 -0.621241 -2.04104
H 6.58035 11.39684 0.37304 0.067308 -0.634072 0.024578
H 1.69118 5.02483 12.79324 -2.396732 0.116754 -0.157033
H 3.00035 4.63291 12.15084 -0.437647 1.037 2.160844
H 5.37756 6.54815 5.84933 0.162181 1.393479 0.397765
H 5.18342 8.06495 5.45597 -0.193669 -0.391617 0.613313
H 3.56024 0.68361 3.65624 -1.077993 -1.4554 -0.847226
H 3.12674 12.54474 2.57157 0.32822 -0.612043 -1.257146
H 12.19034 5.16716 9.50752 0.273616 0.349303 -0.850113
H 11.13284 6.4585 9.26565 0.315799 -0.791916 -0.087128
H 4.28327 11.41014 12.35704 -1.133941 -0.807897 0.64699
H 5.10985 12.55634 12.00854 0.321164 1.101401 -0.273459
H 12.32454 3.34032 6.36947 0.658045 -1.18353 0.872372
H 12.60724 2.35323 7.67237 0.043126 0.053438 -0.548671
H 4.28781 6.68376 3.30371 2.085907 0.853978 -1.066968
H 4.95628 8.04256 3.16127 -0.209903 1.284676 0.195187
H 3.57933 2.01223 0.68128 1.550482 0.842621 -0.029943
H 2.82315 0.8855 0.04626 -0.049669 -1.066745 -0.773919
H 5.76486 2.06597 3.74493 -1.343916 -0.291643 -0.086838
H 4.86994 2.62922 2.6054 -0.073215 0.258081 -0.790528
H 9.9069 8.21798 9.79454 0.584722 -0.271649 -0.843422
H 9.16682 7.88444 8.53643 -0.163323 -0.360087 -0.64033
H 1.62154 8.75667 0.78892 -1.712203 0.073511 0.192991
H 0.1608 9.31619 0.50682 0.335677 0.064558 0.21679
H 11.92724 12.88974 9.39225 0.316733 0.07697 -0.049621
H 11.75024 12.54814 7.89865 0.085693 0.53956 0.104794
H 7.23931 4.25727 6.25544 0.085861 -0.095466 -0.501537
H 6.86023 3.67501 4.89713 1.134051 -0.809059 -2.098057
H 0.73084 12.27094 1.18451 -0.422379 0.986012 -0.02554
H 12.31714 12.52034 1.89046 -0.678601 -0.465678 0.674949
H 8.88521 12.41114 10.68944 -0.470828 1.157457 0.945533
H 9.94768 12.12524 9.59074 -0.571795 -0.041646 0.517451
H 7.19748 2.48706 12.50804 -0.823449 0.63625 -0.401024
H 8.21977 2.79772 0.53843 0.993846 0.15557 1.300488
H 12.14294 1.14787 0.00365 0.322114 -0.078551 -0.208916
H 12.11144 2.63152 12.10734 -0.383519 -1.636116 0.061743
H 7.7638 9.31573 7.52113 -0.246839 -0.328822 0.44837
H 6.73751 8.12593 7.31331 0.054871 -0.207499 -0.106112
H 0.41338 9.41174 6.29202 -0.576578 -0.025622 -0.224066
H 1.68366 9.49878 7.09491 -0.545524 -0.662173 0.287551
O 2.26012 1.11044 6.42544 -0.206615 1.433211 1.195483
O 6.74089 10.95124 3.62769 0.70305 -1.529898 -1.495859
O 12.90522 3.78843 11.60664 0.801828 1.037768 -0.460153
O 3.02491 10.49004 6.93448 1.723133 -0.71146 -0.209723
O 8.93805 4.60697 6.8933 -0.948552 -0.166393 0.115262
O 7.32832 5.14729 9.13016 1.577881 -0.091897 -2.469645
O 9.3616 2.02642 7.51775 0.086324 -2.27253 -0.760034
O 4.41871 8.29242 10.98064 -0.27319 0.313026 0.950237
O 5.36795 1.97402 11.47124 0.180267 0.399966 0.034209
O 6.73463 6.44192 11.55604 0.064873 -0.269911 -0.332688
O 6.55236 2.34915 8.6974 -1.379311 2.191569 0.334675
O 4.9091 6.46308 8.9931 -0.343727 0.414686 1.645389
O 0.12451 9.86202 9.55026 -0.867776 -0.719161 1.041257
O 11.90934 10.63014 12.08114 -0.9529 -0.170343 1.253881
O 8.68374 9.10631 4.56657 -0.545831 -1.188906 0.607371
O 4.10911 7.18348 0.45107 -0.088319 0.287501 -0.146155
O 0.2168 7.29571 3.26305 -0.566484 -0.892588 1.200982
O 12.62154 0.9595 4.4448 -1.280465 0.102183 -1.055967
O 2.52263 6.00926 3.69351 2.041804 -0.994664 1.636112
O 8.02426 8.33827 0.85976 -0.250467 -1.400635 0.878431
O 9.85114 11.84894 0.70025 -0.883716 -0.18432 -0.613703
O 2.55486 10.29284 10.74134 -1.385596 -0.228464 0.13343
O 7.97859 11.00014 7.77025 -0.654338 -1.560222 -1.909892
O 4.08867 0.45424 9.09436 -0.162552 -1.076714 -2.132332
O 4.84078 3.24272 1.12835 0.364812 -0.444238 0.053599
O 1.13898 6.18803 6.23518 0.587252 0.432462 0.525993
O 12.22054 6.81128 12.15574 -1.287762 -1.497743 -1.29489
O 9.69897 12.18254 4.91507 0.539326 -0.247002 -0.981077
O 10.73764 9.76814 6.56135 -0.124072 -0.088524 -0.276716
O 9.55742 5.41659 11.82744 -0.543023 -1.309859 0.226844
O 2.30475 3.27139 4.16299 -0.108567 0.197524 -0.167115
O 4.86918 4.50098 10.82884 0.313968 1.19873 0.638396
O 5.02094 10.67224 8.90609 0.306926 0.289609 -1.20382
O 9.52772 8.8669 11.28704 -0.51431 0.190561 -0.662608
O 6.98874 9.36572 10.73384 -1.345944 -1.562224 -0.289949
O 9.6291 1.92519 1.39379 0.224859 0.749485 1.424907
O 12.29924 3.18777 1.80597 -0.540011 -1.682105 -0.795615
O 10.56194 7.78911 2.36195 -0.152646 -0.412391 -0.817647
O 12.06254 4.70163 5.92637 -0.014164 1.060489 0.356012
O 3.76458 3.69817 6.78215 1.336206 1.289031 -0.525052
O 0.82729 10.31114 3.85542 -1.699517 0.747069 0.258526
O 11.32354 11.32514 2.7322 0.410224 0.276332 1.394753
O 12.48304 11.81864 6.44303 -0.707274 -1.810033 1.162895
O 0.48965 12.62054 10.66464 -0.389965 -3.383859 -1.089244
O 7.25338 10.94724 0.93897 -0.858636 1.099271 1.907756
O 2.58368 4.96731 0.12214 3.016135 -1.22122 -2.015734
O 5.34166 7.47116 6.23136 -0.028702 -0.916176 -1.034809
O 2.87518 12.88114 3.41569 0.58013 2.506748 2.31046
O 11.45784 5.70386 9.83111 -0.75305 0.569485 0.487114
O 5.13349 11.60544 11.98094 1.005471 0.020473 -0.069175
O 12.57224 2.37971 6.70057 -0.688783 0.815812 -0.201877
O 5.16635 7.14326 2.92467 -2.18065 -2.026412 1.118522
O 2.78138 1.51954 0.739 -1.69237 0.07926 0.926244
O 4.82413 2.12613 3.43048 1.224604 -0.41611 1.537381
O 10.09464 7.91677 8.83474 -0.318342 0.408489 1.248893
O 0.63592 8.54589 0.88096 1.234287 0.159938 -0.475729
O 11.38084 0.19514 8.62249 -0.215774 -0.620737 0.067341
O 6.49636 3.9808 5.68405 -1.35826 1.196841 2.617793
O 0.04023 0.06791 1.35279 1.258438 -0.15036 -0.74515
O 9.18906 11.73924 10.11524 1.382645 -0.962577 -1.771799
O 7.50324 3.26065 0.09972 -0.244298 -0.610372 -0.762237
O 11.58514 1.77458 12.41644 0.269622 0.991691 0.131039
O 7.56814 8.36893 7.75635 0.234805 0.413493 -0.127827
O 0.81668 8.96289 7.04162 1.162011 0.30847 -0.077801
Na 5.05359 1.77727 7.16684 -0.360738 -0.119654 0.029159
Na 1.97138 11.88964 5.36066 -0.038882 0.252205 -0.039226
Na 9.87276 7.24553 0.02233 0.386974 0.569435 0.330309
Na 1.07939 1.82357 2.78372 0.392977 -0.251986 -0.241114
Cl 3.8517 9.94748 4.15664 0.648786 -0.679039 -0.064561
Cl 1.59774 4.63555 8.77149 -0.227507 -0.129974 0.425199
Cl 6.81147 0.42833 5.72997 0.227881 -0.041957 -0.112058
Cl 2.48934 11.00534 0.89402 -0.133355 0.132217 -0.275354
200
energy=-1090.601779 config_type=nep2xyz pbc="T T T" virial="-21.92994 -4.43207 0.51121 -4.43207 -22.09097 5.02908 0.51121 5.02908 -24.88674" Lattice="12.898513794 0.0 0.0 0.0 12.898513794 0.0 0.0 0.0 12.898513794" volume=2145.9471268562174 Properties=species:S:1:pos:R:3:force:R:3
H 10.35606 3.95488 11.19636 -0.058628 -0.407286 0.412039
H 10.10926 2.933 12.40936 -0.257569 0.303056 -1.175475
H 4.63691 2.27495 3.41209 0.546699 -0.276461 -0.130962
H 3.28665 2.78019 3.97529 0.625899 -1.53867 -0.80647
H 6.34169 5.58748 12.36176 0.270291 -0.599705 0.040356
H 5.70058 6.7501 11.62326 -0.207985 -0.128227 -0.327695
H 11.02216 7.33181 10.73196 0.574849 -0.163811 -0.838662
H 11.59586 7.6266 9.31689 0.618136 0.971019 -0.700138
H 10.68036 0.57611 3.99575 -0.092378 0.190894 1.184337
H 10.36466 0.09232 2.62881 1.167526 0.028496 0.727077
H 3.71479 7.76409 2.72053 -0.861188 -0.918251 0.0524
H 2.71228 7.16772 3.81592 -0.076784 -0.018462 -0.269995
H 1.40839 11.38706 9.49136 0.346196 -0.634496 0.477597
H 0.76411 10.04406 9.93665 0.630051 0.42263 0.10698
H 2.31658 7.16658 6.63595 -0.119695 -0.491869 0.662583
H 2.96675 8.1688 5.70126 -0.795272 -1.004427 -0.135771
H 2.87733 9.85865 8.94082 -0.4023 0.517259 0.205156
H 3.98465 10.11806 7.8418 0.31807 0.814443 -0.079828
H 6.79718 5.51725 8.27228 0.085917 1.780217 -1.393172
H 7.61044 6.84976 7.72758 0.736078 0.28522 0.569621
H 2.35638 2.49593 11.57746 0.367777 -0.032641 0.477722
H 1.49722 2.98974 10.50636 -0.501642 -0.071291 -0.556363
H 6.29989 12.24066 5.09308 -1.180524 0.023213 0.354184
H 7.76031 12.23046 5.03563 0.673583 -0.009013 -0.717985
H 6.0497 7.95947 2.41699 -0.604594 -0.05942 -0.682396
H 5.59952 7.77198 0.93577 0.056382 -0.455829 -0.920916
H 9.91025 5.6667 5.59645 -0.55302 -0.42589 0.136273
H 11.35286 5.55405 5.10383 1.45917 -1.261883 -1.765727
H 8.88535 6.14022 2.95695 0.774638 -0.531399 -0.552896
H 9.435 6.33304 1.55926 0.124353 -0.454084 0.313238
H 2.78761 10.99136 2.15327 -0.017321 1.220447 -0.089904
H 2.31081 12.59916 1.85184 -0.278527 -2.107222 0.316024
H 4.00508 5.64946 10.44586 -0.870395 0.345563 0.52914
H 5.28371 5.25302 10.02046 1.701244 -1.144362 -0.678419
H 9.63393 0.58672 0.86684 0.133146 -0.83489 0.550237
H 8.21267 0.44249 1.42094 1.818337 -1.777418 0.410324
H 8.11279 11.62006 8.30962 0.588451 0.801664 0.297319
H 7.25986 10.59326 7.67031 0.288134 -0.161333 0.312595
H 4.74216 1.32318 7.79074 0.057679 0.195497 -0.364268
H 3.95055 2.5783 7.23246 0.244076 -0.00447 0.782753
H 11.98956 5.51826 10.16856 0.055812 -1.283445 1.438406
H 12.49446 4.07332 10.06096 -0.288877 -0.051594 0.726718
H 9.75753 0.23031 6.32746 -0.60439 -0.957384 -1.806092
H 10.15256 11.86686 5.41002 -0.421757 0.253942 0.372365
H 11.40706 1.73892 1.37462 0.645172 0.189442 1.596834
H 11.58906 1.12647 12.88086 0.189349 0.654903 -0.117003
H 7.27207 1.92008 3.02726 -0.48795 0.351613 -0.245221
H 6.77675 0.53838 3.40735 -0.49029 0.017471 -0.083087
H 3.8082 4.57202 1.89603 2.615209 -0.93867 1.180549
H 2.91217 5.76008 1.9159 -0.111061 0.204137 0.218585
H 9.11137 7.8391 12.37656 -0.095202 0.270035 0.861029
H 7.74474 7.52398 0.16965 0.006759 0.061876 -0.170242
H 9.20872 2.2737 7.97749 -0.26066 -0.041151 -0.790978
H 10.40936 2.6134 7.02633 -0.793322 -0.448989 -0.305659
H 12.00706 10.11196 8.31998 -0.375569 -0.399215 2.63622
H 11.25776 10.58236 9.66184 0.430748 -0.089862 -0.427597
H 2.95083 1.88737 2.00846 -0.685351 -0.642918 -0.508247
H 2.00861 2.67919 1.14884 -0.31819 -1.278225 -0.212662
H 5.98763 8.03089 5.49326 -0.033986 0.421792 0.06859
H 5.20378 9.3868 5.60122 0.067987 -0.093685 0.013203
H 11.77716 1.89733 9.54452 2.389212 0.998298 -1.291639
H 12.70526 2.3957 8.19273 -0.449369 -0.408058 1.267628
H 11.74476 0.2799 11.16706 1.75403 0.297476 1.058669
H 0.36513 0.81865 11.27786 -0.027602 0.370797 0.452758
H 7.5846 9.16938 3.10207 0.420621 1.345435 -0.21377
H 7.18328 10.66806 3.25391 -1.67562 1.981295 1.625746
H 5.72462 3.428 8.64178 -1.547968 -1.56421 -1.265129
H 7.16542 3.56324 9.21355 -0.218437 -0.165521 -0.519667
H 4.32671 3.75216 11.73366 1.993864 -0.98166 0.207836
H 3.35664 4.51257 12.64296 0.027628 0.096273 0.281178
H 2.08413 7.38913 8.87435 -0.042386 0.921988 0.428006
H 1.41149 6.11544 8.35009 1.458302 0.61008 -0.579499
H 7.75259 5.0078 6.18428 0.1418 -0.628662 0.187194
H 8.88057 3.76594 6.3463 -0.780258 0.177773 0.252321
H 5.94063 5.61316 6.25855 0.887081 1.382716 0.137319
H 5.41263 4.94164 4.84572 0.471254 0.318541 1.443797
H 5.36392 12.00086 1.21347 0.183603 0.079231 -0.54338
H 5.89602 0.46491 1.29232 0.602367 1.481798 0.829031
H 6.02625 5.67358 2.94591 -0.610322 -0.097292 0.044193
H 6.55569 4.28103 2.87206 -1.666226 0.227318 0.426589
H 11.31576 5.98604 2.76615 0.183057 -0.109815 0.386231
H 12.65366 5.29321 2.5892 0.541255 -0.411929 -0.52594
H 1.93589 3.64324 6.20706 -1.311994 -0.539628 0.079189
H 3.09674 4.65142 6.00819 0.03917 -2.501938 0.787608
H 5.97514 10.20166 0.11549 -2.461674 -0.928532 -1.641207
H 5.59071 9.50601 11.62336 -0.396055 0.552518 0.444808
H 11.94956 11.66356 2.73992 0.65277 -0.646782 0.198786
H 0.54905 11.15356 2.43185 -1.536106 -0.497144 0.514585
H 11.26086 11.43586 11.88206 -0.286877 0.626066 -0.814588
H 12.09806 11.07646 0.14769 1.004138 0.268373 0.872414
H 8.32719 10.57646 10.98886 -0.023125 1.019735 1.086595
H 8.81977 11.92936 11.65146 -0.323292 -0.588001 -0.273584
H 8.4997 3.9607 4.18362 -0.44844 -0.263891 -0.65489
H 8.70743 3.9736 2.56104 -0.270143 -0.234643 1.267374
H 0.32808 0.1294 5.59439 0.657716 -0.926411 0.545316
H 0.02075 11.51926 5.98515 0.951534 0.936286 -0.431529
H 2.48486 8.25459 1.07663 0.045396 -0.594973 1.05977
H 1.10401 9.08605 0.95138 2.072842 -1.495306 -0.639031
H 5.83096 12.04006 9.20357 0.064112 -0.188477 -0.261989
H 6.09604 12.12336 10.78056 -0.629712 0.316352 -0.957435
H 11.25446 9.03292 11.97326 0.050354 1.662696 -0.364819
H 11.59246 7.90174 12.86386 -0.761295 0.031665 -0.362539
H 9.44573 7.58239 9.69362 1.190786 -0.478913 -0.20227
H 8.82634 8.76016 8.86464 -0.01268 -0.504119 0.469321
H 12.28616 4.31013 0.36003 0.812144 0.123847 -0.127514
H 0.8316 4.92477 0.51272 0.164715 0.361445 -0.466579
H 4.42274 10.76256 3.50146 -0.485898 0.681147 -0.250049
H 4.92148 9.81191 2.46698 0.350452 -0.914924 -1.129961
H 11.72626 7.54282 5.68584 0.283689 -0.365489 0.204412
H 0.40911 7.77352 5.79055 -0.286893 -0.004278 -0.044575
H 3.86448 11.22256 5.98931 -0.499341 0.395966 -0.296018
H 2.56815 11.50366 5.13042 -1.150716 0.79076 0.235247
H 6.94418 8.47771 10.27906 0.472263 -0.387352 -0.163476
H 6.4939 9.6198 9.38933 -0.163481 -0.061166 0.646569
H 12.06016 9.01333 1.81508 -0.449898 1.379636 1.002476
H 12.33876 7.46385 2.13278 0.397739 0.52583 -0.382826
H 4.56204 0.1154 12.57056 -0.484573 0.21709 0.367031
H 3.10302 0.80716 12.79876 0.62202 -0.472425 -0.191231
H 7.94128 3.68548 11.89156 -1.173194 0.016221 0.415626
H 6.82099 3.64123 10.90106 -0.529139 0.13398 0.902753
H 8.95375 2.18501 10.17956 0.395454 -0.30298 1.702265
H 7.53977 1.52661 9.66818 -0.556211 -1.159577 0.955596
H 11.91246 5.63182 7.17066 0.838366 -0.11023 0.687451
H 12.75826 4.3506 7.19972 0.050835 0.738979 0.682569
H 11.86036 9.63295 5.76027 0.389852 -1.117807 -0.101327
H 11.72526 10.59436 4.50151 0.407411 -0.399772 0.144207
H 0.63119 0.53591 8.93532 0.152363 0.251761 -0.089698
H 1.30585 12.66586 7.71427 -0.36255 -0.027725 0.733792
O 9.67824 3.35016 11.59636 0.655641 -0.05103 0.664975
O 3.70403 2.03302 3.43168 -0.915709 1.743761 1.104263
O 6.29157 6.54997 12.36236 0.24033 0.799563 0.666249
O 11.09566 6.96886 9.77297 -0.822953 -0.644751 1.609258
O 11.16366 0.21128 3.25963 -1.399648 -0.167814 -2.099767
O 2.86637 7.2445 2.85182 1.089925 0.733965 0.013681
O 1.63279 10.52016 9.99406 -0.640708 0.249496 -0.066162
O 2.43251 7.32314 5.68599 0.818478 1.684373 -0.574044
O 3.37328 9.48021 8.19836 0.150672 -1.613447 -0.071888
O 6.79986 6.35783 7.64404 -0.989156 -2.086877 1.047498
O 1.81708 2.15574 10.85756 0.408223 -0.340965 0.161971
O 6.98565 12.14306 4.43374 0.453485 0.032785 0.525764
O 5.3453 8.20816 1.74428 0.18068 0.185525 1.862286
O 10.80126 6.0383 5.66574 -0.984136 1.401933 1.496141
O 9.54042 5.70666 2.31781 -0.750392 1.378145 -0.060766
O 2.05346 11.61696 1.91224 0.088131 1.017641 -0.436503
O 4.83483 6.06443 10.18436 -0.958047 1.055998 -0.178251
O 9.10317 12.80516 1.39615 -1.849434 2.436962 -0.903676
O 7.89647 10.69806 8.41413 -0.86887 -0.824701 -0.692318
O 4.43619 2.21885 8.02999 -0.126156 -0.131258 -0.235223
O 12.19436 4.69777 10.77046 -0.24556 1.038552 -2.061913
O 9.49033 12.59496 5.50018 0.883361 0.675364 1.703344
O 10.97776 1.69907 0.54088 -0.807186 -0.382952 -1.452711
O 6.52305 1.31045 2.8309 0.948509 -0.02759 0.210414
O 3.01327 4.86435 1.53309 -2.256895 0.67537 -1.484131
O 8.58619 8.0067 0.29572 -0.047955 -0.313136 -0.421119
O 9.43429 2.39444 7.01365 1.392474 0.204705 1.020086
O 11.90656 9.92006 9.33072 -0.150393 0.462101 -2.343372
O 2.2721 1.72055 1.25585 0.940769 1.757171 0.605369
O 5.56905 8.6574 6.12064 -0.098385 -0.313154 0.189483
O 12.69756 2.27399 9.22124 -2.327734 -0.853062 0.216108
O 12.55976 0.42351 11.83086 -1.565294 -0.636199 -1.503437
O 7.78125 10.12246 2.82143 1.68007 -2.994366 -1.605972
O 6.32425 4.04177 9.02632 1.955548 1.420555 1.278757
O 3.50348 4.18075 11.73366 -1.931413 0.948839 -0.066643
O 2.28569 6.65549 8.30547 -1.690145 -1.564059 -0.026984
O 8.52177 4.53874 5.82336 0.676426 0.400794 -0.717314
O 5.41736 4.94917 5.85198 -1.585175 -1.697138 -1.832408
O 5.75529 12.69796 0.6279 -0.317627 -1.674151 0.24431
O 5.64734 4.76492 2.93395 2.160518 -0.309092 -0.181874
O 12.26986 6.05954 3.02446 -1.08881 0.374827 0.184245
O 2.88213 3.6721 6.26066 1.412888 2.768012 -0.975927
O 5.1607 9.88033 12.44516 2.50675 0.752064 0.823156
O 12.48426 10.82256 2.66216 0.867527 1.047376 -0.621815
O 11.30846 10.81266 12.59916 -0.891248 -0.93353 0.075982
O 8.2479 11.14126 11.80806 0.129984 -0.602153 -0.932709
O 8.22885 3.53351 3.31534 0.29461 0.357241 -0.653431
O 0.77483 12.19836 5.9279 -1.334475 0.172447 -0.059849
O 1.98722 8.81572 0.50197 -1.907014 2.078182 -0.652577
O 5.56043 12.47876 10.02036 0.890395 -0.048255 1.666899
O 10.98006 8.13362 12.08546 0.706984 -1.635414 0.793806
O 8.62018 7.95191 9.38364 -1.336143 1.13507 -0.59619
O 0.20908 4.30779 0.88724 -0.874107 -0.600182 0.588138
O 4.52278 10.68136 2.52409 -0.125668 0.502155 1.183438
O 12.43676 8.01415 6.16019 0.185969 0.759976 0.045713
O 3.32404 10.94396 5.22027 1.546529 -1.479505 -0.500635
O 6.1695 9.02737 10.10346 -0.165938 0.206465 -0.661672
O 12.38896 8.20818 1.4531 0.145116 -1.692528 -0.505343
O 3.64668 0.23143 12.18966 -0.818544 0.184779 -0.273999
O 6.92263 3.70875 11.87796 1.527971 0.07035 -0.971722
O 8.30184 2.04962 9.508 -0.274296 1.985438 -2.544729
O 12.65666 5.21653 7.69651 -0.562366 -0.439938 -1.107117
O 11.53096 10.48506 5.45389 -0.482101 1.507264 -0.183284
O 1.28269 12.73966 8.71325 0.390186 0.008859 -0.843428
Na 4.77768 7.49496 8.32346 -0.005744 0.194494 -0.126525
Na 8.95429 10.28146 0.96378 0.103604 0.19929 -0.173446
Na 2.92586 10.63176 12.26526 0.005053 0.068375 0.059742
Na 3.65504 0.66472 9.95009 -0.669016 0.299856 -0.093999
Cl 7.33422 7.35495 3.74492 0.056304 -0.483712 0.476173
Cl 10.22306 12.84696 10.06136 0.277073 -0.479619 0.035835
Cl 5.18185 12.02676 7.20348 0.397703 0.058154 -0.022323
Cl 12.75856 2.40243 6.34046 -0.175451 0.159694 -0.460605
200
energy=-1089.14953525 config_type=nep2xyz pbc="T T T" virial="-20.67409 -0.42329 -6.43765 -0.42329 -16.61896 -11.18898 -6.43765 -11.18898 -26.05674" Lattice="12.953371048 0.0 0.0 0.0 12.953371048 0.0 0.0 0.0 12.953371048" volume=2173.4438160599934 Properties=species:S:1:pos:R:3:force:R:3
H 7.18266 0.16624 12.29063 0.590351 0.534582 0.398513
H 8.52585 12.46133 12.32863 0.465638 -0.200701 0.282947
H 3.28963 3.58356 0.89542 -0.885048 -1.17128 3.028746
H 4.34322 3.24601 12.75103 -1.529965 0.632265 1.015672
H 9.1056 12.48383 4.93363 -0.809788 -0.179768 -1.120225
H 9.20465 11.18263 4.15984 -0.538483 0.92481 -0.822186
H 11.19593 8.98933 4.58697 -0.539473 0.915796 -0.41375
H 11.92363 7.91937 5.38399 0.27522 0.103196 0.280939
H 11.53983 6.69287 0.97853 0.091304 0.24203 0.782353
H 11.41403 6.55658 12.45653 1.345751 1.239552 0.842274
H 9.97353 3.19927 2.20237 -0.133218 0.64966 -0.077885
H 8.96268 3.32603 0.99011 0.288587 -0.038669 0.441889
H 1.68936 0.20711 9.38797 -1.194354 -0.730554 0.209325
H 3.00587 0.70122 9.97813 -0.048492 -0.12172 -0.299007
H 4.55557 6.85086 6.13792 1.66436 1.156309 -2.202257
H 3.66889 5.70265 6.51984 0.337433 -0.300417 0.165732
H 12.69953 10.33803 0.93162 0.27307 -0.395295 -0.078393
H 11.29343 10.85683 0.47393 0.406473 0.083708 0.990992
H 0.28526 6.72647 8.2287 0.035659 -0.693133 1.372007
H 11.84553 6.40644 8.8845 1.160305 -0.622102 0.315019
H 1.49884 0.50743 1.22047 -0.221782 0.053493 -0.469558
H 12.95153 0.42335 0.8953 -0.253783 -0.011717 -0.026053
H 1.10305 7.22058 6.2633 0.407802 0.610323 2.247698
H 2.4465 7.25719 6.98529 0.142499 -0.156503 0.881738
H 0.39916 5.33887 1.0612 0.093002 0.105444 0.309078
H 1.61499 4.96992 1.94763 -0.514471 0.415233 -0.246732
H 9.05027 7.06944 2.68031 -0.360243 1.360811 0.526355
H 7.69272 7.75477 2.44558 0.432676 0.404692 0.448951
H 3.0503 7.03171 0.6934 -0.263711 0.290763 0.262952
H 3.83799 6.45824 12.56423 0.499016 -0.237564 -0.400473
H 7.63171 9.55194 0.12837 -1.326939 0.317732 0.801656
H 6.2622 9.90323 1.02532 0.777022 0.306983 -0.41035
H 9.21279 3.42865 4.18418 -0.508666 0.065617 0.06789
H 9.26631 2.31285 5.1832 0.22094 -0.710196 0.682351
H 9.97783 11.41673 8.57157 0.143579 -0.152717 0.272985
H 9.06278 11.65043 9.88003 0.443958 -0.717658 2.887699
H 6.02181 2.3786 12.59863 -0.316555 -0.879293 0.191567
H 5.87184 1.29945 0.73744 -0.601638 0.227163 0.030729
H 1.0216 9.10698 1.68551 -0.057999 -0.330714 -0.717101
H 0.28479 8.28897 0.64645 0.07278 0.825484 -0.499125
H 0.13306 1.98087 8.57965 0.594782 0.66812 0.188097
H 11.90343 1.23453 8.10092 -0.327545 -0.357355 0.031507
H 5.45614 3.07892 9.6773 0.072393 -0.822519 -0.548222
H 6.65701 2.20686 9.41497 1.871419 -0.41719 -0.350633
H 2.32559 12.77833 3.09549 -0.401495 -1.349301 1.638405
H 2.61186 1.22538 2.62645 0.215262 1.04941 0.273496
H 5.8315 7.94684 1.59851 0.117599 -0.344126 0.045933
H 5.60956 7.74176 3.14045 0.4466 -0.309972 -1.82195
H 11.15403 10.13353 2.53895 -0.871549 0.056099 0.376205
H 9.83255 9.36798 3.138 -0.080958 -0.302457 -0.651062
H 5.2066 8.92557 7.96013 -0.830257 0.213799 0.083515
H 4.07379 9.90765 8.40197 0.33186 0.002825 0.043888
H 4.15138 10.44343 2.23052 0.433857 -1.961763 1.866686
H 3.87553 11.84543 1.95721 0.064514 -0.099337 -1.009202
H 5.45341 9.65215 4.52211 -1.098995 -0.451054 -1.744224
H 4.07746 8.89657 4.20363 0.820022 0.771081 -0.383317
H 11.59573 11.41773 7.0092 -0.3976 -1.70128 1.414644
H 11.36393 9.86775 6.7547 0.04785 1.189685 1.783515
H 7.01436 7.5521 9.46593 0.031448 0.235343 -1.349911
H 6.45761 7.19256 7.94588 0.935028 -0.26123 -1.125815
H 3.91167 6.5115 9.03225 -0.44579 0.338335 0.409209
H 4.09777 7.78142 9.80948 0.038107 0.190471 0.344267
H 3.5671 4.98433 3.78329 -0.950889 -1.805437 0.634451
H 3.91237 6.13536 3.01647 0.556666 0.566604 0.663763
H 2.41426 3.91106 5.34895 0.663733 -0.136435 0.734977
H 3.23444 3.19643 6.51891 0.580981 -0.904378 0.422606
H 9.7411 7.17489 9.40782 -0.024925 0.69209 0.435298
H 9.65509 5.98111 8.49876 -0.197384 -0.693938 -0.459831
H 11.12303 3.61527 6.11716 -1.617021 -1.758057 -1.096306
H 12.38993 3.84643 6.92032 0.39535 0.34016 0.417541
H 2.59963 10.34083 5.50114 -0.073993 1.098759 -0.389218
H 2.43592 9.01117 6.15543 -0.142075 -0.455363 0.362844
H 10.32753 7.55926 5.93021 -1.244514 -0.453319 -0.514474
H 9.48235 6.4997 5.00443 0.761056 0.495194 1.485301
H 4.196 0.91128 5.99461 1.096723 -0.263775 -0.370288
H 5.3743 12.75693 5.62796 -1.862754 0.914011 -0.991985
H 8.98357 9.55981 9.65997 -0.22748 -0.232031 -0.777637
H 8.87903 8.82596 10.89503 -0.091051 -0.467386 -0.13135
H 11.68653 12.43483 2.01253 0.397439 -0.886857 0.392789
H 11.74153 0.93893 2.83479 -0.242818 -2.016938 -1.035673
H 1.36714 4.06218 7.1894 0.758896 -0.500058 -0.331607
H 0.5157 4.75219 8.21596 -0.784655 0.354787 0.801281
H 6.69921 10.75203 6.13985 -0.741598 0.319716 -0.582186
H 7.20703 11.48333 4.96107 1.39354 0.736337 -1.328337
H 11.92833 1.02928 5.01485 -0.154844 0.143507 0.377403
H 0.08886 1.8359 4.20928 0.080387 0.300957 0.21987
H 6.63279 4.40038 11.57333 -0.151513 0.095319 -0.306501
H 6.70418 4.40207 0.14606 -0.360541 0.49428 1.401174
H 8.94417 2.32139 11.06553 0.226731 -1.016357 -1.083025
H 8.79126 3.47418 11.89353 0.549461 0.112134 0.099934
H 2.38163 3.73506 11.45983 -0.162294 0.490438 -0.438886
H 1.82522 3.48919 9.97783 0.190948 1.651196 1.440547
H 11.37903 12.46373 10.78833 -0.001537 0.034618 0.605675
H 11.69923 0.89993 10.46553 0.662194 1.270611 -1.317032
H 1.39725 12.35023 12.23263 -0.892177 1.628721 1.251589
H 0.86748 11.42123 11.12523 -0.569855 -0.103137 -0.020465
H 4.65286 5.4224 10.66953 2.062823 -1.092848 -1.129022
H 5.84796 5.90341 9.77972 -0.364467 -1.725048 0.376177
H 8.87104 1.98864 8.61974 -0.813852 -0.351859 0.979395
H 8.46244 0.62763 9.32461 -0.038969 1.559438 -0.295808
H 10.75603 4.45612 11.32483 0.390616 0.370357 0.555126
H 11.20853 5.55948 10.41433 0.266967 -0.220353 2.063048
H 5.5236 1.18109 3.68602 0.08052 -0.084006 0.085432
H 6.04874 2.49989 3.03752 0.126229 -0.331222 -0.186131
H 1.20978 7.3127 3.35584 -0.17451 -0.945956 0.207085
H 1.47745 8.76874 3.96621 -0.09454 -1.067016 -1.205991
H 7.16558 4.56542 2.66834 -1.776983 -0.026255 -0.466316
H 5.54498 4.92609 2.58716 2.038221 -0.868508 -0.350671
H 12.18423 5.56152 5.47885 0.929982 0.583451 -1.138291
H 12.10953 6.32573 4.09184 0.35209 -0.467312 0.444983
H 3.04169 12.73253 4.9105 -1.146242 -0.456762 -0.396478
H 1.47923 0.00351 4.51641 -1.847349 1.627754 0.43733
H 0.80826 9.08303 10.81903 0.786244 -0.165392 -0.782251
H 2.14868 8.73978 9.87292 -0.889388 0.084797 0.649164
H 6.03529 0.23205 10.17813 0.461079 0.587535 -0.972021
H 5.1613 0.03656 11.31663 -0.434335 0.199464 0.665066
H 12.10943 9.87255 9.67434 -0.294303 0.343966 1.161429
H 11.54733 10.01613 11.19463 -1.0935 -0.189001 0.178224
H 4.77258 10.75793 10.92413 0.099585 -0.286642 -0.264293
H 5.27126 9.54439 11.72073 -0.367323 0.042505 -0.472673
H 6.78108 7.21174 4.73568 0.533663 0.317548 2.018715
H 7.89986 7.28782 5.89265 -0.74386 0.058841 -0.400124
H 9.76661 4.64747 7.13628 0.290506 -0.047667 0.064479
H 8.42549 4.05225 6.84952 -0.152366 0.033092 0.255318
H 12.68173 3.85488 12.90583 -1.070295 -0.163003 0.628057
H 0.25938 3.11133 1.07915 0.287931 -0.721059 0.880583
H 4.5917 1.94941 8.01872 0.656086 0.07447 0.354012
H 3.12665 1.37239 7.88387 1.212961 0.720194 -0.380502
O 8.10194 0.34435 12.59833 -1.058407 -0.134847 -0.324763
O 3.57437 3.84257 0.06713 2.125905 0.474855 -3.979962
O 8.62476 12.00593 4.17736 1.862717 -0.25299 1.749444
O 11.29043 8.66657 5.50485 1.330676 -0.339529 0.310544
O 11.86973 7.17914 0.21589 -1.324312 -1.635619 -1.516699
O 9.34591 2.71629 1.64209 -0.064048 -0.223308 -0.616003
O 2.3988 0.80414 9.22716 1.052529 0.799318 0.311393
O 4.12919 6.49661 6.86986 -2.133101 -1.316297 2.072553
O 11.94543 10.89413 1.23036 -1.208484 0.328395 -0.780399
O 12.83653 6.18439 8.99225 -0.539816 1.591857 -1.624081
O 0.83839 0.65966 0.47943 0.473623 0.006489 0.087483
O 1.50278 7.48155 7.19096 -0.557153 -0.735867 -3.259923
O 1.22775 5.70623 1.40895 0.637937 -0.265763 0.190394
O 8.59103 7.95516 2.83208 0.149053 -1.708357 -0.732699
O 3.67969 7.31503 0.01277 -0.565158 -0.0458 0.359762
O 6.68074 9.32725 0.36095 0.144882 -0.291815 -0.510809
O 8.65377 2.70844 4.55887 0.098665 0.529663 -0.759371
O 9.15537 11.75143 8.97199 -0.566904 0.658176 -2.910988
O 5.4257 1.61831 12.87963 1.108268 0.69454 -0.32343
O 0.76902 9.16352 0.71176 0.348899 -1.034663 1.083926
O 12.53003 1.24862 8.84797 -0.423282 -0.232089 -0.361012
O 5.71726 2.189 9.30816 -2.051338 1.580195 0.7933
O 2.58803 0.31371 2.33624 0.907449 0.292905 -2.294017
O 5.95672 7.27292 2.29466 -0.498044 0.666758 1.345093
O 10.55483 9.98893 3.33465 0.460275 -0.071769 0.20357
O 4.31337 9.26317 7.72401 0.42155 -0.029939 0.059862
O 4.13977 11.01013 1.4936 -0.513747 1.831211 -1.018464
O 4.90114 9.2437 3.75082 0.041124 0.013284 2.273402
O 11.39853 10.56503 7.54562 0.293066 0.55592 -2.960878
O 6.27565 7.29969 8.86808 -0.570635 0.144793 2.280935
O 3.60272 6.951 9.86154 0.254113 -0.582614 -0.871987
O 4.10461 5.75127 3.90165 0.348622 1.230295 -1.448517
O 2.85752 4.03399 6.23435 -1.315115 1.37059 -1.192571
O 10.19733 6.34637 9.20329 0.070869 0.211032 -0.163218
O 11.68363 4.29193 6.40117 0.290978 1.756368 0.116639
O 2.4522 9.42436 5.28709 0.059102 -0.5504 -0.183985
O 9.60659 6.8592 5.94341 -0.718593 -0.493852 -0.508329
O 4.60614 0.37861 5.23777 0.762046 -0.574519 1.204827
O 8.78637 8.64493 9.93189 0.174614 0.430975 0.719031
O 11.37703 0.38618 2.04764 -0.497788 2.752942 0.368935
O 0.6365 3.87943 7.80805 0.988716 -0.564812 0.460927
O 6.37384 11.20213 5.32296 -0.865099 -1.216927 2.078122
O 12.62743 0.97201 4.33331 0.571322 0.017807 -0.732702
O 7.04055 3.94292 12.34023 0.246371 -0.567894 -0.929949
O 9.52644 2.9069 11.55513 -0.531326 1.141345 0.902809
O 1.96885 4.20352 10.69053 0.061149 -1.955398 -0.79089
O 11.55883 0.35955 11.22673 -0.682851 -1.248041 0.916693
O 1.64079 11.66463 11.63353 1.329426 -1.434754 -1.096671
O 5.52841 5.0385 10.26173 -1.412949 2.335368 0.662279
O 8.2951 1.62611 9.35638 1.223446 -1.21893 -0.820371
O 11.35923 5.24198 11.38293 -0.890631 -0.42569 -2.193349
O 6.14454 1.52283 3.01445 -0.116496 0.302071 -0.198385
O 1.28605 8.22819 3.12258 0.420816 2.202626 1.15359
O 6.2916 4.32428 2.23206 0.016159 0.774326 0.885193
O 12.71193 6.21717 4.86175 -0.972548 0.004702 0.964995
O 2.13773 12.31553 4.66053 2.829897 -1.463668 0.797243
O 1.63591 8.53972 10.68403 -0.280435 0.786095 0.308299
O 5.42664 12.53773 10.51223 -0.3755 -0.677728 0.598572
O 12.31513 10.04263 10.63233 1.188653 0.03597 -1.57782
O 4.58686 9.80542 11.05353 0.46458 0.197859 0.810929
O 6.90668 7.38508 5.72303 0.366195 -0.266528 -1.278255
O 9.0038 4.26371 7.60149 -0.102631 -0.019102 -0.41426
O 12.37803 3.52729 0.84487 0.552813 0.536245 -1.935898
O 3.87034 1.85729 7.38023 -1.783744 -0.84298 -0.307472
Na 1.52934 6.43609 10.91623 -0.130317 -0.567704 -0.258822
Na 2.70256 9.85332 12.67273 0.234959 -0.066119 -0.384847
Na 10.79383 1.62045 0.10598 0.068256 -0.121667 -0.046414
Na 8.35892 1.01492 2.5662 -0.144085 -0.31741 0.501686
Cl 10.45493 1.0067 6.35773 -0.027814 -0.205409 0.263556
Cl 9.38164 10.58983 12.23273 0.344211 -0.202251 -0.219787
Cl 10.18523 5.17912 3.51248 -0.210773 -0.062509 -0.76816
Cl 2.04213 3.2256 3.27156 0.086418 0.117882 -0.145117
200
energy=-1089.40861604 config_type=nep2xyz pbc="T T T" virial="-16.17153 -5.43083 -1.20047 -5.43083 -5.06434 1.56455 -1.20047 1.56455 -4.53497" Lattice="12.755683899 0.0 0.0 0.0 12.755683899 0.0 0.0 0.0 12.755683899" volume=2075.445077408765 Properties=species:S:1:pos:R:3:force:R:3
H 9.42958 11.38676 10.24026 -0.017403 0.648192 -0.202757
H 8.48957 12.62496 9.92851 0.560547 -1.074942 1.050052
H 7.88731 3.28985 0.67257 1.408751 -0.996193 0.632243
H 6.47289 3.6135 0.75894 -0.202975 0.141339 -0.398279
H 0.11307 2.39117 8.03611 -1.027871 -0.451926 -0.930859
H 12.56656 1.70833 6.61768 -0.351768 0.277961 0.328062
H 1.9523 1.00583 12.34386 -0.317469 0.257933 -0.204037
H 0.62613 1.82461 12.13976 -0.148964 0.085053 0.200905
H 9.20894 0.80575 1.46776 0.483893 -1.272283 -0.946782
H 9.2485 1.87946 2.52231 0.395824 0.490354 0.966151
H 10.85376 5.45644 9.85115 -0.391992 0.052617 -0.17817
H 12.31276 5.81105 9.90708 -2.039163 1.135507 -1.551376
H 8.85721 10.15496 1.19668 0.852278 -0.633618 -0.561279
H 8.55227 8.67989 1.5849 0.931895 0.172296 -1.248015
H 12.07436 0.92332 2.87975 -0.982763 -0.033694 0.227211
H 0.27665 1.28715 1.96254 2.080766 2.061204 -1.056146
H 3.03513 11.06686 10.77376 0.513356 0.393931 -0.304135
H 3.94892 9.9006 10.00436 -0.745548 0.571224 0.578806
H 11.31086 4.96903 5.20305 0.477754 0.431505 -0.438132
H 12.68356 5.29063 4.62734 0.523269 0.278557 -0.265157
H 2.20336 9.59285 5.58433 0.935013 -0.280152 1.306873
H 1.65115 10.40436 4.48631 -0.343865 -0.714785 -0.613791
H 8.29017 9.36104 10.54676 -1.404726 2.461722 -2.208815
H 8.78716 9.16901 11.95706 0.232454 1.492288 3.353418
H 9.75178 7.79422 8.68147 0.218909 0.468972 -0.312064
H 10.22206 8.56535 7.34595 -0.88829 0.075513 2.34838
H 1.60155 10.12216 2.0037 -0.544697 -0.333668 -0.683482
H 1.45501 8.95803 0.90733 1.328267 -0.978253 -0.820971
H 0.23432 10.94386 12.67046 0.229823 -0.176263 0.497633
H 0.10454 12.48276 12.37376 0.21435 -0.177565 -0.219325
H 6.88264 0.65999 1.74766 -0.493013 0.202626 -0.193129
H 5.37259 0.6788 1.14549 0.401583 0.375864 -0.132833
H 8.95102 12.61876 4.99089 0.62021 -0.194868 0.29512
H 8.61061 11.14666 4.69986 1.174971 0.502535 0.529279
H 6.71816 0.47205 8.66857 0.174145 0.501204 0.31817
H 7.5847 1.21994 7.72854 1.649419 0.037221 -3.599824
H 1.99997 6.02496 6.55014 0.243035 -0.004789 1.036281
H 1.57901 6.32657 5.16319 -0.307987 -0.73168 -0.550858
H 3.54413 0.9502 8.88136 -0.172609 -0.122521 -0.496759
H 3.66658 1.06004 10.33446 0.140785 0.074464 1.02926
H 4.19453 10.28826 7.62623 -0.981393 0.672398 0.095727
H 2.6702 10.97826 7.68122 1.066818 -0.524373 -0.077875
H 11.66276 3.24772 4.27058 0.621102 1.519141 -0.218694
H 10.51256 2.30738 4.57262 -0.538599 -0.344374 0.572033
H 8.67494 3.44938 4.31017 -0.319163 -0.111536 0.071818
H 8.09823 4.79419 4.70802 -0.284313 -0.128573 -0.531434
H 3.2244 5.84358 1.76216 0.870887 0.11197 -0.367065
H 1.80585 6.09552 1.06021 0.845077 -0.730667 1.039739
H 11.25066 8.89459 5.11214 0.124632 -0.889098 -0.721099
H 12.62276 9.50404 5.71001 0.104503 -0.580597 -0.603459
H 3.20334 4.18649 5.26777 -1.230074 1.27641 0.441714
H 4.08751 3.32819 4.45078 0.142236 -0.344226 0.002204
H 10.69256 5.16033 1.97727 0.562761 0.547673 -0.152137
H 9.58207 4.29574 2.4287 -0.226407 0.348985 -0.619481
H 4.89618 12.01326 9.3387 -1.262665 1.129894 0.503833
H 5.61917 10.70746 9.22656 0.595505 -0.393536 -0.026045
H 9.1146 12.11396 12.37216 0.981278 0.500497 1.347151
H 10.42246 11.85786 0.49999 0.595041 -0.118719 -0.269806
H 7.2702 6.53435 5.72656 0.867187 0.718945 0.062033
H 6.04421 5.80534 5.48966 -0.246033 -0.543627 -0.064482
H 5.75074 12.57406 3.84812 0.489394 0.024603 -0.242883
H 6.63094 0.01495 5.11628 0.35281 0.572215 0.170844
H 4.47804 3.24868 7.02917 -0.476255 0.054917 -0.971026
H 5.76701 2.73346 7.6814 0.46106 -0.302856 0.024106
H 11.10056 1.90599 0.10814 -0.467743 -0.982525 0.268982
H 11.25986 3.34631 0.52069 -0.192364 0.386565 0.35268
H 11.27746 5.351 7.51311 -0.156939 0.322564 -0.220455
H 11.28436 3.90523 7.0665 -0.368985 0.727083 -0.761729
H 4.608 7.92902 0.00536 -0.462817 -0.123512 0.449228
H 6.13326 7.79017 12.55596 -0.724244 -0.655765 1.129617
H 2.54585 7.35079 12.15646 0.302668 0.817932 -0.154543
H 3.0473 8.79047 11.61736 -0.20922 0.407665 -0.477272
H 5.6032 9.98888 3.41276 -0.265417 0.209264 0.478394
H 6.08073 10.18486 4.91432 -0.213706 0.82123 -0.074736
H 3.46673 1.28397 4.80817 -0.027129 0.322639 0.206199
H 4.23709 12.71845 5.06503 -1.366535 0.336161 0.206886
H 7.62305 7.62399 11.16466 0.317292 -1.081934 0.355242
H 7.04515 6.30245 10.55966 -0.092366 -0.382185 -0.12876
H 5.25025 5.23834 12.38726 0.769058 0.103559 0.353037
H 4.1646 4.15844 12.13886 -0.199474 -1.772648 0.800076
H 2.81112 11.80576 3.09504 -2.237861 -0.185928 -0.035602
H 1.21746 12.14526 2.9176 -1.146625 1.882216 -0.476481
H 0.03728 11.38466 8.53853 0.362024 0.959422 0.244223
H 0.8498 12.71936 8.03795 -0.096589 0.711285 0.741532
H 7.07927 9.98751 7.62192 -1.154073 -0.385065 1.511134
H 8.5379 10.08456 7.28091 1.92669 -0.311195 1.098486
H 6.90766 7.10856 1.97222 0.060937 0.335031 -0.200235
H 8.01452 6.94153 2.95729 0.507677 0.044985 0.222592
H 1.68528 7.87364 8.18244 0.378624 -1.527001 -0.181112
H 3.16399 7.81681 7.95709 -0.988069 -1.644042 -0.445206
H 11.26726 10.01706 9.469 -0.315738 -0.841244 -0.988967
H 11.59946 10.95166 10.49036 0.654795 1.123984 0.977307
H 2.34474 5.57937 10.39806 -0.628913 -0.328212 2.259808
H 2.4317 6.10822 9.09957 0.018768 -0.511395 -1.432711
H 4.66612 6.29528 3.19916 0.404377 0.52344 -0.334419
H 5.0811 6.75782 1.66768 -0.088961 0.374741 -0.137315
H 0.27785 8.08647 10.20716 0.078958 -0.084863 -0.96279
H 1.21363 9.2531 10.08686 -0.123921 -0.235115 -1.127126
H 0.00377 1.35576 4.49456 -0.752113 1.567739 -1.585924
H 1.1991 0.69063 5.2086 2.08685 -0.443016 -0.172759
H 1.80607 3.10106 3.22591 -0.492507 0.224159 -0.810279
H 1.06723 3.54051 1.89128 0.207773 -0.2893 1.131294
H 4.2627 4.07297 2.2257 -0.383607 -2.015447 0.643022
H 3.79594 2.50297 1.93135 0.621808 1.392088 0.63858
H 1.04102 8.05111 4.17881 -0.061666 -0.377013 -0.503461
H 1.65429 7.1069 3.09666 -0.609321 -0.482163 0.068276
H 10.46676 7.8714 12.65286 -0.187371 0.80503 -0.868491
H 11.79296 6.9498 12.45546 1.01277 -0.151493 -1.310037
H 7.16502 8.53937 4.81352 -0.595936 0.055006 -1.247111
H 7.8289 8.56498 6.10038 0.748529 -0.56168 -1.005726
H 10.42406 11.28656 3.65612 -1.894716 1.152472 2.359323
H 11.43186 11.72516 2.59963 0.191039 0.190983 -0.229162
H 5.48296 11.17246 1.6671 -0.307212 0.403285 0.076547
H 5.13392 9.69441 1.59679 0.042719 -1.239911 -0.768619
H 9.7877 0.95606 7.71013 0.189387 -0.579394 -0.079853
H 11.25816 0.74292 8.01574 -1.380953 -0.41105 0.185382
H 7.63682 2.57456 9.59917 -0.545572 -1.91804 -0.828174
H 7.48319 3.04191 11.16066 -0.12292 -0.210421 -0.621505
H 6.13913 6.74939 8.82099 -0.211985 0.162404 -0.389837
H 6.34122 5.35292 8.03951 0.262253 0.889448 0.941231
H 11.09006 6.54012 4.13179 -0.925103 1.884236 0.200142
H 9.66099 7.4035 4.52818 1.848221 0.261337 -0.8048
H 1.73363 2.07921 9.87211 -0.060537 0.534945 0.435455
H 1.92192 3.70803 9.33329 -0.252367 -2.370829 0.011852
H 3.39983 6.58052 5.0329 1.814594 1.020233 -0.267384
H 4.36036 7.94508 4.79603 -0.168089 -0.744303 -0.040068
H 9.16786 3.7766 10.40426 0.210163 -0.198377 0.476153
H 10.55086 3.55073 11.25856 0.555276 -0.956104 0.324968
O 8.72183 11.94186 10.62706 -0.309786 0.447786 -0.807981
O 7.23052 3.73849 0.16069 -0.992265 0.502727 0.082935
O 12.10956 2.07637 7.4293 2.024664 0.677818 0.770133
O 1.03001 0.9527 12.01096 0.678443 0.422615 -0.042585
O 8.73323 1.5655 1.79458 -1.286896 1.110211 -0.085609
O 11.44396 6.08124 9.36502 2.209569 -1.341005 1.551866
O 9.12751 9.23461 0.93306 -1.314794 0.829465 1.684803
O 12.43186 0.58624 2.04824 -1.281797 -1.848985 1.024025
O 3.1072 10.15756 10.48086 -0.050071 -1.225026 -0.262442
O 11.78116 5.17286 4.31679 -1.050377 -0.560584 0.670434
O 1.57854 9.49034 4.87508 -0.369434 1.277842 -0.244198
O 8.69182 8.79008 11.12906 1.188803 -3.288636 -1.431548
O 9.7312 8.67235 8.24921 1.143991 -0.453853 -2.079573
O 0.9906 9.59491 1.41401 -1.060287 1.236309 1.149321
O 12.40786 11.61036 12.29696 -1.011879 -0.563296 -0.283885
O 5.98178 0.27355 1.7851 0.233505 -0.538366 0.452507
O 9.39387 11.72296 4.92442 -1.607838 -0.489091 -0.391054
O 7.25401 1.30473 8.57346 -1.932017 -1.114234 2.982767
O 1.90104 5.564 5.71162 -0.012183 0.789198 -0.969923
O 3.47677 0.39276 9.66856 0.108695 0.014679 -0.37668
O 3.33811 10.45316 7.17564 -0.504538 -0.351665 -0.288439
O 11.29406 2.41193 4.02593 -0.471774 -1.385224 -0.662364
O 8.42943 4.30231 3.91404 0.416339 0.108294 0.309621
O 2.27939 5.78453 1.89326 -1.769236 0.55902 -0.850578
O 11.65526 9.4702 5.76547 -0.231479 1.103247 1.413063
O 3.6856 3.3785 5.34247 0.953308 -1.029154 -0.390002
O 9.98212 4.64843 1.58772 -0.270965 -0.78961 0.925105
O 5.61918 11.61156 8.87963 1.008534 -0.035867 -0.594089
O 9.54602 12.25006 0.54333 -1.28795 -0.566916 -1.607311
O 6.94112 5.63139 5.82078 -0.72271 -0.231531 0.107962
O 6.0255 12.16256 4.68641 -0.596855 -0.0197 -0.115368
O 4.91802 3.13172 7.87111 0.011057 0.22223 1.093867
O 11.62906 2.67417 12.69236 0.546307 0.642255 -0.559705
O 11.04186 4.81592 6.72131 0.366446 -1.374996 1.490172
O 5.43553 7.74274 0.52427 1.107432 1.132441 -1.707822
O 3.02725 8.19056 12.37726 -0.326118 -1.041991 0.557405
O 5.7377 9.55055 4.28263 0.134034 -1.391137 0.057499
O 3.30583 0.35182 4.99963 1.26087 -0.532849 -0.22103
O 7.33256 6.68337 11.40346 -0.127991 0.771437 -0.006688
O 4.37991 5.07164 12.04766 -0.558368 1.62849 -1.022008
O 1.85399 11.47416 3.0319 3.350243 -1.632233 0.583112
O 0.62609 11.81596 7.86428 -0.294492 -1.752999 -0.787927
O 7.68245 10.22096 6.94691 -1.035474 0.582747 -2.424229
O 7.82181 7.40889 2.13646 -0.703406 -0.83223 0.185113
O 2.36991 7.174 7.86528 0.583536 3.74018 0.875684
O 11.35146 10.96806 9.56098 -0.0679 -0.533712 0.220251
O 2.47529 5.22037 9.53681 0.792398 0.241716 -0.961325
O 5.01522 6.0306 2.31344 -0.23881 -1.378781 0.681214
O 0.65143 8.67391 9.5039 0.285883 0.271591 1.830762
O 0.28006 0.85699 5.2268 -0.960995 -1.44868 2.244991
O 0.9667 3.00839 2.71855 0.557412 0.071588 -0.403842
O 4.07563 3.15606 2.64375 -0.004209 0.90747 -1.207991
O 0.87913 7.19345 3.70209 0.648059 0.919059 0.471828
O 11.05136 7.20578 0.22443 -1.100993 -0.426321 2.464549
O 7.91478 8.07596 5.21263 -0.041532 0.579237 1.960781
O 10.95886 10.97766 2.97265 2.189564 -1.623057 -2.567876
O 4.80798 10.51816 1.93645 0.331073 0.857133 0.39095
O 10.37306 0.23762 8.02977 0.81828 0.954524 -0.371503
O 7.71227 3.25879 10.23426 0.054924 2.115733 1.512281
O 6.31877 5.8014 8.92995 -0.237268 -1.151157 -0.66214
O 10.59206 7.5047 4.12562 -0.768424 -1.5819 0.43952
O 1.83465 2.67841 9.1233 -0.163169 1.761985 -0.574908
O 4.31545 6.95914 4.76564 -1.403925 -0.455763 0.416577
O 9.96125 4.1789 10.86306 -0.440326 1.701155 -0.418496
Na 11.45636 11.56906 6.47409 -0.383718 0.328396 -0.086255
Na 11.62716 8.86513 2.24455 -0.162693 -0.173262 0.02179
Na 4.59075 4.3647 9.82963 0.334402 0.043291 -0.431765
Na 8.77617 5.58394 12.70936 0.254715 -0.01663 -0.224403
Cl 0.75148 6.00699 11.78056 0.170236 0.213075 0.28459
Cl 4.02754 1.98904 12.47156 -0.052436 -0.14491 -0.124018
Cl 8.47485 1.66938 5.67998 -0.05531 0.065657 -0.085032
Cl 5.53001 8.67507 9.2852 -0.1192 0.064446 -0.096465
200
energy=-1089.09829127 config_type=nep2xyz pbc="T T T" virial="-17.51083 -2.37714 1.01564 -2.37714 -16.75997 0.31533 1.01564 0.31533 -16.32071" Lattice="12.822276115 0.0 0.0 0.0 12.822276115 0.0 0.0 0.0 12.822276115" volume=2108.120222150272 Properties=species:S:1:pos:R:3:force:R:3
H 3.43123 7.91148 4.44116 -0.341449 0.239724 -0.49186
H 2.57575 8.95993 3.55402 -0.348739 -1.047294 -0.236617
H 9.42016 10.57719 1.64789 0.792595 -0.43648 0.992683
H 8.73987 11.42909 0.76499 -0.561151 0.81414 -0.58378
H 11.14029 0.35223 11.33029 0.435637 0.156862 1.063237
H 11.38049 0.29241 9.87475 -0.488704 -0.114779 -0.144836
H 1.62044 1.37856 0.50597 -1.029278 0.78422 -0.287116
H 2.21545 0.40014 12.18959 -0.437727 0.292679 -0.205001
H 6.26603 7.18206 11.69579 0.728785 0.404383 -0.099693
H 6.07808 7.73317 0.22364 -0.157211 0.243235 0.570452
H 8.47301 2.31069 11.34019 0.054855 0.012025 -0.7109
H 7.76779 1.98246 12.66989 0.167894 -0.288688 -0.862342
H 6.36342 1.54071 8.76322 0.06496 0.194837 0.401012
H 4.95153 0.96727 8.4168 0.530359 0.054423 1.421488
H 3.5706 0.81545 7.00751 -0.767185 0.930544 -0.564527
H 4.46961 12.45069 6.77258 -0.643173 -0.12488 0.937109
H 6.23898 12.23509 3.96284 0.113487 -0.000332 0.980981
H 6.2078 11.74759 2.63714 0.419978 -0.277864 -0.48317
H 1.79491 8.47291 10.39479 0.66229 0.042638 -0.877351
H 1.03497 9.5036 9.52235 2.594564 -1.854875 -0.447356
H 4.88648 0.96048 3.23926 0.584206 0.1087 -0.166216
H 3.44386 0.81331 3.21375 -2.548283 -1.016556 1.554358
H 4.46842 10.13279 0.29978 -0.364426 -0.625942 1.058507
H 5.64078 9.58379 12.19819 -0.140349 -0.515938 0.318011
H 10.47549 3.42915 11.47769 -2.278262 -0.033228 -1.869999
H 11.84509 2.90823 11.65479 1.171806 -0.969281 -0.719529
H 10.27479 4.36384 1.97595 0.620374 0.487586 0.668986
H 10.09729 3.38069 0.73529 0.064721 0.763349 0.663386
H 2.2989 7.65229 2.00586 -0.835427 0.529556 0.500442
H 1.03127 7.27725 2.82557 0.119226 1.011674 -0.171678
H 11.09219 9.71823 8.78803 -0.650774 0.456868 -0.654777
H 9.4884 9.15279 8.8567 2.587955 0.647975 0.078978
H 3.99222 10.09969 10.33169 0.688223 0.702501 0.175459
H 3.22921 9.85505 9.15274 0.508582 0.820336 -0.312043
H 3.03483 5.39427 3.43045 0.242655 0.121309 -0.343544
H 3.80619 4.88731 4.70363 -1.898934 0.940685 -0.394609
H 9.46089 11.83179 8.47576 0.383258 -0.13872 0.080316
H 8.47118 12.11159 9.71327 0.419981 -0.123267 -2.31452
H 0.23921 0.3542 5.49201 0.728377 0.105287 0.029057
H 12.34689 1.73409 5.67828 0.040417 -1.017799 -0.20487
H 11.12429 9.45406 2.79778 0.182192 -0.514141 -0.114046
H 11.28149 9.42636 1.27238 3.825979 0.837304 -3.343311
H 12.21209 8.10941 12.65509 -0.379679 -0.088072 0.555047
H 12.25099 6.61893 12.52479 -0.707511 0.231687 0.295898
H 1.06365 2.94709 3.08085 0.206928 -0.583637 1.103771
H 1.886 3.56765 4.29399 -0.91712 -1.088821 -0.357349
H 1.43802 3.36527 0.44704 -0.181787 -0.635973 0.202664
H 0.00545 2.86888 0.67257 -1.000732 -0.123042 -0.247319
H 1.80108 9.03982 5.48014 -0.596387 0.230392 0.7637
H 1.02919 8.38203 6.61338 -0.338593 -2.651341 1.574208
H 12.43439 7.11897 7.858 -0.179845 0.15233 -0.70003
H 0.51378 5.98658 7.63013 0.590106 -0.615441 -0.403945
H 11.04339 4.82752 8.6834 0.605975 -1.642431 -0.027354
H 12.42189 4.02294 8.69908 1.030953 0.015003 -0.280297
H 10.19049 1.07044 5.89721 -2.442769 -0.679146 0.174467
H 8.70529 0.39683 6.36758 0.787821 0.061635 0.554083
H 6.70151 3.81468 0.95227 -0.142347 -1.020871 -0.229209
H 7.05061 2.41319 1.48471 -0.955804 0.279065 -0.611421
H 11.53019 0.47674 3.94083 -0.316297 0.823597 -0.277045
H 11.34519 0.39809 2.40759 0.113987 0.305476 -0.249128
H 6.72394 5.79073 10.02899 -0.391081 -0.376394 -0.320326
H 5.93106 4.95035 11.14859 -0.857885 -0.680302 -0.625922
H 7.85275 8.67312 6.66211 0.29138 -0.323784 -0.167689
H 7.2806 9.59504 7.69533 -0.088186 0.699596 0.558496
H 8.61044 2.71624 2.38046 0.721991 0.234686 -0.380229
H 7.76516 2.31905 3.52445 -0.170804 -0.157125 0.022826
H 1.53649 10.60199 7.28176 -0.552609 -0.149031 0.160673
H 2.22307 11.95149 7.37748 -0.566024 -0.201009 0.815858
H 10.88779 12.76249 0.27184 0.934677 -0.463535 0.416513
H 12.24939 11.88919 0.35873 -0.408744 0.098525 -0.099722
H 9.56974 5.1127 12.74159 -0.196227 0.219368 -0.352654
H 8.35053 5.19915 11.79289 -0.665906 0.263346 -0.333379
H 1.89152 12.64999 4.02921 0.378282 1.185093 0.946368
H 1.82032 1.44662 4.48844 0.191424 -1.378908 -0.214302
H 1.55668 8.34913 12.50409 -0.052646 0.339123 0.301514
H 2.79418 7.382 12.41499 0.263732 -0.080666 0.348802
H 0.86739 6.6783 10.79339 -1.54873 0.225589 -0.623754
H 0.21479 5.51342 10.12079 -0.371227 0.239516 -0.372431
H 0.75496 11.73169 10.89929 0.117483 -0.186278 -0.110495
H 1.42689 11.97429 9.42951 -0.486043 0.281137 1.343292
H 8.91068 3.93453 5.10545 0.643914 -0.034127 0.031966
H 7.52902 4.52552 5.26889 -0.711552 0.458985 0.012843
H 12.76149 6.086 5.53586 -0.841814 -0.331039 -1.091592
H 0.53195 5.48201 4.23672 -0.582862 -0.212906 0.246251
H 10.82049 6.17526 3.55106 -0.429025 -0.021758 0.110518
H 9.24951 5.76587 3.72511 0.963579 -0.125046 -0.200413
H 5.70836 11.21969 8.7413 -0.17332 0.05945 0.270348
H 7.22079 11.85019 8.24475 -1.448183 -1.414765 -0.051235
H 3.97355 11.01359 2.31237 0.124495 -0.498038 0.11709
H 4.36387 9.8525 3.25013 0.107575 0.120943 -0.039387
H 4.58727 2.93346 9.53726 -0.522999 1.09268 0.84016
H 3.42572 4.03235 9.51285 -1.235724 0.391609 -1.172354
H 5.39555 0.51074 10.74409 -0.35981 -0.124311 0.345467
H 4.92301 12.23099 11.83739 0.231902 0.354913 -0.341208
H 10.07999 9.47419 12.63069 -1.955489 0.047791 -0.522833
H 8.81426 10.12479 11.92639 0.346937 -0.247067 -0.043769
H 9.72376 3.09569 9.2226 -0.177411 -0.522456 0.003292
H 9.22149 1.67359 9.56688 0.569373 -0.73949 -0.014423
H 3.36014 4.03512 11.55749 -1.002292 -0.504197 0.823703
H 3.12064 4.70528 0.09703 0.908798 2.456345 1.682993
H 10.72239 3.6834 6.84593 -0.582542 -0.265559 -0.614893
H 11.13929 4.19866 5.46335 -1.418533 -1.096021 0.39423
H 7.68806 9.82991 2.13727 0.574147 0.756519 -0.070245
H 6.49887 9.02252 2.43305 -3.589043 0.241235 0.192035
H 11.31909 8.40756 5.08706 0.245031 0.525886 -0.865758
H 12.54239 9.35432 4.80913 -0.913438 -0.341596 -0.043354
H 11.17909 12.10299 6.9134 1.38345 -1.096843 2.626137
H 12.55429 11.90389 7.73141 -1.222567 -0.456151 0.045199
H 6.16965 5.69864 2.13146 -0.209795 0.104444 -0.362799
H 7.30495 5.25492 2.97123 0.841649 -0.672536 1.980057
H 0.81266 2.72368 10.17249 0.259261 0.63901 -0.722164
H 0.77299 1.16654 10.40749 0.1261 1.00879 0.85064
H 2.16032 12.19459 1.41761 0.184444 0.028175 -0.015095
H 1.70423 10.77829 1.79604 -0.909379 -1.115316 -0.542122
H 10.29169 6.29601 5.62745 0.227537 -2.596852 -0.731306
H 9.42725 7.52489 5.50957 -0.833234 0.121824 -0.148017
H 7.35851 11.64089 11.82629 0.376644 -0.187564 -0.825718
H 8.24033 12.78329 11.48469 0.627347 0.711991 0.226452
H 6.99908 7.34213 5.03472 -0.682137 -0.750459 0.265894
H 7.73219 8.35312 4.10416 -0.082399 0.385889 -0.000258
H 5.30024 10.69719 6.55632 1.312402 -0.427921 1.423965
H 4.29738 9.99137 5.51767 0.854045 2.394895 0.872416
H 9.10051 10.33319 5.57374 -0.611033 -0.114662 0.790308
H 10.21299 10.31969 4.61044 0.559462 -0.261405 -0.300708
H 9.01419 5.82793 8.36416 -0.508031 0.121047 0.343734
H 10.20059 6.46964 7.67586 -0.053909 0.235854 0.466527
H 6.49395 6.10162 7.56333 0.471483 0.020388 0.804725
H 7.11258 7.29102 8.32472 0.357954 1.28805 -0.097603
O 3.17342 8.84344 4.31393 0.857629 0.519469 1.318129
O 8.91281 11.40669 1.70818 0.139701 -0.406782 -0.474296
O 10.65099 0.37568 10.51799 0.236936 0.003289 -1.182532
O 2.22067 0.66152 0.29409 1.635446 -1.393321 0.332705
O 6.54353 7.96967 12.23589 -0.612111 -0.571672 -0.278147
O 8.37667 1.59628 11.97999 -0.28323 0.070588 1.152987
O 5.50381 1.39479 9.18966 -0.446862 -0.234449 -1.536665
O 3.98563 0.11945 7.49952 0.734438 -0.500185 -0.814465
O 6.82714 12.24339 3.20404 -1.081277 0.079838 0.083482
O 1.8585 8.84636 9.46503 -3.32778 1.704999 1.196616
O 4.11825 1.18024 2.70872 2.218472 1.138871 -1.676167
O 5.06624 10.33709 12.42289 0.632276 1.134082 -1.533627
O 11.20409 3.49645 12.03269 1.590097 0.598047 2.218424
O 9.65475 4.04318 1.33252 -0.71334 -1.566051 -1.155985
O 1.51054 8.07244 2.49519 0.45294 -1.300306 -0.598719
O 10.42649 9.23713 9.28694 -2.12339 -1.149497 0.344093
O 3.96404 10.47699 9.43282 -0.6732 -1.21379 0.402109
O 2.8638 5.13257 4.34297 1.522557 -0.903789 0.596959
O 8.59616 12.20809 8.66822 -0.2846 0.49667 2.396574
O 12.19819 0.75663 5.64376 -0.561911 0.994153 0.243578
O 10.70659 9.26826 1.93322 -3.938931 -0.556477 3.719393
O 11.67599 7.31978 0.09086 0.830555 -0.264713 -1.034001
O 1.25532 2.7931 4.05585 0.754396 1.964978 -0.855756
O 0.88527 2.74905 1.00451 1.031886 1.002834 0.372577
O 1.04255 9.16667 6.13123 1.323765 2.51764 -2.313428
O 12.78579 6.61123 7.09755 -0.214903 0.77337 1.190494
O 11.47189 3.88926 8.64819 -2.378727 1.402899 -0.064811
O 9.19952 0.90491 5.71686 1.452471 0.579237 -0.786218
O 6.5411 2.85279 0.71152 0.616942 0.718453 1.190276
O 11.04449 0.89795 3.18955 0.419739 -0.966421 0.133892
O 6.62537 5.56969 10.97929 0.967625 0.792157 0.514333
O 8.00074 8.95093 7.58767 -0.251412 0.03862 -0.081652
O 8.06998 1.96323 2.67108 -0.137715 0.5282 0.412146
O 1.45837 11.44909 7.77612 1.140461 0.404509 -1.08079
O 11.84489 12.77414 0.5093 -0.904499 0.4558 -0.078079
O 9.19616 5.61976 11.97999 0.813258 0.132741 0.561824
O 2.13614 0.48522 4.75174 -0.677755 -0.259632 -0.963567
O 1.95179 7.61896 12.00609 -0.316547 -0.32085 -0.878215
O 12.81441 6.4444 10.32589 1.63551 -0.3132 1.050889
O 1.11538 12.40179 10.29749 0.358258 -0.488856 -1.133977
O 8.22 4.40817 4.60437 -0.181115 -0.116187 -0.216796
O 12.48459 5.70082 4.63071 1.064107 0.405165 0.837966
O 9.96375 6.04372 3.09622 -0.376532 0.071895 0.058285
O 6.34825 11.30929 8.02402 1.119198 0.351017 -0.630344
O 4.72643 10.40189 2.53123 -0.15209 0.401447 -0.150205
O 4.19189 3.75589 9.98852 1.782401 -1.360994 0.74711
O 5.13049 0.35468 11.68159 0.072492 -0.213914 0.156776
O 9.08155 9.39109 12.51359 1.954226 -0.070454 0.068575
O 8.92193 2.56877 9.42789 -0.093947 1.237898 0.053566
O 2.80958 3.99611 12.42089 0.519578 -1.938191 -2.474889
O 10.38149 3.66071 5.89827 2.79491 1.396498 0.413264
O 7.40321 8.9418 2.35416 3.019054 -1.184732 0.010788
O 11.64069 9.12192 4.45807 0.553843 -0.075387 1.00015
O 11.56339 11.70979 7.80849 -0.28992 1.299765 -2.542841
O 7.05262 5.29709 2.07285 -0.866352 0.763352 -1.747021
O 0.74821 2.07392 10.86319 -0.517672 -1.164709 0.056893
O 2.27219 11.47029 2.09087 0.731651 1.373162 0.556227
O 10.27159 7.19249 5.83812 0.233311 2.442069 1.129181
O 8.21351 11.80689 11.35219 -1.3455 -0.081538 0.860875
O 7.65009 8.04734 5.03057 0.86869 0.334606 -0.190274
O 4.67785 10.88489 5.87843 -1.968215 -1.820014 -2.423149
O 9.31461 10.66429 4.70835 0.145401 0.4267 -0.440932
O 9.92459 6.11377 8.55286 0.382888 0.11382 -0.66092
O 7.06871 6.34415 8.36024 -0.520831 -1.510639 -0.492189
Na 8.98508 0.02385 3.49161 -0.150173 -0.344388 0.128181
Na 10.47799 7.27314 10.58479 0.030994 -0.226804 0.181542
Na 8.87885 7.19067 1.29662 0.069376 0.302283 -0.230778
Na 4.3789 2.04129 0.26402 -0.136066 -0.448797 0.114665
Cl 1.53831 4.51501 8.30511 0.37741 -0.473035 0.428897
Cl 0.34446 10.08049 12.69279 -0.213327 0.109564 -0.200547
Cl 4.00585 6.78726 1.34413 0.273553 -0.380751 0.0422
Cl 5.55471 5.72632 5.7995 0.178447 -0.030921 -0.349287
200
energy=-1089.40643029 config_type=nep2xyz pbc="T T T" virial="-21.67158 1.65298 -0.46966 1.65298 -12.97351 -4.53469 -0.46966 -4.53469 -29.86682" Lattice="12.726772308 0.0 0.0 0.0 12.726772308 0.0 0.0 0.0 12.726772308" volume=2061.364644282907 Properties=species:S:1:pos:R:3:force:R:3
H 9.02402 9.79493 12.15763 1.641493 0.649484 0.605414
H 7.93817 8.78268 0.02405 0.744272 1.063589 -1.835336
H 7.56603 7.18079 9.15718 0.223427 0.062719 -0.023042
H 6.56842 7.752 8.12367 0.41744 -0.010473 -0.130306
H 5.20405 3.37953 11.03983 -0.062314 -0.165154 0.333816
H 6.03614 4.15049 10.06333 0.547282 0.390257 -0.410694
H 11.55633 9.86662 4.13724 -0.012621 -0.70909 -0.390408
H 11.70813 8.34364 4.51852 -1.04769 0.832687 -1.867295
H 9.9322 11.04363 9.33129 1.009853 0.051804 0.411345
H 9.04447 11.59473 8.21827 0.091604 -0.004754 0.329257
H 5.61197 1.35194 9.54216 0.942023 -1.022917 -0.976935
H 7.19224 1.18608 9.66026 -1.05987 -0.543092 -0.748958
H 2.30378 9.68591 12.30563 -0.175409 0.207799 0.125355
H 2.15952 10.33403 1.03762 0.0416 -0.991793 -0.75137
H 7.61925 1.99115 11.77693 0.558907 0.105405 -1.028861
H 8.75504 1.0464 11.53813 1.056675 -1.021397 0.21166
H 12.27303 8.65305 7.37913 -0.363184 0.269528 -0.231538
H 12.00163 9.84552 6.34784 0.438177 0.572581 -0.404682
H 5.19398 4.06164 1.02486 0.536139 -3.144063 -1.514259
H 4.01576 5.06227 1.25669 0.815545 -0.131196 -0.348011
H 3.12886 7.46835 4.8281 -0.234262 0.005404 -0.055566
H 3.1845 8.75696 5.79914 1.201679 -1.860559 -1.295833
H 9.36108 5.21011 2.45842 0.450883 -0.458616 0.041638
H 9.1537 6.31304 3.38223 0.379395 -0.554042 0.288817
H 1.02784 12.59863 2.69937 0.083232 -0.229476 -0.433338
H 0.55735 1.04426 3.50856 -0.472878 -0.034408 -0.586338
H 2.8556 6.35012 10.17193 -0.490879 0.220422 -0.1549
H 4.02927 5.7038 10.78673 -0.701224 -0.539198 0.46328
H 3.29224 8.46355 8.39464 -0.105692 -0.393503 0.980598
H 3.83775 8.22735 9.84807 -0.343397 -0.280139 -0.664385
H 12.62323 6.15207 8.22395 0.448668 0.482355 -0.17168
H 1.03149 7.14664 8.86374 -0.757045 -0.339199 -0.297272
H 3.32189 0.44875 10.42923 -0.338631 -0.363836 -0.41014
H 3.28955 0.80369 8.86361 0.022398 0.036035 0.888848
H 9.03422 12.51983 2.94829 -1.297855 0.59449 -1.236058
H 7.6807 12.02993 2.27678 -0.859994 -0.812477 0.275796
H 9.0047 0.80231 7.01676 -4.100827 1.854561 -1.5596
H 10.04163 1.00569 7.91672 1.18346 1.115163 1.499646
H 1.92212 3.52719 2.2882 0.594159 -0.74775 0.487424
H 1.52814 3.26133 0.79517 0.198067 0.669926 0.975128
H 4.72402 3.76371 6.2318 -0.32366 -0.143493 0.109906
H 4.09945 4.63042 7.37927 0.54342 -2.589965 -0.828593
H 11.64963 5.6549 3.90003 -0.451097 0.024608 0.263068
H 0.3277 5.9867 4.44634 -0.766048 0.435148 0.123076
H 11.17693 8.07721 9.487 -1.380112 -0.184274 0.276181
H 10.19423 8.78114 10.43993 -0.168026 -0.127287 -0.067797
H 2.41963 7.40549 1.1555 0.715772 0.98239 0.215891
H 1.78594 6.42557 0.31097 0.254504 -0.912388 -0.229186
H 0.62443 2.50626 8.67785 0.867182 0.526311 -0.428654
H 0.32372 1.05232 8.7425 -0.773483 0.787936 0.253045
H 10.46803 5.16858 11.53053 -0.169659 0.271305 -2.012737
H 10.33103 6.28394 10.47383 0.29547 0.079907 -0.137441
H 5.94202 7.77466 1.41866 0.729629 -0.260732 -1.581928
H 5.80502 6.5722 0.59423 -0.175392 -0.802703 -0.323977
H 4.52814 7.10374 7.97115 1.718155 -0.411998 -1.123237
H 4.9162 7.48914 6.51119 -0.068752 -0.284468 -0.383646
H 2.55257 2.24587 4.50441 0.796061 -0.69922 -0.298965
H 3.59455 3.08901 3.90304 0.74777 1.821801 -0.24354
H 6.83693 10.59993 7.14267 -0.626498 0.140194 -0.149371
H 7.22116 10.32753 5.59637 -0.478786 0.521977 0.303725
H 12.08933 8.68888 2.2738 -0.063943 0.190182 -1.229711
H 0.58131 8.86061 1.19677 -1.224345 0.061424 -0.572384
H 6.09494 12.49273 11.39863 -0.180952 -2.282479 0.271989
H 7.03607 11.52753 12.10473 -0.74296 -0.505484 -0.469751
H 9.51616 3.20029 8.63444 -0.298473 1.36528 -1.251713
H 9.38111 2.42451 9.88143 0.665976 -0.332138 -0.404594
H 9.15414 2.94318 0.9468 2.440606 -1.086628 -1.386477
H 8.10604 3.89048 1.16335 -0.634069 1.182536 -0.181327
H 2.97734 5.5688 4.13037 0.847817 -0.49476 0.295092
H 2.16037 6.063 2.91233 -0.022287 -0.040536 0.346281
H 11.88573 7.30424 0.74038 0.14948 -2.040298 -0.353441
H 12.22513 5.89957 1.36544 -0.339558 -0.420089 -0.275634
H 6.12658 9.92288 3.57785 -0.328794 0.242752 0.13051
H 5.03749 10.65683 4.37134 0.118616 0.101409 -0.096488
H 9.04477 3.88338 4.15569 0.343218 1.134883 -0.063739
H 8.61392 3.72658 5.6669 0.418643 -0.539958 -1.335989
H 10.25663 5.95503 0.51555 0.230323 -0.25318 0.373638
H 8.87864 6.46204 0.83159 -1.046188 1.643076 0.669369
H 4.66225 10.20513 11.06313 0.162891 0.937907 0.061107
H 4.75453 9.01804 12.05613 -0.417076 0.05824 -1.062138
H 12.68593 3.12992 4.43841 -0.210885 -0.454448 0.31652
H 12.43143 1.93537 5.43259 -0.430276 0.028419 0.181267
H 9.78396 5.47353 8.77986 0.272561 0.195844 1.562225
H 8.74849 5.32898 7.63951 1.000204 -0.019569 -0.42341
H 8.22211 6.99008 5.32679 -0.612925 -1.305929 -0.686065
H 7.98339 8.45757 5.6167 -0.325987 -0.045466 -0.054746
H 12.24603 5.11126 6.28458 -0.121577 0.273944 -0.227154
H 11.18803 4.90193 7.4234 1.139834 -0.299897 -0.346386
H 0.09487 3.95031 2.35421 -1.646427 -0.001187 0.062618
H 11.46603 3.30875 2.04831 -0.587091 -0.563774 -0.809708
H 6.53224 5.60067 6.77973 -0.259278 0.126393 0.340557
H 7.12296 4.1013 6.94512 -0.224832 0.364012 -0.239221
H 1.69253 1.41206 6.91505 0.637927 -1.080839 0.164579
H 2.48606 12.72363 6.65339 -0.370953 0.708231 -0.124783
H 10.10693 0.12592 5.27085 -0.298634 -0.345248 -0.398709
H 10.22103 1.32442 4.43189 -0.295235 -0.536166 -0.728754
H 3.01531 12.23783 1.59107 0.112364 -1.085882 1.497473
H 3.11235 11.19583 2.92469 1.015527 0.340157 0.390666
H 12.14553 4.33962 10.91143 -0.191935 1.188873 0.0985
H 12.42623 3.08182 10.22943 0.234422 -0.657397 0.05866
H 9.05875 12.60283 0.66412 0.367861 0.391848 -0.510611
H 10.07713 11.85363 12.51463 0.511159 -0.662535 -0.247759
H 5.15387 5.7715 4.56269 -0.88393 -1.503481 -0.65119
H 4.73511 4.98383 3.27734 0.359135 -0.138 0.744336
H 8.55327 5.28424 10.60683 -1.356495 0.955017 -0.941487
H 7.22701 5.99537 11.06893 0.738685 -0.300172 -1.349527
H 9.73823 8.20736 3.10944 0.096565 0.103084 -0.438044
H 8.19519 8.06014 2.82168 1.369495 -0.629266 -0.757776
H 11.42263 10.50523 11.55213 -0.618545 -0.305832 0.4897
H 11.34603 9.7877 0.20376 0.282801 -0.207632 0.500968
H 2.48142 3.35985 7.50252 -0.717455 0.082922 0.994512
H 0.99937 3.87275 7.69599 -0.627117 0.557479 -0.194637
H 5.06118 1.76177 4.07871 0.609395 -0.175409 0.901029
H 5.27577 0.45539 4.61426 0.085788 -1.365602 0.437086
H 1.91028 0.97656 12.05303 -0.095545 0.056105 0.0659
H 3.27512 1.58959 12.46763 -0.053798 0.184366 0.155994
H 11.94813 11.84333 4.75155 -0.556207 1.202661 -0.728029
H 0.73131 11.40623 5.03114 -1.560897 -0.514722 0.161592
H 12.46523 10.92743 10.19593 1.059517 0.690278 0.2907
H 12.13703 10.27063 8.84238 -1.026932 0.217109 0.852245
H 6.86626 1.87448 6.15926 0.575929 0.630579 1.459106
H 6.86336 2.01452 7.72489 -1.52024 -1.255011 2.095526
H 11.02753 2.79387 12.09633 0.232685 -0.32497 1.054052
H 11.11333 1.54125 0.27885 -0.29558 0.190929 -0.002895
H 6.00646 11.88943 8.61546 0.362496 1.222981 0.316973
H 4.79139 10.97853 8.21704 1.446644 -0.12161 0.066522
H 2.45366 10.91673 8.84986 -1.149889 0.759763 1.367486
H 2.78497 10.85023 7.28445 0.436586 -0.430418 1.409916
O 8.24639 9.31513 11.93533 -2.261943 -1.900143 1.430384
O 7.38434 7.98718 8.63355 -0.5062 0.086882 0.365435
O 5.12315 4.04333 10.33113 -0.276872 -0.296916 0.233725
O 11.32183 8.96311 3.78922 1.287944 -0.582173 2.099665
O 9.06037 10.94803 8.95768 -1.128365 -0.132272 -0.603312
O 6.40448 0.93049 9.05907 0.025003 1.450562 2.207491
O 2.04785 9.48804 0.49519 0.135883 0.409424 1.226981
O 8.33146 1.78523 11.09183 -1.891675 0.892616 0.592164
O 11.73483 9.45714 7.18258 -0.050577 -1.049997 1.003545
O 4.97829 4.86784 1.39932 -1.688453 3.356258 1.719973
O 3.7083 7.94023 5.44517 -1.40277 2.283861 1.144407
O 9.49171 5.37952 3.41178 -0.620577 0.785015 -0.55177
O 0.29544 0.51021 2.72607 0.458891 0.330625 1.013881
O 3.05 5.74514 10.89613 0.887364 -0.191846 -0.389896
O 3.45414 7.73351 9.05354 0.156369 1.300686 -0.162295
O 0.11026 7.08037 8.53494 0.238765 0.330148 0.202523
O 3.66425 1.05219 9.75314 0.104757 0.619783 -0.796734
O 8.3325 12.71303 2.21365 1.97567 0.304406 1.453452
O 9.76225 0.38066 7.263 2.733624 -2.699279 -0.079467
O 1.57023 3.95942 1.52041 -0.453277 -0.503197 -1.416346
O 4.21694 3.64583 7.05778 -0.293016 2.883047 0.618719
O 12.08803 6.1788 4.6005 1.309302 -0.43895 -0.310801
O 10.20453 8.08918 9.75849 1.74316 -0.189785 -0.289788
O 2.53972 6.48434 0.9198 -0.694598 0.240982 0.374985
O 12.60113 1.93599 8.79638 -0.476313 -2.530371 0.301719
O 10.46563 5.30741 10.51773 -0.214565 0.199258 2.508824
O 6.13217 7.4657 0.45032 -0.470016 1.115029 1.863067
O 5.28261 6.96241 7.25203 -1.323552 0.130957 1.631272
O 3.42372 2.17503 4.0274 -2.103904 -0.603557 0.442977
O 7.55073 10.39693 6.5042 1.32408 -0.630557 -0.728024
O 12.31013 8.67512 1.27315 0.906604 0.229563 1.482168
O 6.21177 11.47613 11.55723 0.896949 2.802533 0.139753
O 9.98842 2.53454 9.0994 -0.523284 -1.092594 1.526119
O 8.46475 3.10508 1.54602 -1.697647 -0.165997 1.752247
O 2.13787 5.97529 3.89464 -0.882648 0.543113 -0.827505
O 11.81063 6.23867 0.55307 0.4408 2.282667 0.471771
O 5.84185 10.82803 3.84586 0.224757 -0.509968 0.014937
O 8.90669 3.23516 4.85446 -0.688149 -0.96773 1.047375
O 9.29319 5.69162 0.50479 0.551508 -1.494012 -0.832671
O 4.37143 9.30675 11.18273 0.333937 -1.363363 0.907662
O 0.37635 2.53572 5.10724 0.725842 0.370634 -0.70377
O 9.72696 5.25151 7.87119 -1.560603 -0.236837 -1.399444
O 8.56684 7.71578 5.80729 0.995457 1.342067 0.763643
O 12.19063 4.81965 7.20782 -0.808833 0.075183 0.563493
O 11.84653 3.91577 2.67612 2.434947 0.593598 0.669033
O 7.30897 5.03305 6.67055 0.427956 -0.575635 0.190707
O 2.17221 0.64852 7.3221 -0.173815 0.447236 -0.024257
O 10.13963 0.34446 4.30555 0.347825 0.89077 1.440195
O 2.60086 11.59243 2.22515 -1.241947 0.921265 -2.142184
O 0.02712 3.6106 10.98603 0.071812 -0.675025 -0.404496
O 9.52185 12.64013 12.50683 -0.948293 0.344068 0.942366
O 4.6245 4.9412 4.2746 0.901497 1.574654 -0.489511
O 7.70457 5.72235 10.22783 0.467056 -0.715844 2.363956
O 9.12516 7.83652 2.43737 -1.655392 0.966544 1.097658
O 10.83373 10.34673 12.32323 0.235455 0.112358 -0.742169
O 1.72958 3.4507 8.17502 2.017606 0.493479 -1.383972
O 5.79495 1.24541 4.52215 -0.370557 1.260015 -0.901152
O 2.32055 1.79075 12.40713 0.255029 -0.027366 -0.217151
O 12.47453 11.17763 5.16647 1.959224 -0.705264 0.245716
O 11.73283 10.52093 9.72955 0.170364 -0.514787 -1.409692
O 7.34019 2.25576 6.9668 0.842966 0.585646 -3.748318
O 10.88193 2.48614 0.30117 0.084126 0.186978 -0.808995
O 5.81346 11.02793 8.2504 -2.049029 -1.034249 0.265673
O 3.07825 10.59423 8.22508 0.949935 -0.636797 -2.691228
Na 2.59771 3.24914 10.21303 -0.008529 0.177168 0.491432
Na 7.40104 1.99452 3.19388 0.570785 -0.031193 -0.155829
Na 7.05052 9.74243 10.15613 0.035343 0.221796 -0.580129
Na 9.21455 9.03929 7.57248 0.003794 -0.208706 0.196466
Cl 5.64991 1.87675 12.71193 -0.253795 0.134232 -0.056764
Cl 1.65491 11.61603 10.98103 0.037869 0.202729 -0.121038
Cl 6.25167 7.66049 3.5285 0.050666 0.191686 0.005957
Cl 2.91236 11.15723 5.21827 -0.078627 -0.02991 0.187744
200
energy=-1089.14953525 config_type=nep2xyz pbc="T T T" virial="-20.67409 -0.42329 -6.43765 -0.42329 -16.61896 -11.18898 -6.43765 -11.18898 -26.05674" Lattice="12.953371048 0.0 0.0 0.0 12.953371048 0.0 0.0 0.0 12.953371048" volume=2173.4438160599934 Properties=species:S:1:pos:R:3:force:R:3
H 7.18266 0.16624 12.29063 0.590351 0.534582 0.398513
H 8.52585 12.46133 12.32863 0.465638 -0.200701 0.282947
H 3.28963 3.58356 0.89542 -0.885048 -1.17128 3.028746
H 4.34322 3.24601 12.75103 -1.529965 0.632265 1.015672
H 9.1056 12.48383 4.93363 -0.809788 -0.179768 -1.120225
H 9.20465 11.18263 4.15984 -0.538483 0.92481 -0.822186
H 11.19593 8.98933 4.58697 -0.539473 0.915796 -0.41375
H 11.92363 7.91937 5.38399 0.27522 0.103196 0.280939
H 11.53983 6.69287 0.97853 0.091304 0.24203 0.782353
H 11.41403 6.55658 12.45653 1.345751 1.239552 0.842274
H 9.97353 3.19927 2.20237 -0.133218 0.64966 -0.077885
H 8.96268 3.32603 0.99011 0.288587 -0.038669 0.441889
H 1.68936 0.20711 9.38797 -1.194354 -0.730554 0.209325
H 3.00587 0.70122 9.97813 -0.048492 -0.12172 -0.299007
H 4.55557 6.85086 6.13792 1.66436 1.156309 -2.202257
H 3.66889 5.70265 6.51984 0.337433 -0.300417 0.165732
H 12.69953 10.33803 0.93162 0.27307 -0.395295 -0.078393
H 11.29343 10.85683 0.47393 0.406473 0.083708 0.990992
H 0.28526 6.72647 8.2287 0.035659 -0.693133 1.372007
H 11.84553 6.40644 8.8845 1.160305 -0.622102 0.315019
H 1.49884 0.50743 1.22047 -0.221782 0.053493 -0.469558
H 12.95153 0.42335 0.8953 -0.253783 -0.011717 -0.026053
H 1.10305 7.22058 6.2633 0.407802 0.610323 2.247698
H 2.4465 7.25719 6.98529 0.142499 -0.156503 0.881738
H 0.39916 5.33887 1.0612 0.093002 0.105444 0.309078
H 1.61499 4.96992 1.94763 -0.514471 0.415233 -0.246732
H 9.05027 7.06944 2.68031 -0.360243 1.360811 0.526355
H 7.69272 7.75477 2.44558 0.432676 0.404692 0.448951
H 3.0503 7.03171 0.6934 -0.263711 0.290763 0.262952
H 3.83799 6.45824 12.56423 0.499016 -0.237564 -0.400473
H 7.63171 9.55194 0.12837 -1.326939 0.317732 0.801656
H 6.2622 9.90323 1.02532 0.777022 0.306983 -0.41035
H 9.21279 3.42865 4.18418 -0.508666 0.065617 0.06789
H 9.26631 2.31285 5.1832 0.22094 -0.710196 0.682351
H 9.97783 11.41673 8.57157 0.143579 -0.152717 0.272985
H 9.06278 11.65043 9.88003 0.443958 -0.717658 2.887699
H 6.02181 2.3786 12.59863 -0.316555 -0.879293 0.191567
H 5.87184 1.29945 0.73744 -0.601638 0.227163 0.030729
H 1.0216 9.10698 1.68551 -0.057999 -0.330714 -0.717101
H 0.28479 8.28897 0.64645 0.07278 0.825484 -0.499125
H 0.13306 1.98087 8.57965 0.594782 0.66812 0.188097
H 11.90343 1.23453 8.10092 -0.327545 -0.357355 0.031507
H 5.45614 3.07892 9.6773 0.072393 -0.822519 -0.548222
H 6.65701 2.20686 9.41497 1.871419 -0.41719 -0.350633
H 2.32559 12.77833 3.09549 -0.401495 -1.349301 1.638405
H 2.61186 1.22538 2.62645 0.215262 1.04941 0.273496
H 5.8315 7.94684 1.59851 0.117599 -0.344126 0.045933
H 5.60956 7.74176 3.14045 0.4466 -0.309972 -1.82195
H 11.15403 10.13353 2.53895 -0.871549 0.056099 0.376205
H 9.83255 9.36798 3.138 -0.080958 -0.302457 -0.651062
H 5.2066 8.92557 7.96013 -0.830257 0.213799 0.083515
H 4.07379 9.90765 8.40197 0.33186 0.002825 0.043888
H 4.15138 10.44343 2.23052 0.433857 -1.961763 1.866686
H 3.87553 11.84543 1.95721 0.064514 -0.099337 -1.009202
H 5.45341 9.65215 4.52211 -1.098995 -0.451054 -1.744224
H 4.07746 8.89657 4.20363 0.820022 0.771081 -0.383317
H 11.59573 11.41773 7.0092 -0.3976 -1.70128 1.414644
H 11.36393 9.86775 6.7547 0.04785 1.189685 1.783515
H 7.01436 7.5521 9.46593 0.031448 0.235343 -1.349911
H 6.45761 7.19256 7.94588 0.935028 -0.26123 -1.125815
H 3.91167 6.5115 9.03225 -0.44579 0.338335 0.409209
H 4.09777 7.78142 9.80948 0.038107 0.190471 0.344267
H 3.5671 4.98433 3.78329 -0.950889 -1.805437 0.634451
H 3.91237 6.13536 3.01647 0.556666 0.566604 0.663763
H 2.41426 3.91106 5.34895 0.663733 -0.136435 0.734977
H 3.23444 3.19643 6.51891 0.580981 -0.904378 0.422606
H 9.7411 7.17489 9.40782 -0.024925 0.69209 0.435298
H 9.65509 5.98111 8.49876 -0.197384 -0.693938 -0.459831
H 11.12303 3.61527 6.11716 -1.617021 -1.758057 -1.096306
H 12.38993 3.84643 6.92032 0.39535 0.34016 0.417541
H 2.59963 10.34083 5.50114 -0.073993 1.098759 -0.389218
H 2.43592 9.01117 6.15543 -0.142075 -0.455363 0.362844
H 10.32753 7.55926 5.93021 -1.244514 -0.453319 -0.514474
H 9.48235 6.4997 5.00443 0.761056 0.495194 1.485301
H 4.196 0.91128 5.99461 1.096723 -0.263775 -0.370288
H 5.3743 12.75693 5.62796 -1.862754 0.914011 -0.991985
H 8.98357 9.55981 9.65997 -0.22748 -0.232031 -0.777637
H 8.87903 8.82596 10.89503 -0.091051 -0.467386 -0.13135
H 11.68653 12.43483 2.01253 0.397439 -0.886857 0.392789
H 11.74153 0.93893 2.83479 -0.242818 -2.016938 -1.035673
H 1.36714 4.06218 7.1894 0.758896 -0.500058 -0.331607
H 0.5157 4.75219 8.21596 -0.784655 0.354787 0.801281
H 6.69921 10.75203 6.13985 -0.741598 0.319716 -0.582186
H 7.20703 11.48333 4.96107 1.39354 0.736337 -1.328337
H 11.92833 1.02928 5.01485 -0.154844 0.143507 0.377403
H 0.08886 1.8359 4.20928 0.080387 0.300957 0.21987
H 6.63279 4.40038 11.57333 -0.151513 0.095319 -0.306501
H 6.70418 4.40207 0.14606 -0.360541 0.49428 1.401174
H 8.94417 2.32139 11.06553 0.226731 -1.016357 -1.083025
H 8.79126 3.47418 11.89353 0.549461 0.112134 0.099934
H 2.38163 3.73506 11.45983 -0.162294 0.490438 -0.438886
H 1.82522 3.48919 9.97783 0.190948 1.651196 1.440547
H 11.37903 12.46373 10.78833 -0.001537 0.034618 0.605675
H 11.69923 0.89993 10.46553 0.662194 1.270611 -1.317032
H 1.39725 12.35023 12.23263 -0.892177 1.628721 1.251589
H 0.86748 11.42123 11.12523 -0.569855 -0.103137 -0.020465
H 4.65286 5.4224 10.66953 2.062823 -1.092848 -1.129022
H 5.84796 5.90341 9.77972 -0.364467 -1.725048 0.376177
H 8.87104 1.98864 8.61974 -0.813852 -0.351859 0.979395
H 8.46244 0.62763 9.32461 -0.038969 1.559438 -0.295808
H 10.75603 4.45612 11.32483 0.390616 0.370357 0.555126
H 11.20853 5.55948 10.41433 0.266967 -0.220353 2.063048
H 5.5236 1.18109 3.68602 0.08052 -0.084006 0.085432
H 6.04874 2.49989 3.03752 0.126229 -0.331222 -0.186131
H 1.20978 7.3127 3.35584 -0.17451 -0.945956 0.207085
H 1.47745 8.76874 3.96621 -0.09454 -1.067016 -1.205991
H 7.16558 4.56542 2.66834 -1.776983 -0.026255 -0.466316
H 5.54498 4.92609 2.58716 2.038221 -0.868508 -0.350671
H 12.18423 5.56152 5.47885 0.929982 0.583451 -1.138291
H 12.10953 6.32573 4.09184 0.35209 -0.467312 0.444983
H 3.04169 12.73253 4.9105 -1.146242 -0.456762 -0.396478
H 1.47923 0.00351 4.51641 -1.847349 1.627754 0.43733
H 0.80826 9.08303 10.81903 0.786244 -0.165392 -0.782251
H 2.14868 8.73978 9.87292 -0.889388 0.084797 0.649164
H 6.03529 0.23205 10.17813 0.461079 0.587535 -0.972021
H 5.1613 0.03656 11.31663 -0.434335 0.199464 0.665066
H 12.10943 9.87255 9.67434 -0.294303 0.343966 1.161429
H 11.54733 10.01613 11.19463 -1.0935 -0.189001 0.178224
H 4.77258 10.75793 10.92413 0.099585 -0.286642 -0.264293
H 5.27126 9.54439 11.72073 -0.367323 0.042505 -0.472673
H 6.78108 7.21174 4.73568 0.533663 0.317548 2.018715
H 7.89986 7.28782 5.89265 -0.74386 0.058841 -0.400124
H 9.76661 4.64747 7.13628 0.290506 -0.047667 0.064479
H 8.42549 4.05225 6.84952 -0.152366 0.033092 0.255318
H 12.68173 3.85488 12.90583 -1.070295 -0.163003 0.628057
H 0.25938 3.11133 1.07915 0.287931 -0.721059 0.880583
H 4.5917 1.94941 8.01872 0.656086 0.07447 0.354012
H 3.12665 1.37239 7.88387 1.212961 0.720194 -0.380502
O 8.10194 0.34435 12.59833 -1.058407 -0.134847 -0.324763
O 3.57437 3.84257 0.06713 2.125905 0.474855 -3.979962
O 8.62476 12.00593 4.17736 1.862717 -0.25299 1.749444
O 11.29043 8.66657 5.50485 1.330676 -0.339529 0.310544
O 11.86973 7.17914 0.21589 -1.324312 -1.635619 -1.516699
O 9.34591 2.71629 1.64209 -0.064048 -0.223308 -0.616003
O 2.3988 0.80414 9.22716 1.052529 0.799318 0.311393
O 4.12919 6.49661 6.86986 -2.133101 -1.316297 2.072553
O 11.94543 10.89413 1.23036 -1.208484 0.328395 -0.780399
O 12.83653 6.18439 8.99225 -0.539816 1.591857 -1.624081
O 0.83839 0.65966 0.47943 0.473623 0.006489 0.087483
O 1.50278 7.48155 7.19096 -0.557153 -0.735867 -3.259923
O 1.22775 5.70623 1.40895 0.637937 -0.265763 0.190394
O 8.59103 7.95516 2.83208 0.149053 -1.708357 -0.732699
O 3.67969 7.31503 0.01277 -0.565158 -0.0458 0.359762
O 6.68074 9.32725 0.36095 0.144882 -0.291815 -0.510809
O 8.65377 2.70844 4.55887 0.098665 0.529663 -0.759371
O 9.15537 11.75143 8.97199 -0.566904 0.658176 -2.910988
O 5.4257 1.61831 12.87963 1.108268 0.69454 -0.32343
O 0.76902 9.16352 0.71176 0.348899 -1.034663 1.083926
O 12.53003 1.24862 8.84797 -0.423282 -0.232089 -0.361012
O 5.71726 2.189 9.30816 -2.051338 1.580195 0.7933
O 2.58803 0.31371 2.33624 0.907449 0.292905 -2.294017
O 5.95672 7.27292 2.29466 -0.498044 0.666758 1.345093
O 10.55483 9.98893 3.33465 0.460275 -0.071769 0.20357
O 4.31337 9.26317 7.72401 0.42155 -0.029939 0.059862
O 4.13977 11.01013 1.4936 -0.513747 1.831211 -1.018464
O 4.90114 9.2437 3.75082 0.041124 0.013284 2.273402
O 11.39853 10.56503 7.54562 0.293066 0.55592 -2.960878
O 6.27565 7.29969 8.86808 -0.570635 0.144793 2.280935
O 3.60272 6.951 9.86154 0.254113 -0.582614 -0.871987
O 4.10461 5.75127 3.90165 0.348622 1.230295 -1.448517
O 2.85752 4.03399 6.23435 -1.315115 1.37059 -1.192571
O 10.19733 6.34637 9.20329 0.070869 0.211032 -0.163218
O 11.68363 4.29193 6.40117 0.290978 1.756368 0.116639
O 2.4522 9.42436 5.28709 0.059102 -0.5504 -0.183985
O 9.60659 6.8592 5.94341 -0.718593 -0.493852 -0.508329
O 4.60614 0.37861 5.23777 0.762046 -0.574519 1.204827
O 8.78637 8.64493 9.93189 0.174614 0.430975 0.719031
O 11.37703 0.38618 2.04764 -0.497788 2.752942 0.368935
O 0.6365 3.87943 7.80805 0.988716 -0.564812 0.460927
O 6.37384 11.20213 5.32296 -0.865099 -1.216927 2.078122
O 12.62743 0.97201 4.33331 0.571322 0.017807 -0.732702
O 7.04055 3.94292 12.34023 0.246371 -0.567894 -0.929949
O 9.52644 2.9069 11.55513 -0.531326 1.141345 0.902809
O 1.96885 4.20352 10.69053 0.061149 -1.955398 -0.79089
O 11.55883 0.35955 11.22673 -0.682851 -1.248041 0.916693
O 1.64079 11.66463 11.63353 1.329426 -1.434754 -1.096671
O 5.52841 5.0385 10.26173 -1.412949 2.335368 0.662279
O 8.2951 1.62611 9.35638 1.223446 -1.21893 -0.820371
O 11.35923 5.24198 11.38293 -0.890631 -0.42569 -2.193349
O 6.14454 1.52283 3.01445 -0.116496 0.302071 -0.198385
O 1.28605 8.22819 3.12258 0.420816 2.202626 1.15359
O 6.2916 4.32428 2.23206 0.016159 0.774326 0.885193
O 12.71193 6.21717 4.86175 -0.972548 0.004702 0.964995
O 2.13773 12.31553 4.66053 2.829897 -1.463668 0.797243
O 1.63591 8.53972 10.68403 -0.280435 0.786095 0.308299
O 5.42664 12.53773 10.51223 -0.3755 -0.677728 0.598572
O 12.31513 10.04263 10.63233 1.188653 0.03597 -1.57782
O 4.58686 9.80542 11.05353 0.46458 0.197859 0.810929
O 6.90668 7.38508 5.72303 0.366195 -0.266528 -1.278255
O 9.0038 4.26371 7.60149 -0.102631 -0.019102 -0.41426
O 12.37803 3.52729 0.84487 0.552813 0.536245 -1.935898
O 3.87034 1.85729 7.38023 -1.783744 -0.84298 -0.307472
Na 1.52934 6.43609 10.91623 -0.130317 -0.567704 -0.258822
Na 2.70256 9.85332 12.67273 0.234959 -0.066119 -0.384847
Na 10.79383 1.62045 0.10598 0.068256 -0.121667 -0.046414
Na 8.35892 1.01492 2.5662 -0.144085 -0.31741 0.501686
Cl 10.45493 1.0067 6.35773 -0.027814 -0.205409 0.263556
Cl 9.38164 10.58983 12.23273 0.344211 -0.202251 -0.219787
Cl 10.18523 5.17912 3.51248 -0.210773 -0.062509 -0.76816
Cl 2.04213 3.2256 3.27156 0.086418 0.117882 -0.145117
200
energy=-1088.54879334 config_type=nep2xyz pbc="T T T" virial="-28.23653 5.87898 -1.87102 5.87898 -4.36396 -3.88555 -1.87102 -3.88555 -22.77131" Lattice="12.968948364 0.0 0.0 0.0 12.968948364 0.0 0.0 0.0 12.968948364" volume=2181.2943945677175 Properties=species:S:1:pos:R:3:force:R:3
H 3.24758 4.59351 9.52418 0.368955 -0.353332 0.136194
H 3.56264 4.39753 11.07482 0.215458 -0.212201 -0.754541
H 0.33055 0.30422 3.9562 -0.24043 -0.144338 0.762749
H 12.34452 12.69152 2.94455 -0.282364 0.073522 -0.083401
H 9.6201 2.39091 7.88368 -0.828593 -0.105258 0.044259
H 8.50293 3.45206 7.55791 0.144165 -0.740888 0.480365
H 11.58982 10.95012 10.34122 0.070581 0.104571 0.220978
H 12.94622 10.52882 11.06892 0.736397 0.619922 0.722632
H 8.50749 1.67437 5.69059 -0.455011 -0.086365 -0.485268
H 8.50168 2.98173 4.99501 -0.105921 0.960692 -0.506663
H 10.44782 7.03821 4.39083 0.170139 0.298855 0.3037
H 11.24552 7.46946 5.70799 0.130012 -0.077185 -0.638451
H 11.28012 0.00904 0.77399 0.819436 -0.901181 0.852824
H 12.58562 11.99702 0.65841 -0.978197 1.029163 1.105341
H 9.42583 0.98141 3.67602 -0.0154 -0.44545 -0.893514
H 10.82572 0.49119 3.50649 0.9304 -0.158512 0.068457
H 9.25507 0.70869 12.03932 0.04843 -0.265311 0.179143
H 9.64574 12.33382 11.41412 0.877277 0.488483 0.665946
H 11.93582 3.64002 1.39831 0.051664 0.467588 0.277275
H 10.83012 3.39435 0.33631 0.206543 0.103821 0.213817
H 4.89389 8.9822 6.00187 -0.208166 0.049712 0.437387
H 5.00432 8.22895 7.31772 0.159761 0.364625 1.388795
H 4.12601 11.31512 6.69493 1.840604 3.098963 -0.458954
H 3.20933 10.60422 7.63693 0.143313 -0.423413 -0.428692
H 9.94631 5.91328 7.09249 -0.602943 -0.23563 1.586019
H 10.21352 5.1583 8.45186 0.771352 -0.880206 0.579847
H 0.6953 5.41522 10.86452 -0.067753 0.302243 -0.181316
H 12.38502 5.27702 10.03492 -0.302109 -0.069091 0.10605
H 9.81292 11.49612 9.38562 0.326401 0.157779 -1.158136
H 10.94102 12.78742 9.35194 -1.297576 -1.184253 0.140112
H 4.2084 11.60472 11.34862 0.076176 -0.322715 0.091539
H 3.49127 12.88542 11.81872 -0.449656 -0.30627 -0.862959
H 4.01367 9.40323 1.54767 -0.947678 -0.571016 -0.493765
H 5.15425 10.43892 1.51075 -0.914623 -1.317255 1.15737
H 6.98772 4.00977 0.4307 -0.498015 -1.662913 -0.407098
H 6.28425 2.51039 0.55007 0.675466 -0.146502 0.134887
H 6.31658 2.35125 4.90688 -0.4593 -0.073453 -0.417081
H 5.04952 2.30759 3.9488 -0.109326 -0.22634 -1.015787
H 5.77802 6.77134 5.17375 1.9322 -0.694084 0.208025
H 6.28856 6.11381 3.92828 0.087385 -0.598792 -1.230439
H 12.78932 4.37117 5.20243 1.5401 -0.771809 -0.434357
H 11.69062 5.29201 5.36426 0.245085 -0.623715 1.490774
H 5.565 4.69348 9.43314 -2.674726 -2.480329 2.293437
H 5.86436 5.00558 7.9612 -0.537305 -0.192336 -0.351665
H 10.31592 3.20407 10.31682 0.426788 0.436179 -0.349707
H 11.45052 2.98873 9.17729 -1.225231 1.277635 1.211333
H 8.50625 8.52774 3.68631 -0.551597 0.529444 0.583207
H 7.46664 8.26724 4.7726 0.148105 0.130632 -0.03555
H 8.39054 10.58702 8.19158 0.508873 -0.268446 -0.374539
H 9.47397 9.50323 8.62851 -0.351942 -0.064926 -0.033545
H 3.98723 0.6002 2.66538 0.174505 -1.560616 0.6016
H 4.13918 1.54358 1.4013 -0.644751 -0.118807 1.750435
H 2.3977 2.13814 12.36992 2.190504 -1.578168 0.439644
H 3.97179 2.25946 12.04552 0.080659 -0.196689 -0.521692
H 8.09139 5.24504 5.03653 0.484332 0.103617 -0.030844
H 9.71505 4.82195 4.94579 -2.39286 -0.125535 0.513154
H 8.30144 2.90894 11.76752 0.519395 -0.731633 -0.68092
H 8.43332 2.30412 10.27262 1.150141 0.568921 1.860564
H 5.81839 0.1162 0.26253 0.407398 0.523485 0.842092
H 7.02472 0.07347 1.13233 1.065648 -0.595817 0.612814
H 1.38886 10.56032 0.34807 -0.911021 0.606898 -0.290525
H 1.8022 11.60172 12.34572 0.142572 0.653695 -0.471401
H 4.4019 3.64008 6.08874 1.303423 -1.122298 -1.368695
H 2.91837 4.14934 5.94579 1.139639 0.133688 0.369932
H 11.30932 10.85232 2.16601 0.114809 0.655092 -0.688861
H 10.86072 9.40064 2.35956 -1.291071 -2.740027 -1.576865
H 10.61182 11.86702 6.46503 -0.416536 -0.145779 -0.793604
H 9.88985 10.54012 6.55593 0.190558 0.697909 -0.62316
H 6.60269 0.72206 9.46293 -0.279158 -0.988403 0.456127
H 7.14787 1.61627 8.42228 -0.682962 0.250119 -0.318126
H 2.52816 8.35665 11.56372 -0.056978 0.07566 0.756882
H 2.62499 7.39986 10.40072 0.182725 -1.023149 -0.427355
H 4.70424 9.3991 9.79592 1.059337 -0.266182 -0.89594
H 5.99011 8.58634 9.73415 0.743557 -1.149687 1.047971
H 5.48584 2.3794 10.06082 0.407667 -0.762938 -0.996279
H 5.82031 3.00126 11.51232 -0.752594 0.065745 -1.175401
H 12.90736 2.02953 12.71112 -0.288951 0.032954 0.701545
H 0.29449 2.55632 11.38042 -0.660791 0.892682 -1.842727
H 2.28294 1.27121 4.40824 -0.365895 0.178103 0.111105
H 2.61494 12.85302 4.83498 -0.35144 -0.4287 -0.174306
H 11.96052 6.05723 2.31204 -1.637716 0.754076 0.03589
H 0.39016 5.892 2.0471 1.213151 0.032882 -0.218535
H 9.06267 9.63227 12.07552 0.557153 -0.235435 -0.199848
H 9.5966 8.76217 0.17797 -0.125765 -0.809858 1.829497
H 9.97455 6.19535 0.16276 0.156318 -0.386541 -2.055593
H 9.50974 5.91305 11.53712 0.798986 -0.017625 1.521004
H 6.78627 11.16972 10.64112 0.173827 0.105874 0.328989
H 8.08081 12.01432 10.87632 -0.758148 -0.048268 -0.07567
H 9.22394 7.19385 8.88583 -0.04453 -1.087023 -0.485494
H 8.70293 7.90339 10.22742 0.263941 -0.056039 -1.147658
H 4.36772 7.33532 0.53311 0.329639 0.107166 -0.328426
H 5.8899 7.68456 0.72815 -0.93881 -0.099019 -0.695081
H 6.73969 5.85774 1.46319 -1.342575 0.90157 -0.301645
H 8.26309 5.84471 1.52895 -0.715509 -0.677763 0.25822
H 2.22815 10.03632 3.95234 0.339049 -0.191844 -0.921938
H 2.508 10.54072 5.31265 1.653125 0.280297 2.047229
H 6.05395 7.33387 11.55102 -0.526474 0.262611 0.881873
H 5.71212 6.67629 10.21222 0.924021 0.355626 0.032135
H 4.00547 11.42712 3.05214 -0.680003 -1.444051 -1.22696
H 4.91818 11.97122 4.0213 -1.256281 0.488262 0.188213
H 1.33222 2.74459 1.64823 -0.323864 0.160652 -0.136738
H 2.53647 2.3171 2.51194 -0.911785 0.929832 -0.040774
H 0.10352 8.46611 6.73662 -0.280791 0.018236 -1.217002
H 1.03833 8.59947 5.52963 -2.00596 -0.266928 0.221882
H 8.03139 11.23922 0.72906 -0.508477 -0.376427 -0.049037
H 8.98531 12.21272 1.33881 0.021631 -0.07647 0.264859
H 6.55445 11.67732 8.31919 0.336528 -2.476755 -2.804461
H 6.33076 10.18112 7.85153 -1.00306 -1.373448 1.00322
H 0.55548 7.85068 9.26238 -2.630622 0.965107 -1.619005
H 12.47932 9.04789 9.20574 0.195604 -0.329872 -0.078555
H 2.07551 6.6382 7.2705 -0.088333 -1.320068 -0.10499
H 3.18907 7.68 6.82287 -1.0825 -0.388038 0.57234
H 0.46539 4.9248 7.21347 1.304433 0.020884 0.434547
H 1.03817 5.42327 8.55887 -0.533828 0.746422 1.398151
H 2.83788 2.87159 7.51846 0.214256 0.519065 0.450176
H 1.94629 3.19912 8.75612 0.262238 -0.17892 -0.648989
H 2.4302 10.03852 9.66987 -0.231928 0.23681 -0.656993
H 2.61147 11.56692 9.54343 0.041379 -0.13248 0.11766
H 5.02182 0.79769 7.29766 0.250266 -0.3706 1.276469
H 4.60042 0.906 5.95586 -0.372166 -0.020732 -0.906597
H 6.87711 11.97692 5.3927 -0.393166 -0.274135 -0.553861
H 6.8287 10.54002 4.94739 -0.052738 0.536773 -0.7128
H 1.92999 5.34599 4.73657 0.216259 2.73064 -0.112826
H 1.68883 4.15936 3.94706 -0.12628 -0.746733 0.007006
H 1.70822 7.59432 3.21299 0.374683 -0.447878 0.073631
H 2.74696 7.38993 4.36925 -0.45365 -0.148506 -0.406641
H 12.36102 11.65612 7.35045 0.261686 0.22185 -0.521076
H 0.59944 10.85562 7.58449 0.76566 -0.404059 -0.023907
O 3.0539 4.894 10.41882 -0.759599 0.778469 0.386759
O 12.38832 12.90712 3.9035 0.80453 -0.262389 -0.516237
O 8.63897 2.5399 7.92088 0.608397 0.727173 -0.41461
O 12.20252 10.20862 10.57972 -0.815069 -0.969613 -0.821565
O 8.18301 2.06909 4.85081 0.282803 -1.189357 0.973237
O 10.60562 6.83482 5.33321 -0.080321 -0.235706 0.136752
O 11.91902 12.42922 1.31605 0.292354 -0.373291 -2.167863
O 9.96013 0.36397 3.10401 -1.646405 0.755084 0.948272
O 9.44117 12.74782 12.29992 -0.254363 0.221401 -0.838445
O 11.40282 2.95453 0.98304 -0.074161 -0.476319 -0.571415
O 5.08118 8.10749 6.38099 -0.001865 -0.362163 -1.706696
O 3.69709 10.51102 6.77071 -1.923757 -2.599981 0.408819
O 9.61557 5.76431 8.03665 -0.232865 0.910504 -2.299343
O 0.08135 5.93198 10.30872 0.301663 -0.509597 0.348698
O 10.44942 12.05272 9.87375 0.890053 0.914327 1.052852
O 3.36485 12.07442 11.24022 0.246179 0.879257 0.984394
O 4.56958 9.88892 2.15115 1.85898 1.956174 -0.674187
O 6.73956 3.13049 12.91882 0.380148 1.755226 0.1688
O 5.33184 2.44542 4.84742 0.679406 -0.010439 1.365116
O 6.61711 6.32067 4.79101 -1.848859 1.361465 1.220678
O 12.12932 4.52951 5.8666 -1.678432 1.623764 -0.530443
O 6.12442 5.11944 8.87043 3.01889 2.415869 -1.966315
O 10.98602 3.69471 9.76397 1.117885 -1.383617 -0.996147
O 7.94814 9.0091 4.35862 0.586761 -0.918099 -0.601614
O 9.36342 10.37272 8.17578 -0.690667 -0.10973 0.387177
O 3.92937 1.5072 2.39488 0.241932 1.817712 -1.940001
O 3.34553 1.68748 12.52412 -2.064635 1.187854 -0.05185
O 8.76466 4.54949 5.17958 1.907103 0.148608 -0.200111
O 8.95655 2.47562 11.13882 -1.843179 -0.030255 -1.11666
O 6.24932 0.61023 1.0097 -1.617995 -0.064942 -1.480932
O 1.00456 11.35432 12.83962 0.855627 -1.65917 0.566122
O 3.75274 4.14836 6.52709 -2.212456 0.772949 0.848018
O 11.23752 10.11792 2.77855 1.210644 2.430395 2.416556
O 10.25842 11.17322 5.86322 0.090362 -0.222962 0.847068
O 6.27197 1.27682 8.74888 1.147819 0.526938 -0.128634
O 2.63912 8.32465 10.60882 -0.083479 1.093363 -0.2097
O 5.51642 9.24736 9.23951 -2.114852 1.581071 -0.614897
O 5.14008 2.94239 10.74372 0.417603 1.069692 2.397771
O 0.69351 2.18745 12.13412 0.824054 -0.682563 1.277391
O 1.87594 0.52198 4.87258 0.578935 0.636605 0.193114
O 12.66352 5.47337 2.5444 0.273349 -0.857681 0.041828
O 9.8239 9.04994 12.28322 -0.638204 0.945819 -1.47365
O 10.25902 5.886 12.19812 -0.897518 0.537026 0.552485
O 7.3879 11.81722 10.21792 0.464131 0.606549 -0.822113
O 9.31346 7.96564 9.45326 -0.066065 1.140319 1.876454
O 5.26363 7.18849 0.14444 0.535277 0.158091 1.361931
O 7.45748 5.25454 1.5243 1.808993 -0.164712 -0.036821
O 1.82827 10.50702 4.67337 -1.933766 -0.354117 -1.290993
O 6.32728 7.32043 10.63382 0.10507 -1.001022 -0.769295
O 3.94645 12.08062 3.73747 2.535502 0.841861 1.092126
O 1.7083 2.93242 2.51164 1.263934 -0.945598 0.22618
O 0.04493 8.55655 5.73395 1.559308 -0.057882 1.403686
O 8.2971 11.57192 1.59736 0.476848 0.443751 -0.227309
O 6.64939 10.98942 7.49319 0.914703 4.026241 1.893726
O 12.63672 8.16377 8.78835 2.386473 -0.267578 1.48409
O 2.2804 7.56471 7.21471 1.393421 1.694237 -0.515901
O 1.32409 5.01022 7.76066 -1.277706 -0.569364 -1.742814
O 2.41931 2.47016 8.3142 -0.326056 -0.271457 0.219939
O 2.32275 10.78852 9.03084 0.000989 -0.346493 0.6802
O 4.42668 0.32291 6.70906 0.092798 0.438319 -0.349056
O 6.73936 11.44822 4.57247 0.255528 0.064695 1.278571
O 1.68831 4.46044 4.87875 -0.329361 -2.306179 -0.342133
O 2.01267 6.95553 3.89277 0.491959 0.699736 0.355744
O 0.19993 11.37182 6.87377 -0.721301 0.523995 0.977479
Na 1.15814 0.90966 7.38799 0.041349 -0.39207 -0.56429
Na 8.99438 11.24402 3.71683 0.0711 -0.05645 0.193386
Na 11.36322 7.80603 11.13532 0.058598 0.138043 -0.417945
Na 12.48382 10.59002 4.75056 -0.073496 0.193689 0.148488
Cl 11.51222 1.02727 7.92675 0.130363 0.234592 -0.011005
Cl 6.19239 10.49362 12.40222 -0.270551 -0.207343 0.512178
Cl 9.83477 7.42293 2.17094 -0.142705 -0.321097 -0.264729
Cl 2.18861 8.21113 0.989 -0.020073 0.144798 -0.276456
200
energy=-1089.98999938 config_type=nep2xyz pbc="T T T" virial="-4.96628 -1.72378 0.14655 -1.72378 -9.96351 2.04969 0.14655 2.04969 -18.83004" Lattice="12.724949837 0.0 0.0 0.0 12.724949837 0.0 0.0 0.0 12.724949837" volume=2060.4792101956805 Properties=species:S:1:pos:R:3:force:R:3
H 12.18932 5.28025 12.40462 -0.525005 0.066513 0.670231
H 0.87976 5.65137 11.89742 0.465525 0.353309 0.2472
H 6.89696 0.46895 10.58132 1.227088 -0.998615 0.913736
H 7.10507 0.34038 12.10722 -0.312926 -0.032125 1.253657
H 6.758 4.73608 4.13288 -0.112866 -0.011134 -0.160672
H 7.77569 5.6281 4.85013 1.090753 0.287764 1.06012
H 11.58042 2.48691 1.79424 -0.8753 -1.401661 -0.45754
H 11.70462 3.82612 2.47175 1.215985 -0.826389 -0.978482
H 1.6237 11.22182 8.50398 -1.221247 1.322807 0.739266
H 2.19263 9.75179 8.73772 -0.060138 1.528571 -0.892112
H 2.55029 7.42492 3.77073 -0.953599 -0.166321 0.213655
H 4.02383 7.2561 3.91865 -0.44034 -0.811442 0.335512
H 6.82307 1.22405 1.44563 -0.490709 0.686943 -0.068912
H 7.90164 0.22487 1.25808 3.408897 -0.653644 0.291981
H 3.13688 5.70582 2.7824 0.005606 0.012982 -0.893957
H 2.17907 4.65212 2.41494 -0.054523 -0.29251 -0.667618
H 7.29869 5.92326 7.7908 1.151535 0.207112 -0.504758
H 6.87706 7.49616 7.94132 0.688112 -0.659064 -0.240658
H 6.52019 11.83362 8.8416 0.75545 -0.688748 -0.010997
H 6.30262 10.27652 8.64297 0.461761 0.699491 -0.035978
H 4.66786 9.36801 9.22447 -1.386177 -0.323742 1.356146
H 4.48625 9.61407 7.70311 -0.323328 -0.271151 -0.141921
H 8.89548 2.0405 2.19621 0.577732 0.368314 0.354088
H 7.88551 3.06786 1.88794 -2.175291 0.875518 -1.444556
H 11.48132 6.92951 2.18357 -0.080957 0.478507 -0.073798
H 12.16912 7.58734 0.91363 -0.442171 0.168841 0.308141
H 3.30673 8.15637 0.64071 0.01184 -1.732047 -0.440122
H 4.20632 9.3736 0.97526 0.656106 0.147432 0.201403
H 9.73691 3.93217 8.56491 0.45327 -0.11791 -1.548374
H 9.32702 3.23453 9.854 -0.064329 2.28149 -0.56479
H 8.26322 7.56367 1.02665 0.083914 0.027346 0.550067
H 9.01381 8.20431 2.39656 -1.349557 -0.046159 -1.334975
H 0.75063 7.75894 2.78143 -0.415927 -0.092477 -0.086491
H 1.75167 8.80243 2.25528 -0.50266 -0.716117 2.051198
H 5.3873 11.38112 0.20103 0.463018 -0.061662 0.342621
H 4.73049 12.69632 0.66403 -0.048112 -0.150246 0.063065
H 0.89886 12.30692 0.76898 -0.112197 0.283374 0.505029
H 12.47492 0.12315 1.62505 -1.622186 -0.173596 0.299034
H 9.71308 4.45955 3.01361 0.171066 -0.677342 -0.470561
H 10.25072 5.806 3.19355 0.606159 0.76931 0.057502
H 8.81428 5.7148 12.66502 -0.053075 0.189533 -0.351726
H 7.39054 6.11233 12.07972 0.739585 0.563459 0.514789
H 1.32359 2.91337 6.77901 0.217416 -0.210047 0.277017
H 0.82818 3.47571 5.434 -0.047937 -0.271266 -0.239901
H 8.88174 0.25979 8.56754 1.084804 -0.544342 0.282763
H 10.39332 0.47387 8.25962 -0.396268 -1.216296 0.612825
H 10.18942 11.80592 3.60402 0.542656 -1.144618 0.402236
H 10.56642 10.28862 4.12027 0.038744 -1.531955 -0.878043
H 2.10176 10.37352 0.127 1.323618 -1.087345 0.718872
H 1.55752 11.49782 12.00532 -0.724826 -0.691426 0.395044
H 9.08324 9.27335 0.6963 -0.168975 0.230512 -0.439734
H 9.70802 10.70742 0.57662 -0.738202 -1.16729 -1.22737
H 8.89828 7.76194 6.91707 -1.127784 1.918793 1.2933
H 8.95351 8.74522 8.20856 0.015787 -0.710753 0.21379
H 11.81142 6.07643 10.32892 0.348243 -0.11767 0.711737
H 10.40182 5.66323 9.80935 0.714293 0.791656 0.067646
H 3.08868 5.19747 4.8829 0.74416 -0.349926 0.643343
H 2.91101 3.73605 4.72128 -0.602667 -1.122876 -0.448169
H 5.91175 0.81172 5.49495 0.016777 -0.241672 0.071575
H 6.33357 1.48162 6.9825 -0.937612 0.088532 -1.954924
H 2.86542 5.0722 8.86661 1.281972 -0.07104 -0.719296
H 1.42331 5.55003 8.8564 0.64574 0.164797 0.292289
H 6.00897 7.82066 11.32592 0.569364 0.158761 0.159735
H 5.52175 9.24912 11.57902 -1.308047 0.888657 -0.067639
H 2.91167 5.93802 0.19985 -0.680436 0.478989 0.146918
H 3.24634 5.9769 11.45442 -0.921234 1.227244 0.492726
H 0.11387 7.12306 6.85528 -0.216175 -0.191776 -0.56229
H 12.33982 7.98495 5.57014 -0.750285 -0.578341 -1.291299
H 5.95583 5.29796 10.97952 -0.548744 -0.072555 0.224519
H 6.19011 6.16937 9.77282 0.03695 0.882451 0.278211
H 10.36332 8.10731 10.06632 -0.644146 0.409178 0.061204
H 10.54022 9.36702 9.30052 1.642481 1.464405 -1.415157
H 2.45984 2.7874 9.79221 0.144503 -0.306152 -0.779545
H 2.11928 4.17936 10.43252 -0.124585 0.418851 -0.570957
H 3.92837 2.70345 0.99344 -0.850069 -0.922099 0.638436
H 3.02808 2.12941 2.1631 0.374002 0.07338 -0.576518
H 2.38365 7.47747 9.5875 0.81668 1.194152 0.502038
H 2.63003 8.44238 10.82152 -0.132095 -0.168878 -0.732057
H 0.11007 4.81141 7.18256 0.783145 -0.86471 -0.877245
H 12.13632 5.62654 8.26251 0.757108 0.753331 -0.350028
H 12.05332 9.48468 7.50646 -0.195178 0.011723 -0.097467
H 11.99732 10.96932 8.1562 -1.192264 -1.590317 -0.453747
H 5.70503 8.23522 2.77501 -1.500991 -0.524096 2.701311
H 5.85283 7.20098 3.93038 1.840855 -2.040941 0.778257
H 10.28492 1.97673 11.41002 -0.063825 -0.480344 -0.344225
H 8.69055 1.48116 11.49642 2.214635 0.882334 0.623369
H 8.14906 0.22678 5.35721 -0.384148 -1.866962 0.735868
H 8.57941 11.62192 4.80252 0.361295 -0.72604 -0.034196
H 3.65144 10.34142 2.82136 -0.455002 0.358764 0.787813
H 2.65317 11.43152 3.34704 -0.191806 0.545683 -0.334854
H 1.34705 0.37904 2.73849 0.001515 0.193033 0.634365
H 1.13746 0.15583 4.33896 -0.355063 -0.361729 -0.128918
H 3.08182 1.72035 7.09151 0.491786 -2.618778 -1.118948
H 3.49543 3.06044 7.37885 0.621753 1.14948 0.09246
H 3.83268 8.00834 5.90982 0.070727 2.522196 0.129141
H 4.92094 9.08511 5.65549 -0.965748 0.14435 -0.050024
H 7.6679 2.21991 5.74928 0.57368 -0.386721 -0.583599
H 8.44676 2.2623 4.38899 -0.016438 0.087466 0.027822
H 11.16762 9.51228 12.45012 -0.069874 -0.916785 0.120967
H 12.69832 9.53112 12.53502 0.137389 -0.120155 -0.014034
H 2.82768 0.16455 10.85842 -1.624617 0.443018 -0.435307
H 1.22296 0.0986 10.36022 1.218071 0.31127 0.431395
H 12.68852 12.27072 6.13167 -0.147262 0.763024 1.568812
H 11.99242 11.58332 4.94543 0.451534 -0.031141 0.303752
H 5.72594 2.73128 4.58339 -0.259176 0.497444 -0.619638
H 4.98142 3.93023 3.92064 -1.564411 0.731293 0.729562
H 9.95092 5.35038 6.2377 -0.73508 0.333469 0.14971
H 9.83446 6.49612 5.18843 -0.70295 0.220931 0.987152
H 0.9319 3.035 3.14894 -2.382382 0.236743 -1.976017
H 1.70204 2.08246 3.90541 0.661329 -5.469349 0.787155
H 4.9632 0.73447 9.70847 -0.154671 0.258372 0.080083
H 4.56907 0.2622 11.13622 0.214229 0.386574 -0.065765
H 12.28852 2.41999 9.94321 0.25926 -1.16773 -0.287321
H 11.73472 3.45868 10.74212 -0.315831 2.434338 0.862323
H 5.90303 3.43824 0.25218 0.130075 0.229459 0.063658
H 5.90918 3.64637 1.88894 -0.096589 -0.35762 -0.374619
H 10.24602 3.0414 6.3758 -0.613722 -0.663158 -0.555164
H 11.51542 3.66731 6.97012 -1.094793 -0.294406 -0.43698
H 6.3997 9.0947 0.80685 -1.185455 1.185388 1.215605
H 6.59576 10.13422 1.97774 -1.304696 -0.732519 -0.702117
H 5.7681 0.31535 3.01166 0.560541 -0.449083 -0.609137
H 4.38078 12.61972 3.61041 1.096448 0.794774 -0.030991
H 5.38311 5.27362 7.78798 0.884809 0.859651 0.417785
H 4.29704 4.95905 6.77631 -0.119141 -0.41651 0.269574
H 10.03602 4.835 0.90073 0.970487 -0.312606 -0.745363
H 9.85363 3.83701 12.50562 -1.509691 -3.341511 -0.882957
H 4.88649 3.24315 10.74232 -1.048505 0.017609 0.221467
H 6.31898 3.11809 10.56042 0.129997 0.547834 0.443223
O 0.2336 4.9407 11.94832 0.147149 -0.441059 -0.882737
O 7.36768 12.63742 11.29612 -0.745314 0.727505 -1.990086
O 7.1181 5.64634 4.17123 -0.971044 0.05818 -0.870515
O 12.26512 3.08629 2.03205 -0.088554 2.180306 1.230068
O 2.18151 10.57292 8.12557 1.345928 -2.937673 -0.154527
O 3.15548 6.7555 4.17919 0.717044 0.517997 -0.359146
O 6.98557 0.29837 1.23812 -2.923252 0.242082 -0.010174
O 2.88259 5.15553 1.9743 0.259884 0.39209 1.228432
O 6.68854 6.55439 8.14829 -1.498154 0.055338 0.712456
O 7.01061 10.98052 8.8956 -0.670412 0.164676 -0.333028
O 5.11568 9.38976 8.4067 1.370589 -0.032425 -1.180484
O 8.58763 2.93335 2.48053 1.988862 -1.327273 1.298453
O 12.25352 6.89252 1.61174 0.851679 -0.237 -0.299915
O 3.31956 9.08804 0.74388 -0.816253 1.53783 0.126722
O 9.37974 4.16165 9.41255 -0.355401 -1.830725 2.190668
O 8.3152 8.3469 1.6529 1.208477 -0.315972 1.318566
O 1.41898 8.38747 3.1339 0.653724 1.011796 -2.187264
O 4.55257 11.84762 0.23061 -0.794538 0.565506 -0.566924
O 0.61663 0.35951 1.32707 1.413219 -0.206046 -0.910764
O 10.50142 4.98025 2.75398 -1.320221 -0.173879 0.597706
O 8.06661 6.34178 0.04279 -0.620028 -0.639043 -0.620242
O 0.50919 3.14751 6.29033 -0.697634 0.699808 0.296828
O 9.76199 12.49562 8.58095 -0.885603 1.900028 -0.66567
O 10.36442 11.16982 4.38418 -0.09799 2.476104 0.614775
O 1.26167 10.75462 12.65642 -0.433983 2.148903 -1.323797
O 9.38061 9.93834 12.71772 0.726733 1.871265 1.347196
O 8.40362 8.54331 7.4217 1.269861 -1.459674 -1.330295
O 11.09482 6.40192 9.78166 -1.096797 -1.095016 -0.678104
O 3.42429 4.3271 5.26204 -0.013222 1.851376 -0.269792
O 5.94342 1.62361 6.02245 0.482176 0.316462 2.008275
O 2.26969 5.59032 9.39903 -1.567346 0.551799 0.026272
O 6.29416 8.72142 11.65992 0.791997 -0.994546 -0.157784
O 2.69665 6.48366 12.12482 1.490686 -1.654652 -0.206441
O 12.67029 7.99035 6.44864 0.974237 1.260884 1.716177
O 5.95512 6.24811 10.73592 0.297163 -0.442992 -0.454563
O 9.9115 8.96973 9.86926 -1.238849 -1.612309 1.018549
O 2.23095 3.23851 10.59742 -0.011815 -0.623372 1.611285
O 3.20954 2.04777 1.20269 0.40274 0.747905 -0.135073
O 2.70049 8.40633 9.84264 -0.517961 -1.035503 0.243967
O 0.22975 5.62342 7.67896 -1.508691 0.216821 1.480484
O 11.44182 10.13162 7.91519 1.02934 1.504147 0.427725
O 5.27751 7.89949 3.70321 0.971832 2.768591 -3.611443
O 9.44472 2.04973 11.89672 -2.210063 -0.496079 -0.409369
O 7.99303 11.92772 5.50507 -0.015546 2.66385 -0.386743
O 3.28551 10.76212 3.63379 0.524511 -0.362705 -0.549154
O 1.74777 0.50795 3.66312 0.409747 -0.871781 -0.481239
O 2.77139 2.45987 7.5444 -0.830168 1.538915 1.279957
O 3.98797 9.03068 5.97462 0.484977 -2.482784 -0.161298
O 8.52031 1.95374 5.31209 -0.209977 0.387472 0.241075
O 11.94362 8.91159 12.56942 0.011686 0.650476 -0.242169
O 1.86678 0.20086 11.13162 -0.264889 -0.665942 -0.068531
O 0.16752 11.75422 5.36931 -0.342472 -0.737369 -1.685096
O 5.71419 3.35502 3.80704 1.635763 -0.90792 0.156182
O 9.3476 6.09775 5.97454 1.066767 -0.266153 -0.834297
O 1.61281 2.96278 3.77197 1.584946 5.888735 0.943328
O 4.37771 0.94985 10.45632 0.336105 -0.758707 0.305672
O 11.78852 2.5297 10.75922 0.416711 -1.459231 -0.350936
O 6.13105 3.07489 1.12696 0.111081 -0.166212 0.134621
O 10.52252 3.78868 6.9014 1.642551 0.445394 0.652172
O 5.85349 9.67155 1.47967 2.70291 -0.710741 -0.500036
O 5.0874 0.60084 3.61061 -1.603684 -0.760022 0.72643
O 4.55366 4.82314 7.71049 -1.318478 -0.675125 -0.588381
O 10.26292 4.63784 12.67342 0.610565 3.481651 1.806096
O 5.67906 3.64687 11.10772 0.927241 -0.938433 -0.528818
Na 1.19345 2.37065 12.61902 -0.031518 -0.030759 -0.270926
Na 8.99719 10.86272 7.26124 0.091261 -0.128232 -0.228025
Na 8.03227 10.24372 10.75532 0.548789 -0.0215 0.406149
Na 1.93317 10.26042 5.45652 0.101687 -0.406058 0.386572
Cl 10.11102 0.04826 1.98606 -0.110374 0.332483 -0.333913
Cl 7.12585 1.70247 8.85262 -0.229077 -0.109578 -0.035372
Cl 0.12647 0.24822 8.49266 0.073526 0.012825 -0.072008
Cl 10.50122 8.11373 3.98356 -0.065075 -0.407597 -0.204515
200
energy=-1089.00877911 config_type=nep2xyz pbc="T T T" virial="-28.73561 -2.97389 -2.13084 -2.97389 -25.14215 10.28624 -2.13084 10.28624 -11.57615" Lattice="12.692715645 0.0 0.0 0.0 12.692715645 0.0 0.0 0.0 12.692715645" volume=2044.8603404152668 Properties=species:S:1:pos:R:3:force:R:3
H 1.60463 11.45435 8.03854 -0.7979 -0.467543 -0.035829
H 2.59505 10.58385 8.68734 0.236897 -0.545558 0.133868
H 3.92893 10.01665 12.62165 0.100162 -1.281344 0.059129
H 4.0774 8.91404 1.08851 -1.009287 0.456596 -1.891408
H 4.08182 7.7626 9.91361 0.885922 -1.066368 0.513096
H 4.37163 8.05814 11.30905 0.159457 1.764333 2.472404
H 0.25626 1.37475 6.68728 -1.630375 -0.137263 -1.014059
H 12.38685 2.4251 5.66028 -0.202404 -1.044671 0.185972
H 3.25435 3.62423 1.71179 -0.281045 0.00094 0.62346
H 3.967 4.88228 2.19816 -0.17425 -0.105563 0.383299
H 8.92076 0.30179 5.85058 -0.155303 0.309012 -0.056085
H 10.20745 0.75488 6.52572 1.936814 -0.381976 0.925292
H 5.60576 11.56275 11.34785 0.806468 -0.302714 -0.459064
H 4.32193 12.33945 11.57985 -0.704164 0.278275 -0.25983
H 8.53094 5.23158 2.78243 0.659453 0.332028 -0.838532
H 9.11299 6.65179 2.31985 0.20282 -1.364235 -0.261443
H 0.70342 2.05789 10.96155 -0.425437 0.380848 0.018307
H 0.28292 1.09956 12.14235 -0.252897 -0.262814 0.588195
H 11.06195 10.75245 10.37485 -1.530938 0.117161 -0.08182
H 9.59542 10.04985 10.38555 0.63167 0.457581 -0.235303
H 4.959 8.6354 3.17387 -1.17577 0.967125 -0.525812
H 3.81488 9.68114 3.54424 -0.738018 0.353093 0.314226
H 5.85196 0.0747 7.62817 -0.706025 0.606942 -0.553257
H 6.9322 11.79495 7.99758 0.76209 -0.750004 -0.067918
H 3.13948 4.29903 8.41404 -0.192265 -0.501436 -1.411323
H 3.71397 4.06192 9.8055 -0.368614 0.21302 0.039427
H 0.31916 10.39495 2.01463 -0.475293 -0.402138 0.219926
H 0.10236 11.47155 3.18998 -0.258488 -0.362589 0.163847
H 8.30647 7.72202 3.51927 -0.770077 0.299245 0.322517
H 8.0653 8.4968 2.17507 -0.314189 -0.028376 -0.146488
H 9.233 0.19362 8.11771 -0.286703 -0.249864 -0.464393
H 9.57297 12.28345 9.45321 0.545085 0.268353 -0.109499
H 6.59814 0.7623 11.08615 -0.006201 0.39454 0.485525
H 7.11357 0.44901 9.75068 0.464108 -0.562847 -0.251256
H 10.59465 7.1264 7.47327 0.785367 0.435141 0.914701
H 10.95435 7.50604 8.98865 0.502314 0.135492 -2.020035
H 6.93012 9.595 9.76544 -0.307524 0.212454 0.138572
H 5.47961 9.95827 10.20145 -0.070678 0.088207 -0.318476
H 11.61335 4.01812 9.76425 -0.897887 0.056892 -1.31769
H 10.77935 4.83022 8.64124 0.116523 -1.398069 1.059522
H 9.15231 11.94565 3.56003 -0.503142 0.470102 0.413778
H 9.7109 11.46255 2.24025 0.364477 1.403335 0.089672
H 11.56865 2.36438 2.64044 -0.628421 0.646245 0.318861
H 12.38715 3.59658 2.08759 -0.073738 -0.085958 0.014718
H 5.79799 6.40067 2.14318 -0.493736 -0.675458 -0.462271
H 5.27273 6.63329 0.75682 -0.382406 1.170276 -1.59763
H 7.73933 10.84775 4.8187 -0.612833 1.160525 0.041345
H 7.12781 11.75455 3.70798 -0.632025 -0.016155 -1.085502
H 9.17105 3.27019 4.08311 0.557771 -0.561326 -1.071459
H 9.82245 1.8852 4.17746 0.036685 -0.425141 0.230341
H 0.08367 11.96435 10.66625 -0.133973 0.593451 0.365585
H 0.82228 10.80795 10.07105 0.310019 -0.645465 -0.649543
H 7.25351 2.59848 9.19102 1.449868 0.03815 -0.320452
H 8.6283 1.84307 8.86998 -0.018674 0.423365 0.633826
H 5.44851 8.82562 5.59259 -0.213823 -0.361527 -0.28499
H 5.34497 10.17225 6.2116 -0.615938 -0.293688 0.076015
H 3.68845 1.18024 10.51685 -0.556118 -0.273388 -0.399864
H 2.13782 0.76612 10.77565 0.923002 -0.664684 -0.420066
H 10.68665 2.45215 10.50895 -0.582765 -0.125864 0.484626
H 11.11175 2.06087 11.89465 -0.110631 0.004056 0.245031
H 11.76975 10.52885 5.92625 -0.03042 -0.360722 0.597468
H 10.96165 9.73622 7.06461 0.940403 0.11038 -0.729769
H 5.41673 10.71705 2.44681 0.885812 0.908939 -0.829466
H 5.95116 11.65155 1.21271 -0.20596 -0.367421 0.906006
H 5.4969 2.89577 1.99112 -0.782814 0.565252 -0.259009
H 6.67103 1.94891 1.79107 0.195603 0.13255 0.645144
H 6.60901 5.89259 9.14036 -0.667722 0.16723 -2.597631
H 6.01995 6.55459 10.43835 1.482769 -1.099413 -1.12245
H 8.57132 2.54695 0.56725 0.039658 -0.50058 0.801122
H 9.11138 2.06133 2.04161 -0.951187 -0.397915 -1.448159
H 9.46151 5.43737 6.30135 2.124157 -1.057763 -3.849713
H 8.30947 6.41346 6.74096 0.724068 -0.881125 0.553423
H 10.96065 12.18155 3.96414 1.298672 -0.573211 1.072015
H 11.85425 0.18241 5.17887 0.055929 -1.445271 -1.059456
H 10.44155 8.84816 3.00779 0.518621 0.472821 0.874047
H 11.09415 9.25787 4.37557 -0.800732 0.282716 2.892334
H 5.55913 6.64774 7.22073 0.082868 0.085156 -0.254139
H 6.194 7.98877 7.17104 0.13322 1.264595 0.021597
H 12.30915 7.90471 3.85246 0.678868 -0.826224 0.117395
H 0.87753 7.32706 4.71139 -0.964872 -0.019766 -0.461494
H 1.82745 5.39286 1.89094 -0.723354 0.02235 0.31496
H 0.78561 6.12579 2.84044 -0.196495 0.027033 -0.837783
H 6.55838 3.73459 12.26795 0.823644 0.209366 -0.215661
H 7.21282 4.571 0.66291 -0.000688 0.550755 0.276384
H 12.50345 9.87617 12.18095 -0.721712 -0.187985 0.379032
H 12.18385 8.51428 0.21885 -0.216031 0.359375 -0.1886
H 10.21315 10.20305 0.5361 -0.499581 1.198787 0.245298
H 8.68429 10.16305 0.84631 0.705268 1.336416 -0.285583
H 2.66903 7.26844 7.53367 -0.395513 0.230769 0.612684
H 2.85756 6.26713 8.65659 -1.048874 0.36948 0.422646
H 4.62581 6.339 5.33136 0.221143 0.006509 -0.194839
H 3.61749 5.67792 6.3439 -0.380808 -0.50699 -0.268472
H 2.95196 7.66797 5.58095 -0.354424 0.184874 0.469402
H 2.0907 8.98055 5.34777 0.227921 -0.17359 0.274629
H 12.45055 4.23858 5.28289 0.996046 0.217077 -0.319029
H 0.53151 3.55237 4.17031 0.298245 0.013018 -0.467735
H 0.88009 7.09677 11.57065 -1.318566 -1.40953 1.06117
H 0.59316 6.28682 0.21865 1.540975 -0.52013 3.852954
H 1.36023 4.08257 9.7187 -0.41754 -0.129819 0.456139
H 0.37385 4.83564 10.65095 0.355121 -0.598293 0.36974
H 1.42076 1.54518 3.2642 0.206361 -0.167328 0.092439
H 2.11841 1.45231 4.62678 0.19225 -0.188324 -0.16407
H 9.89811 7.38082 10.93855 0.096258 -0.59934 0.672814
H 8.94614 7.57934 9.7482 -1.277698 -0.699869 -0.716879
H 4.1006 3.3903 4.12223 -1.755926 0.238092 -3.610485
H 4.93688 2.40917 4.95864 -0.426233 0.142112 -0.009379
H 3.84722 11.89665 9.29578 -0.651091 0.147199 1.712077
H 4.38442 11.50305 8.12302 0.212977 -1.296045 -0.429906
H 1.86334 0.90994 8.41524 0.701141 0.819369 2.281533
H 2.18073 0.60139 7.04103 -0.040557 -0.267421 -0.1649
H 2.30613 7.97191 10.16235 -0.908113 -0.095211 -0.527413
H 2.25696 8.59167 11.47665 -0.231399 0.544178 0.639348
H 2.65703 11.45845 3.72638 -0.525658 -1.079592 1.027352
H 3.43875 11.12785 5.01071 -1.12788 -0.577196 -0.375906
H 11.22755 5.16306 12.62415 -1.583175 1.218392 -2.14833
H 9.86732 5.46873 0.35664 -0.21234 0.393815 -1.426704
H 11.15935 5.92337 4.95351 0.121799 -0.301846 -0.236519
H 10.10635 5.27394 4.02694 0.850444 -0.372907 0.558088
H 11.89385 0.84909 1.56267 0.002276 -0.079465 -1.380399
H 12.53955 12.29995 1.11862 -0.333227 0.103643 -0.418112
H 3.53055 2.42476 12.50965 -0.10687 -0.155443 0.489888
H 2.91477 1.69334 1.1104 0.212294 0.04463 -0.304064
H 6.28155 9.41518 0.71081 1.550168 -0.405124 -0.51047
H 7.09324 9.11629 12.09395 -0.167388 -0.026595 0.922969
H 3.48232 3.79068 5.84999 0.65195 -0.436887 0.461235
H 1.99427 4.09722 5.90255 0.769895 0.305303 1.256513
H 7.09239 4.89912 4.31422 -1.368337 2.256965 0.324398
H 6.97586 3.4739 3.80766 0.44508 0.178015 0.146899
O 1.64023 10.55775 8.44793 0.017084 0.584218 -0.208069
O 3.84308 9.02453 0.07879 0.675742 1.170075 1.733359
O 4.44828 7.33181 10.73485 -0.658334 -0.930129 -2.99683
O 12.17115 1.52138 6.00427 1.981805 0.954271 1.342465
O 3.33158 4.20223 2.52721 0.687565 0.538904 -0.816929
O 9.48879 1.07872 6.02876 -2.324278 0.418204 -1.167457
O 4.86765 11.64355 11.94765 -0.083766 -0.2505 1.084947
O 9.24934 5.64485 2.22967 -0.788844 0.707444 1.064385
O 0.42966 1.15256 11.18215 0.814412 0.206176 -0.8143
O 10.05845 10.91465 10.31815 1.00376 -0.479377 0.649196
O 4.29064 9.30308 2.7841 1.979148 -1.290421 -0.019158
O 6.72396 0.04212 8.02569 0.774958 0.555584 0.873434
O 2.96391 4.49406 9.33104 0.691485 0.01577 0.84698
O 0.46222 11.29725 2.29925 0.691722 0.810681 -0.381962
O 8.72991 8.25143 2.83645 0.733982 -0.057458 -0.405577
O 9.73028 0.4104 8.90717 -0.332963 -0.012399 0.174202
O 7.40238 0.4059 10.69105 -0.194834 -0.292401 0.143982
O 11.34575 7.45508 8.04043 -1.361666 -0.613542 1.37721
O 6.34837 9.71619 10.54825 0.69082 -0.181538 -0.256595
O 10.73535 4.02026 9.23707 0.893059 1.692212 -0.341792
O 9.7427 12.27305 2.86803 0.10752 -1.231064 -0.016817
O 12.44265 2.67574 2.39149 0.852452 0.039606 0.249755
O 5.40567 5.92573 1.35098 0.733134 -0.885579 1.773303
O 7.38912 11.75995 4.62602 1.319668 -1.191155 1.178302
O 9.74544 2.63528 3.57149 -0.43762 0.513766 0.57909
O 0.16012 11.00815 10.74875 -0.39639 0.016039 0.279682
O 8.21349 2.75106 8.91633 -1.645601 -0.442408 -0.094331
O 4.78851 9.37576 6.0406 1.108102 0.814003 0.102858
O 3.01779 0.45223 10.37395 -0.387833 1.213237 0.68019
O 10.35935 2.46163 11.43645 0.439798 -0.390498 -0.645971
O 11.80535 9.73875 6.5343 -0.9963 0.542613 -0.25068
O 6.15934 11.33135 2.12298 -0.83066 -0.639628 -0.120718
O 6.08275 2.33239 2.48225 0.885988 -0.415243 -0.021455
O 6.80131 6.01531 10.03055 -0.28292 0.900216 3.759655
O 8.6385 1.76918 1.18086 0.55461 0.759751 0.350262
O 9.04257 5.78838 7.02032 -2.964987 2.061807 3.319176
O 11.72125 11.98965 4.65639 -0.961859 1.555424 -0.259684
O 11.23055 9.23626 3.46684 0.343536 -0.730896 -3.407878
O 6.39425 7.10252 7.44115 0.158587 -1.328728 0.155834
O 0.10013 7.06023 4.12909 0.1351 0.721397 0.555348
O 0.90993 5.75746 1.91614 0.630198 -0.358048 0.570791
O 7.44046 4.08062 12.56455 -0.683396 -0.747569 -0.42642
O 11.92315 9.45624 0.18187 0.670874 -0.154645 -0.269635
O 9.45584 10.83095 0.80399 -0.168144 -3.273368 -0.35448
O 2.28206 7.04333 8.41694 1.690821 -0.608798 -0.763064
O 4.08573 6.513 6.11741 -0.050789 -0.138656 0.402618
O 2.08938 8.10895 5.79868 -0.253209 0.383395 -0.790498
O 0.67969 3.95126 5.04235 -1.887799 -0.042116 0.083353
O 0.28043 6.40234 12.06705 -0.058727 2.071168 -5.219985
O 0.52681 3.94031 10.25635 0.196688 0.876548 -0.027844
O 2.21304 1.17935 3.70118 -0.404969 0.291237 -0.127688
O 9.5531 8.01833 10.31595 1.111935 1.074679 0.262454
O 4.57379 3.31027 4.89753 2.445096 -0.533042 2.889908
O 4.13411 11.03305 8.96673 0.690597 0.993203 -1.003319
O 1.40767 0.62109 7.65717 -0.304643 -0.563885 -2.14817
O 1.66209 8.4479 10.72205 0.866351 -0.506237 0.290649
O 2.71947 10.73545 4.42451 1.480398 1.760444 -0.387768
O 10.36775 5.53215 12.17375 1.105632 -1.385448 3.359504
O 10.61935 5.10348 4.86995 -0.442653 0.856402 -0.519114
O 12.04325 0.38663 0.69842 0.156444 -0.208243 1.677892
O 2.96191 2.52235 0.60961 0.062063 -0.171487 -0.497261
O 7.166 9.05208 0.40087 -1.165665 0.474873 -0.125159
O 2.82207 4.14729 6.49252 -1.178696 0.421455 -0.546835
O 7.57064 4.10325 4.30946 0.757229 -2.492378 -0.381541
Na 8.49786 3.26516 6.70395 -0.013133 -0.179932 0.153781
Na 9.23134 12.68415 12.32905 0.000162 0.431355 -0.353161
Na 8.82119 4.26701 10.55555 0.01123 0.058026 0.437726
Na 0.71294 8.47139 7.70483 -0.355297 0.46497 -0.067775
Cl 6.04419 7.10129 3.96564 0.667023 -0.115175 0.209238
Cl 5.3381 2.5737 10.66285 -0.635387 0.214206 0.214264
Cl 4.25496 0.26097 6.4942 -0.563031 -0.07125 -0.344922
Cl 8.15953 10.05425 7.57133 -0.098125 -0.245693 -0.09735
200
energy=-1089.53538259 config_type=nep2xyz pbc="T T T" virial="-13.97656 3.07462 0.90962 3.07462 -13.80871 8.00317 0.90962 8.00317 -24.22056" Lattice="12.574859619 0.0 0.0 0.0 12.574859619 0.0 0.0 0.0 12.574859619" volume=1988.4260145126327 Properties=species:S:1:pos:R:3:force:R:3
H 0.17934 6.63635 7.60275 -0.228371 -0.445949 0.51808
H 12.55542 6.13749 9.04136 0.539317 -0.546737 0.708432
H 1.4433 4.07693 12.54484 0.437636 -0.204037 -0.400639
H 1.12326 3.93591 1.48169 0.132756 -0.605076 -0.527978
H 0.57062 7.231 10.65674 -0.199998 -1.278488 0.084775
H 1.2606 5.77444 10.88634 -0.870573 0.279809 -0.602547
H 9.83815 8.74722 10.28274 -0.295994 0.201744 -0.107552
H 9.96324 10.27834 9.95525 0.009982 0.140592 -0.127673
H 6.00337 3.54552 9.52329 0.517304 0.245515 -0.27875
H 7.41581 3.69747 9.96259 1.14919 -0.08541 0.792725
H 10.46294 11.80584 0.06714 1.085301 -0.401085 0.268571
H 11.11954 10.43534 0.35614 0.339071 0.475765 -0.197905
H 4.19537 5.27808 9.42475 -0.040257 0.214276 -0.437656
H 5.49303 5.1977 8.58563 -0.165806 -0.008232 -0.041855
H 4.32677 10.34944 9.29073 -0.588869 -0.377427 0.316503
H 3.12938 9.65415 10.09754 1.443461 0.310095 -1.2092
H 11.82724 8.94234 9.58565 1.211817 0.534122 0.70361
H 0.11465 9.90586 10.56534 -0.315341 0.34746 0.191305
H 3.4701 1.5991 7.46179 -0.182 -0.279685 -0.291884
H 4.32762 2.252 8.60327 -0.187393 0.056851 1.697571
H 3.64938 10.39614 5.81105 -3.517144 0.155299 0.408022
H 1.894 10.42754 5.71858 -1.220206 -1.069097 -2.073582
H 1.95762 3.54345 6.44226 -0.269898 0.753141 0.272202
H 3.15208 3.64909 7.28894 0.262331 0.431538 0.35021
H 7.30557 6.28434 9.21585 -0.038812 1.962239 0.095617
H 7.52966 7.44429 8.18103 -0.348614 -0.359605 1.428778
H 11.25264 3.16361 11.41704 0.281598 -0.998967 -1.559367
H 12.10354 3.64113 0.09766 -0.769573 -0.428759 -0.490893
H 1.52047 6.98682 3.86371 0.563964 -0.139182 0.858094
H 1.3232 5.53928 4.11797 -0.182099 -2.16919 -0.402559
H 8.17646 1.08556 4.25138 -0.127563 1.194059 -0.068182
H 9.36426 0.12585 4.75716 -0.462081 0.40488 -0.358951
H 2.47243 8.67385 2.28148 -1.512274 1.845887 -1.236687
H 3.26587 7.54647 2.36587 0.368034 -0.332742 0.703108
H 5.49151 7.01777 2.63643 0.050746 0.143801 -0.989251
H 5.60846 6.99492 4.08552 1.158086 0.253994 -0.635439
H 8.17991 9.91815 7.96707 0.168138 0.00999 1.325786
H 8.17395 8.77314 6.86325 0.029767 0.235353 0.104008
H 1.25589 12.52004 8.02 -0.377538 0.005281 -0.41951
H 12.24734 12.48294 8.35574 1.284223 -1.088208 -0.315812
H 2.69531 3.51156 3.49992 0.028714 -0.202632 0.143338
H 1.15579 3.39891 3.48341 -1.997615 -1.794002 0.643791
H 11.92784 2.64986 9.62159 2.672696 0.650744 -0.693379
H 10.88594 1.56013 9.34918 -0.263767 -0.457033 0.018947
H 12.22444 4.73734 6.80581 0.959015 2.154829 1.858369
H 11.21494 3.72615 6.56918 -0.998658 -0.577117 0.019395
H 8.20303 6.263 0.78121 0.460006 0.944743 -0.472864
H 8.25732 7.46851 12.20144 -0.013573 -0.962213 1.088073
H 4.94179 11.60534 1.09941 0.695719 -0.63351 0.082634
H 4.98897 10.01534 0.91068 0.497089 0.867076 0.303918
H 8.68556 0.61737 0.89885 -0.044987 -0.768766 0.115431
H 8.69083 12.15224 2.03074 0.109721 0.087893 -0.874166
H 0.78127 10.21914 1.66524 -0.143126 -1.650116 -1.122447
H 1.20648 11.57604 2.02995 -0.754462 0.083329 0.528396
H 1.61277 1.01188 5.84361 -1.136584 0.600949 -0.919538
H 2.64213 12.46674 6.09626 -0.654495 1.199017 1.213904
H 2.61167 7.57565 7.03572 -0.090833 0.219302 0.41845
H 1.48642 7.21416 6.02291 0.113922 0.509003 1.36851
H 10.23514 9.77392 7.38904 0.567213 0.099407 0.297224
H 10.77954 8.54161 6.79224 0.394721 -0.49843 -0.463355
H 3.22843 5.35092 11.80074 -0.573972 -0.87815 -0.935938
H 3.2055 4.05121 10.81204 -0.304064 -0.068575 0.534142
H 4.56711 3.39714 4.30408 0.162067 0.747278 0.992167
H 4.58151 2.83232 2.97748 0.504462 -0.356841 -1.109656
H 1.38431 3.5872 8.45138 -0.256671 -0.946093 1.297088
H 1.73312 2.41591 9.50675 -0.050441 0.348371 -0.066209
H 3.45869 6.00139 4.66324 -0.944621 0.089564 0.497743
H 4.58174 5.45747 5.67751 -0.510173 0.107909 -0.622621
H 5.39615 3.59869 0.14716 0.25415 -1.051365 -1.658547
H 4.78857 4.62818 0.97037 0.792491 -0.643645 0.662637
H 10.09034 3.17331 1.18816 -0.709707 -0.195181 -0.006831
H 8.95126 3.53421 2.20675 -0.721882 0.947881 0.302059
H 5.43364 0.05915 10.29804 0.767334 -0.29578 -0.026413
H 4.53955 11.93874 11.14024 -2.760083 -0.164318 1.892452
H 4.62248 8.68719 5.82787 -0.04677 0.820784 -2.041437
H 4.46242 9.23437 4.17481 -0.054084 -0.462278 1.729662
H 11.45424 7.16374 1.97968 0.165586 -0.441876 -0.345328
H 11.94964 5.72206 2.30349 0.001724 -0.492478 0.46818
H 0.78303 12.11524 10.20084 0.425269 -0.26243 1.160005
H 0.0691 11.86274 11.58654 -0.672747 -0.265729 0.718971
H 2.31642 7.65086 0.32459 -0.904963 0.408267 0.482355
H 0.89927 7.4112 0.91923 -0.084475 0.357023 -0.153396
H 10.09414 10.73994 4.03496 -0.119928 -0.145588 -0.084482
H 8.73156 10.04354 3.37675 2.352379 -0.147894 0.898594
H 6.80343 8.19363 10.56034 0.869139 -0.465058 -1.787659
H 5.9213 8.29701 11.67534 -1.578686 -0.342776 1.212455
H 12.33884 1.28852 4.08134 0.777476 0.769171 0.418067
H 12.56894 2.24665 5.31203 -1.375848 2.676487 1.385676
H 7.53619 5.91078 2.72344 -0.799278 1.243279 1.101347
H 6.99376 4.72671 1.87869 -0.67317 -0.17971 -0.108754
H 10.79254 6.63392 9.05079 0.251874 -0.146417 -0.34245
H 9.30011 6.96514 9.1733 -0.073808 0.018299 0.328288
H 7.41231 3.43321 3.86556 0.097443 0.366074 -0.023044
H 6.66014 2.33801 4.61449 0.647856 0.660782 -2.514435
H 5.02317 0.1886 3.57564 0.096012 -1.014087 1.904282
H 4.80502 0.52811 5.058 -0.038228 -0.270549 -0.169839
H 9.45459 3.14093 11.05774 -1.248455 0.11559 -0.274732
H 8.44439 3.33601 12.16614 -0.282013 0.080254 0.651705
H 6.76493 3.50486 6.79509 -0.801663 -0.208554 -0.313772
H 6.98731 4.84869 6.44791 1.158272 2.213042 -0.15151
H 1.358 0.45329 0.22986 0.025406 0.494241 1.625365
H 0.85701 1.13643 1.63058 -0.249926 -0.049881 -0.44995
H 10.55744 7.29846 5.61633 0.034129 -0.248744 -0.586371
H 10.44944 8.23818 4.42356 0.001144 0.492437 -0.005482
H 11.70874 11.02724 5.32783 0.125658 0.228023 0.167036
H 11.81084 12.55509 5.08556 1.178421 1.069374 0.06
H 9.72251 8.83535 0.73242 1.681887 -0.272746 0.010378
H 10.57664 9.42199 1.84428 0.282868 -0.380403 -0.480158
H 7.70543 0.51635 7.71846 0.790416 -0.403654 0.513326
H 6.38089 1.294 7.69814 0.624641 -0.88385 -1.207761
H 11.45934 0.20612 2.30869 0.665443 0.387659 0.107895
H 11.13614 1.6734 2.28698 -1.303602 1.294217 -0.198275
H 3.58014 0.96276 1.18187 0.495162 -1.375203 0.479752
H 4.90685 1.29963 0.73169 1.03142 0.031889 -0.368647
H 6.7264 10.57624 2.70953 -0.618524 -0.182751 -0.49053
H 6.74469 9.17867 3.40916 -0.597074 -1.297873 -0.237685
H 8.93736 1.82998 6.6437 -0.272791 0.175489 -0.113772
H 10.35674 1.79747 7.14592 -0.753667 0.612595 -0.831018
H 0.48572 8.89733 5.01074 -0.37598 0.407269 -0.694227
H 0.55109 10.30174 3.9597 0.330978 -1.939333 1.681107
H 11.57284 4.47904 4.42392 0.150705 -0.556176 -0.375888
H 10.85664 3.95838 3.10195 -0.065219 -0.113637 0.31548
H 8.41576 1.13871 10.61054 0.125571 -0.107426 -0.458572
H 8.45916 12.41124 9.53471 -0.204816 1.782233 2.170349
H 4.34953 8.42969 8.03696 -0.605044 0.092084 0.028701
H 4.39997 6.89806 7.99762 0.059959 -0.652279 -0.124783
H 2.14635 10.89914 11.53284 -1.402644 -0.092423 0.266938
H 2.43527 9.32777 12.00674 -1.572316 -0.751869 0.749246
O 12.20024 6.01307 8.14773 0.052968 0.915632 -1.428993
O 0.96273 3.50958 0.59735 -0.034575 0.945557 0.970141
O 0.39149 6.23779 10.65594 0.98725 1.249031 0.719169
O 9.47052 9.63541 10.48484 -0.11721 -0.206061 0.188991
O 6.84973 3.9754 9.24287 -1.775838 -0.122741 -0.531439
O 11.36384 11.39064 0.1726 -1.241457 0.455652 -0.528322
O 4.56569 5.49809 8.54789 0.277172 -0.773765 0.862378
O 3.66512 9.62847 9.212 -0.63409 0.416088 1.057645
O 0.1114 9.07342 10.08994 -0.77069 -1.052703 -1.262803
O 4.2699 2.11231 7.67406 0.569836 0.21138 -1.418267
O 2.6467 10.68084 6.21361 5.0825 1.165014 1.409912
O 2.31739 4.14337 7.13286 -0.005185 -1.180159 -0.705472
O 7.34694 7.30449 9.18042 0.235753 -2.104161 -1.672765
O 11.15674 3.56744 12.25974 0.318258 1.494164 2.369257
O 1.60254 6.30731 4.58253 0.01139 2.614449 -0.377279
O 8.58446 0.23308 4.16595 0.764173 -1.930856 0.18074
O 2.8606 8.1989 2.98161 1.22048 -1.384211 0.70293
O 6.14537 7.30453 3.28436 -1.034435 -0.494235 1.473853
O 8.08145 9.74152 7.04889 -0.373647 0.084771 -1.73321
O 0.53334 11.95324 8.36696 -0.730298 0.933007 0.600102
O 1.85319 3.98124 3.32919 1.658644 1.679574 -0.883699
O 11.02584 2.43485 9.72343 -2.469763 -0.116131 0.719852
O 12.05544 4.02798 6.23413 -0.233701 -1.690876 -1.918005
O 8.76301 6.96003 0.32528 -0.305349 0.124031 -0.759179
O 5.52935 10.79084 1.1931 -0.721144 -0.492974 -0.436656
O 8.73617 12.21684 1.03811 -0.174259 0.839985 0.822516
O 0.62594 10.82694 2.36084 0.800032 1.607236 0.861125
O 2.31526 0.8188 6.45195 1.803876 -2.341677 0.371626
O 1.6314 7.69961 6.90627 -0.50149 -0.932453 -1.618863
O 10.99364 9.15873 7.49196 -0.410765 0.849516 0.569873
O 2.65448 4.79084 11.18044 0.49825 1.547192 0.95273
O 4.24036 2.626 3.84374 -0.762227 -0.08931 0.076086
O 1.04334 3.05861 9.27581 0.33132 0.523807 -1.075824
O 4.30817 5.56367 4.74122 1.529623 -0.26638 0.155811
O 5.40418 3.83708 1.05795 -0.953328 1.713251 1.145081
O 9.40358 2.80143 1.8077 1.623437 -0.662748 -0.979425
O 5.3349 11.75844 10.72084 2.127497 0.319114 -1.826451
O 4.74411 9.42325 5.11524 0.019783 -0.544933 1.031401
O 11.88964 6.37283 1.59326 -0.069533 0.912264 -0.072279
O 0.95132 11.96104 11.19384 -0.043357 0.610531 -1.886106
O 1.45715 8.13304 0.5542 0.846009 -0.966122 -0.238489
O 9.78092 9.94323 3.56534 -2.149705 0.035264 -0.994131
O 6.78122 8.5796 11.42694 0.858962 0.898798 0.731948
O 0.33267 1.50806 4.88798 0.489806 -2.7676 -2.053538
O 7.78679 5.2011 2.15708 1.110373 -1.312459 -1.01561
O 10.11014 6.87012 9.70436 -0.089475 0.317011 0.407645
O 7.03873 2.56615 3.67488 -0.670046 -0.949284 2.802198
O 5.08465 12.34584 4.50895 -0.153105 1.582868 -1.813041
O 8.47164 3.18854 11.22204 1.530043 -0.427073 -0.432467
O 6.39969 4.17098 6.17482 -0.241694 -1.862823 0.456943
O 1.54705 0.5994 1.21063 0.78917 -0.75272 -1.353796
O 11.11284 7.80225 4.98149 -0.127502 -0.561402 0.319039
O 11.20244 11.86474 5.27304 -1.506133 -1.599973 -0.024047
O 10.69914 8.99788 0.93752 -2.044465 0.266964 1.223252
O 7.01264 0.76866 7.11369 -1.421141 1.165502 0.471644
O 11.82664 1.09155 2.55069 0.260777 -1.822763 0.025541
O 4.50924 0.57122 1.21637 -1.986056 1.497815 0.019888
O 7.04961 10.07634 3.47138 1.331202 1.081771 0.097408
O 9.76746 2.31227 6.52615 0.972655 -0.812916 0.839554
O 0.61144 9.85633 4.92392 -0.486278 1.602225 -1.502295
O 11.71794 4.13194 3.50654 -0.133433 0.657602 -0.015797
O 8.01153 0.29077 10.37624 -0.416417 -1.537668 -0.893997
O 4.18563 7.67449 7.43861 0.445797 1.143428 -0.626126
O 2.73479 10.14974 11.68114 2.813765 0.706407 -0.92033
Na 1.18667 9.66581 7.84214 0.022495 0.248607 0.002292
Na 7.42688 10.83464 11.62084 -0.153541 0.280031 0.028642
Na 6.83568 11.17964 5.34996 0.054458 0.068172 0.364836
Na 10.96874 6.23148 12.07314 -0.241732 -0.151453 -0.325735
Cl 4.23139 6.76016 0.53306 0.026026 -0.009252 -0.126879
Cl 4.21699 2.38209 10.87654 0.498658 -0.198933 -0.304067
Cl 8.46746 6.80202 6.36041 -0.115429 -0.046566 0.144801
Cl 9.95046 12.19004 8.45968 0.483014 -0.138557 -0.482904
200
energy=-1094.39117893 config_type=nep2xyz pbc="T T T" virial="-11.13123 3.79955 -8.30317 3.79955 -21.24159 6.02175 -8.30317 6.02175 -24.47107" Lattice="12.404477119 0.0 0.0 0.0 12.404477119 0.0 0.0 0.0 12.404477119" volume=1908.6899512009784 Properties=species:S:1:pos:R:3:force:R:3
H 10.43845 5.08735 9.77124 0.083102 0.550545 0.051773
H 10.28775 3.61892 9.61432 0.133735 0.242625 -0.429016
H 3.18966 2.47832 2.44613 2.110631 -1.764149 0.655929
H 4.80949 2.36042 2.25107 -1.29699 -1.020734 1.063062
H 7.78815 2.33772 6.82714 -0.272841 -0.351169 0.462439
H 8.21655 0.91963 7.52067 0.31557 0.673446 -0.426137
H 10.93845 4.27856 2.27367 -1.379413 -0.093272 -0.494909
H 9.64322 3.65468 2.85657 -0.205024 0.281788 -0.819652
H 2.28354 2.92249 0.62447 -0.348579 -0.300735 0.422319
H 2.81353 4.04708 1.40644 0.619137 1.723295 0.163694
H 7.09992 7.55843 0.00745 0.39533 0.989965 1.939416
H 6.71904 8.58916 1.3258 -0.865496 -0.096222 0.13697
H 6.80966 9.35313 6.11442 -0.186977 -0.243743 0.30305
H 7.0719 9.93595 4.70571 0.245225 -0.707905 0.661773
H 9.06636 6.2575 6.11504 -0.113424 -0.229088 -0.442821
H 8.47092 6.05226 7.46438 0.365515 -1.419773 -1.445648
H 10.30265 9.27428 0.38867 -0.72822 -0.306915 0.410883
H 8.96952 9.27406 1.33413 -0.242951 -0.530546 -0.617243
H 3.96498 11.77715 5.75963 -0.650087 0.636501 0.173533
H 5.41461 11.63875 5.17691 -0.500921 -0.088398 0.227143
H 3.61199 7.14198 1.45904 -0.148277 0.617185 -0.770522
H 3.76053 8.65793 1.76394 -0.002986 -0.330287 -0.709186
H 7.33608 0.14928 2.75231 -0.075556 -0.240642 -1.188
H 6.54077 11.50255 1.98863 0.587862 0.378393 -0.274346
H 11.27985 10.68585 9.11793 -0.343217 -0.354768 0.100829
H 11.05495 12.09885 8.79945 -0.362764 0.823352 -0.083881
H 6.15064 6.14823 11.00825 1.073772 -0.017992 0.712166
H 6.58796 5.61569 0.09342 0.08623 -0.100481 -0.636504
H 2.50904 11.92785 8.41781 -0.121927 -0.010637 0.601457
H 2.59155 12.16665 10.01395 0.221518 -0.02715 -0.797101
H 2.89639 4.94543 10.96345 0.386767 0.096524 -1.170074
H 1.64403 5.30731 11.80135 -0.321558 -0.031046 -0.019607
H 5.90286 1.27867 9.61576 0.188682 -0.00823 0.350468
H 5.03429 2.45604 9.93345 -1.393324 1.271903 -0.36533
H 0.36381 10.47975 5.34899 0.577883 0.398123 0.203213
H 11.92765 9.72291 4.33619 -0.434834 -0.201834 0.243604
H 0.14042 0.85446 7.89626 1.703211 -0.537564 -0.669461
H 11.39215 1.77894 7.53777 -0.025437 -0.508683 0.479853
H 0.93088 10.09505 11.49405 0.211745 0.19754 -0.482472
H 1.45581 10.68535 10.15555 1.63964 1.484913 -1.309721
H 9.32288 7.29536 4.14448 -0.387693 0.293156 0.583807
H 8.88266 8.41496 5.19771 -1.17579 1.044504 0.24078
H 1.02366 7.07415 3.032 0.618419 -1.180142 1.361044
H 0.51238 6.57218 4.48834 -0.219741 0.659064 0.358295
H 5.85938 7.27329 3.92877 -0.385786 -0.536114 0.463883
H 6.79304 6.11655 4.03672 0.183627 -0.537517 -0.007532
H 10.48365 2.61998 5.32439 0.937267 -0.029553 -0.05846
H 9.69591 2.71407 6.57797 1.889965 0.20125 0.332802
H 5.30521 0.07966 8.02864 0.632285 -0.133996 -0.063484
H 6.75544 11.83665 8.33429 0.081091 0.104617 -0.348551
H 7.55258 2.89931 10.59985 -0.598548 0.16157 -0.1583
H 8.20861 2.44948 9.28052 -0.019224 -0.077084 -0.460112
H 12.22145 10.01655 2.37011 0.030761 -1.777721 1.534414
H 10.90885 9.34002 2.39926 0.520461 -0.812077 0.726245
H 4.41492 2.88482 4.21289 -0.387317 0.068912 -0.048179
H 3.98797 4.15693 5.23683 0.485883 -0.954227 -0.624512
H 9.18731 11.25985 8.29874 0.253591 0.179646 0.087586
H 8.29749 10.73515 7.17737 -0.295394 -1.155632 -0.835313
H 11.63325 7.81929 8.28339 -1.239661 -0.899696 -0.08013
H 10.22095 7.21419 8.65737 -1.103464 0.760803 0.10632
H 12.13565 1.84795 9.85925 0.31205 0.96703 0.465317
H 12.02265 3.34194 10.39835 0.47941 -1.012204 0.177261
H 1.04123 8.07164 9.58438 0.571036 -0.367899 0.131206
H 0.665 6.94206 10.50285 0.24044 -0.309987 0.274795
H 4.03321 6.69223 6.55478 1.125608 -0.131142 0.925005
H 5.52889 6.95736 6.29402 0.133351 -0.276512 0.058012
H 4.69612 2.71178 6.56318 0.010053 -0.014833 0.871291
H 3.73615 1.82264 7.31293 0.503187 0.152747 0.299835
H 7.86804 12.00665 5.1456 -1.911796 1.12747 -0.512315
H 7.36729 0.87435 4.38968 0.340842 0.895701 -0.156676
H 1.61253 8.05272 1.23737 1.040436 -0.086281 -0.484766
H 0.21211 8.35492 1.77658 -0.046771 -0.772928 -0.186334
H 7.86138 4.18369 5.92815 -0.657234 0.786836 0.231568
H 6.31589 3.7456 5.50549 -1.151549 0.53504 -0.358485
H 7.70741 2.77787 2.94556 0.751041 -0.804859 0.205998
H 7.85868 2.74759 4.4333 0.186803 0.137075 0.521006
H 7.33806 9.36831 9.94275 -0.51325 -0.00266 0.215125
H 6.9794 9.2812 11.46575 -0.052884 0.340622 -0.257605
H 8.85796 6.94058 10.14105 0.324174 -0.561108 0.478057
H 8.65976 5.9691 11.36775 0.912505 0.822026 -1.209416
H 0.4094 4.97961 3.06329 0.194744 -0.752602 -0.008604
H 0.79891 3.71814 2.16948 -0.452461 0.538652 0.868015
H 12.32755 7.90448 6.05825 0.637863 0.98718 0.344678
H 10.99335 7.31399 5.63909 0.853719 -0.088696 -0.200935
H 5.18415 6.79386 8.86309 0.079176 -0.534276 0.483294
H 4.38424 7.06433 10.13535 -0.933937 0.902368 0.782076
H 12.37315 2.57751 3.80961 0.56601 0.227998 0.163336
H 0.53614 1.36543 4.6927 0.991366 -0.019054 0.970979
H 12.35895 6.55121 0.25608 0.32108 -0.347318 -0.063722
H 11.26725 5.77985 11.88005 0.946299 -0.154411 0.013007
H 11.89555 9.71632 7.04173 -0.150467 0.276378 0.09512
H 0.81894 9.44606 7.83207 -0.337783 -0.01734 0.116809
H 4.35502 4.56912 9.24193 -0.143977 0.285621 0.040553
H 3.66805 3.24978 8.75015 0.338383 0.847989 0.22617
H 1.78191 11.30785 1.24005 -1.040515 -1.140615 0.132746
H 0.29446 11.49585 0.77261 0.644262 -1.122305 0.115666
H 1.65514 4.60003 8.692 0.241078 0.015352 -0.262059
H 1.34831 6.10934 8.48632 0.170282 -1.587185 -0.754471
H 4.79627 8.46316 7.51667 0.005616 1.260472 0.110469
H 4.82707 10.07985 7.12433 -0.241186 -0.745214 0.337139
H 9.52996 2.87213 0.67068 -0.352092 -0.758173 -0.166632
H 9.22678 2.24501 11.65985 -0.065923 -0.117024 0.452606
H 3.73845 0.54873 11.66695 1.116568 -0.998704 0.338528
H 4.13229 11.84145 0.36988 0.389894 0.792732 -1.789084
H 2.07717 7.98555 4.37027 0.610241 1.033529 0.740921
H 3.23003 9.16512 4.55572 -0.432083 -0.307029 0.169963
H 7.95577 11.12085 10.86775 -1.032493 -1.701876 -0.731323
H 8.96091 12.22915 10.46105 0.857992 0.077427 -0.976997
H 11.22545 12.00315 10.98255 -0.054208 -0.111134 0.508111
H 11.60685 0.87567 11.78715 -0.281667 -0.513927 0.134883
H 2.91615 9.15804 7.78503 0.614147 0.109523 -0.080739
H 2.14165 8.59395 6.52439 0.481377 0.442136 0.232325
H 7.97042 6.86391 2.39573 -0.250793 0.364871 -0.070668
H 8.84913 5.6497 2.49798 0.282701 -0.669834 0.354743
H 2.35035 5.24976 6.73704 -0.304342 -0.121094 0.384703
H 2.35639 5.786 5.26018 -0.043374 -0.034373 -0.337993
H 2.53366 8.43243 10.67615 -1.101111 -0.332039 -0.896156
H 3.30045 8.4346 11.92885 0.801883 -0.121153 0.096797
H 10.58005 7.97631 10.77965 0.409703 0.60457 0.821416
H 11.57555 9.1817 10.95335 1.746195 1.875981 -1.778051
H 11.22375 0.48616 3.29251 0.826748 1.334594 0.647244
H 11.21505 11.40645 3.65763 -0.36057 0.674419 -0.374559
H 4.8176 4.91182 1.82809 0.600966 -0.984011 -0.971349
H 4.76718 5.84062 2.92545 -0.209485 0.163941 0.847191
H 1.568 2.06811 11.15785 -1.235176 0.387398 -0.496411
H 2.8814 2.91076 11.21335 -0.490898 -1.199171 -0.38892
H 4.03674 11.13085 2.70405 0.132399 0.064963 0.142955
H 3.82823 0.22764 2.28028 0.674922 2.280936 0.921471
O 10.90715 4.33916 9.35637 -0.754429 -0.827747 0.565588
O 4.05412 1.88509 2.79132 -0.444868 2.684984 -1.798335
O 8.39362 1.89435 7.47879 -0.189708 -0.180057 0.067084
O 9.92165 4.22375 2.0905 1.503545 -0.392784 1.139726
O 2.23747 3.30677 1.53305 -0.355647 -1.373664 -0.606313
O 7.41033 8.28494 0.72899 0.328159 -1.144995 -1.737774
O 7.52069 9.52102 5.49101 -0.0622 0.993878 -0.860729
O 8.78647 5.4854 6.66061 -0.184815 1.828156 1.699783
O 9.88705 9.55907 1.25733 0.814486 0.736262 -0.188289
O 4.63754 11.14085 5.52355 1.016928 -0.427895 -0.037649
O 3.40251 8.04973 1.06613 0.351067 -0.578108 2.037181
O 7.19931 12.22175 1.82373 -0.446619 -0.32145 1.124239
O 10.63555 11.40335 9.34544 0.666508 -0.443623 -0.114232
O 6.91574 6.10486 11.70935 -1.520456 0.131258 -0.195073
O 2.61775 11.48035 9.3139 0.4384 0.522482 0.421826
O 2.55127 4.97725 11.84395 -0.029713 -0.168737 1.095569
O 5.76996 1.99742 10.28425 1.369086 -1.179806 0.287389
O 11.85835 10.21835 5.20348 -0.018434 -0.082803 0.155161
O 11.72295 1.15802 8.24885 -1.394279 1.111677 -0.121907
O 0.86385 10.06385 10.51305 -2.353111 -2.203692 2.179841
O 9.48971 7.70821 5.02715 1.467088 -1.740692 -0.504857
O 1.3168 6.6078 3.92558 -0.542838 0.547536 -2.456859
O 5.8759 6.33783 4.27936 0.041642 1.404964 -0.330254
O 10.65395 2.91734 6.23643 -2.437272 -0.364433 0.256692
O 5.93396 12.19225 8.71482 -0.726293 0.086059 0.333924
O 8.40212 2.79606 10.16645 0.973604 0.082217 0.121499
O 11.81745 9.19576 2.9114 -0.341187 2.854602 -2.975583
O 4.64793 3.42797 4.99627 -0.112776 0.940383 1.019766
O 8.50001 11.52715 7.65201 -0.136812 0.882055 0.702503
O 11.07175 6.97614 8.31778 2.251912 0.751937 0.117198
O 12.39635 2.43885 10.63145 -0.823483 -0.101884 -0.670238
O 1.43206 7.25705 9.98445 -1.570949 0.256295 -0.737663
O 4.89345 6.97086 7.03363 -1.117882 -0.143497 -1.174611
O 4.54402 2.3784 7.50959 -0.83121 -0.554609 -1.267618
O 7.02449 0.10537 4.85683 1.789406 -1.914098 0.784789
O 0.74782 7.64074 1.31994 -0.928424 0.302405 0.960042
O 7.20504 3.4821 5.74058 1.664843 -1.009644 0.200609
O 8.29024 2.33425 3.64495 -1.0051 0.634133 -0.932093
O 6.80049 9.81259 10.65615 0.624267 -0.609325 0.067631
O 9.3843 6.37098 10.77485 -1.130617 -0.309847 0.233328
O 0.14409 4.04885 2.87216 0.114918 0.533762 -0.672146
O 11.97295 7.07906 5.76642 -1.611448 -1.092266 -0.488759
O 5.00772 6.44071 9.77033 0.931986 -0.461225 -0.825574
O 12.33125 1.63317 4.02862 -1.421899 0.012927 -0.996639
O 12.22405 5.72891 12.12135 -1.099351 0.621828 -0.166554
O 12.23205 9.63243 7.9566 -0.272906 -0.277565 -0.134047
O 3.62352 3.96585 9.44918 -0.147719 -0.788728 -0.238084
O 0.94862 10.77065 1.0283 0.214038 2.185914 -0.184802
O 1.37369 5.20436 7.98258 -0.611465 1.665299 1.382742
O 4.70863 9.42718 7.86649 0.131958 -0.090048 -0.521429
O 9.26512 2.02819 0.21712 0.332094 0.707581 -0.013754
O 4.40138 12.20245 11.83985 -1.467728 0.264019 1.673072
O 2.37892 8.81332 4.89094 -0.080335 -0.644535 -0.742171
O 8.36167 11.92845 11.11895 -0.091931 1.962377 2.16311
O 11.31705 12.34475 11.91135 0.697811 0.57455 -0.697679
O 2.10104 8.7091 7.51249 -0.517572 -0.486349 -0.164069
O 8.29714 6.23593 3.05852 0.296124 0.389364 -0.642419
O 2.89838 5.34881 5.93049 0.793198 0.346595 -0.532555
O 3.42401 8.5616 10.96295 1.484026 0.684072 0.395642
O 11.05465 8.57568 11.40695 -2.110111 -2.233632 1.163964
O 10.93955 12.05185 2.96329 -0.741786 -2.056391 -0.443273
O 4.18086 5.49716 2.22664 -0.474447 0.85873 0.142474
O 2.51606 1.98009 11.26365 1.953084 0.719091 0.818094
O 3.52501 11.75185 2.16675 -0.957152 -2.398316 -1.258879
Na 4.67839 10.40875 10.02735 -0.102912 0.030376 -0.076914
Na 11.42585 5.08549 7.25786 0.006491 -0.119573 -0.123204
Na 6.64486 1.1485 12.20865 0.062075 -0.281422 0.09779
Na 9.58783 12.16265 0.86119 -0.230622 -0.057884 0.288946
Cl 8.23371 8.22996 8.38347 -0.025806 -0.226237 0.300072
Cl 6.3929 3.39315 1.31204 -0.136618 0.170367 -0.031373
Cl 5.48768 9.31524 3.09928 0.062871 0.034807 -0.275962
Cl 2.16026 0.51696 6.81742 -0.184697 0.05612 -0.31358
200
energy=-1088.11609298 config_type=nep2xyz pbc="T T T" virial="-10.63005 0.21933 -4.20266 0.21933 -14.82995 1.90463 -4.20266 1.90463 -7.13837" Lattice="12.850819588 0.0 0.0 0.0 12.850819588 0.0 0.0 0.0 12.850819588" volume=2122.23014815412 Properties=species:S:1:pos:R:3:force:R:3
H 11.75522 5.64621 10.07752 -0.367085 -1.04704 0.126536
H 12.08742 7.08983 10.06062 -0.103512 0.944317 0.424873
H 5.47061 5.88055 6.48169 -0.408862 -0.716913 -0.231894
H 5.85298 5.65259 5.05173 -0.262412 -0.435 -0.924036
H 9.72093 5.77368 1.8464 0.412457 0.310467 0.050978
H 10.45442 5.4279 0.49537 -0.073626 0.034125 0.145895
H 11.03962 6.04745 6.08254 -0.32072 -0.405701 -0.395254
H 10.76202 7.48798 6.18445 -0.114936 0.714725 0.201409
H 9.21756 7.06343 2.96421 -0.22266 0.914243 -0.09921
H 9.79141 6.64782 4.31334 0.645683 6.5e-05 1.271379
H 10.09202 1.36654 4.85 -0.028712 -0.738624 0.491124
H 8.90514 2.4022 4.60928 0.506009 -0.552839 0.424217
H 0.29267 4.60047 1.8135 -0.220278 0.67833 1.532987
H 0.06774 6.12353 1.80909 0.10414 -0.199913 0.631852
H 8.1137 9.54526 7.18229 1.209064 -0.604787 0.140206
H 6.98914 10.31412 7.73271 -0.267362 -0.146058 -0.175784
H 2.33741 9.44633 9.95146 -0.203738 -0.912359 0.986229
H 3.12094 10.55972 9.20007 0.039099 -0.159837 0.013826
H 10.34742 4.07714 8.85978 0.534007 -0.201516 0.22847
H 10.64692 2.8665 9.68646 0.592812 -0.296533 0.429906
H 8.19046 9.48031 2.1934 0.934648 -1.007299 0.331086
H 9.19313 9.45428 3.42334 0.216933 -0.735504 -0.610908
H 4.64304 2.61724 1.40593 1.585384 -0.986493 -2.117326
H 3.96509 2.1105 2.64688 0.358031 -0.099344 0.185003
H 2.84257 8.40629 3.57363 -0.35976 -0.19127 -0.361922
H 3.73618 9.03069 2.55144 1.690081 0.377269 -0.645503
H 0.6741 2.90494 11.88352 0.272985 0.906756 -0.173963
H 12.62442 3.66787 10.91672 -0.586117 0.438841 -0.259807
H 3.2576 3.18257 9.52781 -0.647473 0.082959 0.279713
H 2.80346 3.24885 8.17735 -0.216495 0.2467 -1.174239
H 6.44884 9.14676 5.54477 -1.566499 -0.573665 -1.159797
H 6.1036 7.89316 4.62935 0.079697 -0.323263 -0.314224
H 3.80783 7.12216 5.24907 0.041313 0.168277 -0.1461
H 2.45054 6.59348 4.89347 -0.069986 -0.287708 -0.325295
H 2.84196 7.50726 0.54214 -1.557584 1.241255 1.146096
H 3.35853 6.75046 12.25882 0.436526 -0.51941 0.777545
H 0.15295 6.55282 12.65852 0.10985 0.744303 -0.004
H 12.56982 7.9544 0.46279 0.514271 -0.646076 -0.384625
H 5.24794 11.23162 9.65818 2.951646 -1.488398 1.090343
H 4.28115 12.36412 9.72163 -0.672165 1.723118 0.729813
H 2.19079 11.32732 0.37545 0.588428 0.402052 0.61111
H 3.36312 12.13452 1.22736 -0.294925 0.093211 -0.514468
H 0.3642 8.14103 3.9833 -1.516306 0.973944 -1.047033
H 11.93992 7.90654 3.10248 -0.228723 -0.392083 -0.114642
H 8.87772 6.65561 6.82644 -0.642326 -1.22379 0.090356
H 7.90233 6.16067 7.93854 -0.273604 0.219797 0.404079
H 9.50641 2.97928 6.85221 -0.916922 0.62925 0.953198
H 8.8387 4.33669 7.35615 -0.289722 -0.328139 -0.17725
H 2.33299 3.01268 2.05587 -1.190321 0.109464 0.122349
H 1.20847 2.25139 1.37189 -0.484147 -0.129859 0.061504
H 6.42231 1.21924 0.00782 0.373524 -0.447815 -0.967927
H 6.75098 2.20113 1.1639 1.110265 0.63653 0.636162
H 5.8781 8.36412 1.64229 -0.13902 -1.299551 0.133039
H 5.28272 7.07473 0.88961 0.029508 0.415685 0.570535
H 0.95155 10.89812 4.64845 -0.278835 -0.452575 -0.312644
H 0.81113 12.41592 4.56252 -0.226929 -0.182733 -0.963451
H 11.09962 8.90725 9.5061 0.663472 -0.029022 0.465927
H 11.21992 8.92909 11.05572 -0.736978 0.408849 1.628677
H 0.28512 0.93766 12.52162 0.711536 0.249451 0.625387
H 1.64801 0.49392 0.21847 1.354345 -1.553912 0.556275
H 3.61869 9.88104 5.05345 0.029395 -0.346237 0.092817
H 2.67574 11.02802 5.25675 0.219832 0.444075 0.275596
H 3.63219 2.79794 6.33129 -0.462788 1.129692 0.051134
H 3.7237 4.37744 6.3708 0.466449 -0.067099 -0.196772
H 7.51544 6.16274 3.6582 -0.327027 -0.18387 -0.283277
H 6.18663 6.5474 2.89205 -0.012651 0.398927 -0.959503
H 12.27742 11.05722 3.04525 0.160062 0.301787 -0.714526
H 11.89962 12.11752 1.94158 0.127955 -1.073027 0.073548
H 7.97152 5.00197 10.17012 -0.808595 0.426247 0.144108
H 6.38704 4.59935 10.45032 1.149129 0.115944 -0.681255
H 12.34442 11.58282 11.10262 -0.386652 0.158939 0.031044
H 11.29292 12.06422 12.17742 0.122359 -0.381151 -0.54675
H 1.34175 5.07279 3.59513 -0.118224 -0.298261 -0.281371
H 2.38372 4.08202 4.32253 -0.217295 0.560606 -0.143968
H 9.38567 1.4679 12.43292 -0.241771 0.610046 -0.933912
H 8.72093 0.22624 12.08892 -0.450332 -1.102766 -0.61737
H 2.63341 1.01916 4.73772 1.481162 -0.164853 0.800034
H 1.66473 1.65142 3.73768 -0.598371 -1.083181 0.712537
H 11.61192 12.24882 6.18802 -0.634477 0.576273 0.713703
H 11.24362 12.42362 4.8923 0.105391 -0.632234 -2.630051
H 1.95778 6.42876 10.84022 -0.025462 -0.686058 -0.040384
H 1.74542 4.83531 11.06342 0.356679 0.928021 -0.142912
H 11.34452 9.82731 0.97557 -0.742184 -0.362424 -0.761532
H 10.23762 8.68827 0.759 0.40391 1.074957 -0.59313
H 3.03804 0.40743 11.75902 0.681952 -1.015829 0.259082
H 2.83197 1.59125 10.97642 -0.001029 0.824644 -0.641234
H 12.57392 6.38031 8.27382 1.413264 0.233005 -0.779348
H 1.03027 6.99681 7.42862 -1.263602 -0.720856 0.652916
H 6.46415 2.20852 5.42086 -0.150885 -0.306367 -0.125328
H 7.14238 3.59176 5.55767 -0.339873 1.265254 0.67664
H 11.17862 3.42119 4.7869 0.53476 0.91437 0.323959
H 12.13062 4.42866 4.07432 0.280028 0.381286 -0.368835
H 8.12971 8.02701 10.18102 0.207985 -0.909368 -0.055727
H 8.61805 6.76844 11.02162 -0.469445 1.173256 -1.522736
H 1.84627 9.58712 1.41057 -1.484249 1.070148 -0.317963
H 0.49135 10.56092 1.16328 -0.300132 0.024367 0.818066
H 2.64617 8.61558 7.99507 -0.511626 1.680559 1.869502
H 2.53858 8.16262 6.63669 0.134921 -0.358226 -1.177585
H 1.41983 9.23094 11.53662 -0.223787 0.434422 0.940259
H 0.6251 8.33668 10.62452 -1.577009 0.203921 -0.835302
H 9.21317 11.93552 8.93276 -0.701332 0.700943 0.900712
H 8.86814 12.8009 7.84017 -0.673104 0.812091 -0.198033
H 7.36401 8.66194 12.44622 0.903627 -0.159735 -0.183278
H 7.5561 7.62043 0.59566 -0.379833 -0.84217 0.817845
H 5.54422 8.42767 8.19347 -0.260545 -1.437032 0.689643
H 4.21603 7.63523 8.12486 0.483915 -0.350263 0.157117
H 5.39322 9.66269 3.51723 0.854239 -0.649259 -0.891158
H 5.14105 10.52082 2.24892 -0.086359 1.149121 -0.477975
H 6.93752 3.98108 2.0977 -1.360719 1.991653 -0.34048
H 7.25995 3.1022 3.35025 0.145824 0.321875 -1.553993
H 4.30152 12.80942 3.36193 0.705236 -0.815063 -1.512867
H 5.19608 0.35932 2.2069 0.975143 0.542172 -0.911228
H 1.09768 11.50332 8.9234 -0.950061 0.681867 -0.482065
H 12.61112 11.79222 8.13396 0.084155 -0.285453 0.29261
H 10.75062 1.09279 11.00132 0.282388 0.127675 -0.615969
H 10.48652 0.75101 9.51646 0.24932 -0.086497 0.423635
H 10.19312 9.59507 5.59532 -0.059884 0.848578 -2.642069
H 11.19632 9.51645 4.37315 -1.008017 0.090431 -0.3609
H 6.54545 12.43742 10.52252 -0.475635 0.286877 0.327624
H 5.33484 0.63096 11.01362 0.664477 -0.699866 -0.394846
H 8.95372 12.30132 5.43131 0.946898 0.211138 -0.624449
H 8.02566 11.57032 6.30182 -0.418822 1.281347 -0.190871
H 9.77728 10.53462 12.66682 -0.528202 0.103872 -0.610732
H 8.58416 10.70142 11.60222 0.381543 0.22368 0.146112
H 12.11432 1.65404 6.48226 0.838076 0.46625 0.335483
H 0.66724 1.72518 5.91868 0.153384 0.15039 0.60326
H 3.83126 5.05936 10.07642 -1.590565 0.31044 1.044551
H 4.89205 5.72369 9.24754 -0.380007 -2.535937 0.610601
O 12.51892 6.21966 10.08852 -0.030413 -0.125835 -0.280954
O 5.19732 5.32657 5.70713 0.364179 1.252252 1.51661
O 9.61127 5.39031 0.9647 -0.134126 -0.221386 -0.452778
O 10.32372 6.68219 5.88573 1.132341 0.278917 0.338926
O 9.56815 6.30387 3.44862 -0.738361 -0.489189 -1.332351
O 9.87405 2.2085 4.46881 -0.680186 1.545308 -0.708149
O 0.04309 5.34589 2.45655 0.269642 -0.684853 -2.00906
O 7.28408 9.90857 6.88292 -0.711922 0.679646 0.077501
O 2.33036 9.95567 9.15298 0.312129 1.404633 -1.363714
O 11.00432 3.75486 9.52289 -0.650124 0.629803 -0.591879
O 8.91053 8.93437 2.6103 -1.176913 1.075308 -0.147332
O 4.10942 2.89622 2.1089 -2.009189 1.023641 2.132529
O 2.82914 8.81582 2.67611 -1.496969 -0.262883 0.372473
O 0.6464 3.71443 11.31082 -0.027475 -1.600902 0.7324
O 2.41279 3.08612 9.04375 0.420614 -0.63155 0.881233
O 5.77402 8.77237 4.84256 1.249894 0.981162 2.199437
O 2.93193 7.43995 4.96389 0.135838 -0.562945 0.083036
O 3.57905 6.97356 0.34637 1.236864 -1.043038 -1.81278
O 0.33195 7.18151 0.53568 -0.810966 -0.188923 0.397628
O 4.44967 11.53412 9.33039 -2.679476 -0.423359 -2.045019
O 2.8173 12.13352 0.40303 -0.210806 0.009778 -0.295888
O 12.44562 8.60848 3.51622 1.861863 -0.652831 1.22056
O 8.16562 5.98105 7.0301 0.450394 0.528967 -0.006927
O 8.98493 3.3837 7.59918 1.020633 -0.092905 -0.681935
O 1.33704 2.83318 2.16028 1.76136 0.032388 0.065518
O 6.11502 1.58394 0.83063 -1.492222 -0.587645 0.267625
O 6.02485 7.3746 1.47941 -0.372111 0.669169 -0.401449
O 0.39864 11.57132 4.22109 0.595879 0.308072 1.730682
O 11.70012 8.69034 10.28422 0.012113 -0.144047 -1.904815
O 1.15214 1.28044 0.02015 -2.204607 1.159524 -1.217962
O 2.76899 10.09452 5.46212 -0.0781 0.243934 -0.036561
O 3.12484 3.63987 6.56849 0.252262 -1.356544 -0.31398
O 6.56094 5.95977 3.57201 0.806705 -0.254225 1.266504
O 11.99702 11.14782 2.09989 -0.630409 0.742996 -0.323946
O 7.30845 4.30122 10.20712 -0.438374 -0.695025 0.263821
O 12.22232 11.81742 12.03262 0.230132 0.371933 0.444892
O 1.79186 4.84592 4.43398 0.309282 0.161889 0.609602
O 8.82106 1.09891 11.68972 0.971296 0.455487 1.705991
O 1.71039 0.97118 4.49943 -1.098641 1.752395 -1.39367
O 11.02382 0.00648 5.68915 0.816627 -0.173614 1.718948
O 2.41747 5.57633 10.97892 -0.052321 0.204639 0.030563
O 10.84472 9.31409 0.2657 0.357562 -0.802617 1.652205
O 3.38994 0.81471 10.94522 -0.212342 -0.081531 0.411698
O 0.19876 6.40488 7.38863 0.124126 0.381727 0.111676
O 7.27339 2.7218 5.22335 0.710502 -0.695544 -1.162734
O 11.79292 4.19877 4.94549 -0.868404 -1.032631 0.263841
O 8.44669 7.09003 10.07832 0.284141 -0.234188 1.489706
O 1.28045 10.15842 0.78017 1.755808 -1.542298 -0.466524
O 2.56058 7.80028 7.52518 -0.075333 -1.072163 -0.430848
O 1.41261 8.36521 11.13542 1.943474 -0.456544 0.214176
O 8.82356 12.84601 8.82507 1.4574 -1.197307 -0.888822
O 8.08855 8.10907 12.81922 -0.282588 1.040496 -1.036862
O 5.14273 7.55297 8.47057 -0.103822 1.283881 -0.941861
O 5.47025 9.66763 2.51377 -0.314754 0.209512 0.825882
O 7.50126 3.30004 2.37379 1.40542 -2.092178 2.31276
O 4.59231 12.50502 2.42375 -1.365803 0.042286 2.447468
O 0.42284 12.22092 8.69042 1.031941 -0.801075 0.415068
O 11.18612 1.12263 10.11302 -0.795614 -0.09206 -0.137508
O 10.24732 9.79337 4.54131 1.171914 -0.436933 3.79353
O 6.3028 0.44864 10.92322 -0.291124 0.770737 0.138464
O 8.24877 12.51662 6.0277 -0.708683 -1.679932 1.041582
O 9.24197 11.19082 12.14482 0.049747 0.064054 0.300278
O 0.15756 2.01289 6.72156 -0.764456 -0.571539 -0.74565
O 4.60115 4.77645 9.59495 2.249716 2.606898 -1.460273
Na 9.86187 3.54209 2.20465 -0.31596 -0.285466 0.225189
Na 0.4009 1.66113 9.17842 0.283525 0.009619 -0.188262
Na 0.83932 4.41706 6.59058 -0.052405 -0.30198 -0.349385
Na 7.96279 2.1354 9.98652 -0.42811 -0.248114 -0.217921
Cl 7.19186 10.23462 9.98852 -0.09574 -0.105257 0.033214
Cl 10.42272 9.56449 7.76966 -0.203544 0.161174 -0.695
Cl 4.74175 1.09327 5.295 -0.640664 -0.031429 -0.155016
Cl 11.03112 2.44286 0.25428 0.307855 -0.156763 0.125367
200
energy=-1088.10081382 config_type=nep2xyz pbc="T T T" virial="-11.65685 3.75058 2.96509 3.75058 -14.32104 -2.83735 2.96509 -2.83735 -26.63769" Lattice="12.797642708 0.0 0.0 0.0 12.797642708 0.0 0.0 0.0 12.797642708" volume=2095.993557205163 Properties=species:S:1:pos:R:3:force:R:3
H 1.82894 3.2788 2.97629 0.037604 -1.288499 0.162673
H 1.13716 4.6102 3.18209 -0.467548 0.203555 0.448124
H 6.02297 3.61948 9.55876 -0.332747 -1.469966 1.361729
H 5.38585 4.88118 8.98106 0.543372 -0.383093 -0.216204
H 11.75256 8.02669 9.23995 -0.029855 -0.693017 -1.172213
H 10.78896 8.1148 8.02913 0.494594 -0.55611 -0.221187
H 0.04321 1.07622 5.80758 1.283329 -0.151517 -2.134929
H 0.40198 0.09295 4.61851 -0.239382 0.495974 0.271015
H 8.70535 3.72971 9.6564 0.728167 1.911897 0.525984
H 8.39589 5.26032 10.17866 -0.150605 -0.497449 0.12108
H 4.03438 12.11296 12.43266 -0.126194 0.366512 0.183977
H 3.59207 0.83885 12.42316 0.382309 -1.422131 -0.62289
H 12.47846 12.11896 10.18736 0.460361 0.249705 0.281132
H 11.70146 12.51706 8.8428 0.195723 0.804444 -0.817719
H 11.12306 10.59356 0.26385 -0.040386 0.751698 -0.578869
H 11.16486 9.5089 1.16584 0.007594 -1.178764 1.639045
H 3.27296 11.34356 8.73179 -0.476135 -0.015183 -0.98066
H 2.31878 11.96186 7.59863 0.607641 -0.050924 0.691834
H 11.85106 4.776 3.0752 -0.894008 -1.470973 -2.046661
H 11.76876 5.14261 4.51886 0.262954 0.364348 0.140076
H 12.52566 9.86282 9.91421 -0.323759 0.454906 0.473976
H 11.99906 9.42921 11.42296 1.037318 -0.321368 -2.0928
H 5.96187 12.01446 3.46393 -0.927336 1.066948 -1.169228
H 6.34581 12.40316 2.07651 2.671965 -0.516819 -2.723672
H 11.50216 2.71661 1.8177 -0.237497 1.733161 -0.859415
H 10.96706 4.12672 1.05623 -0.345056 -0.8419 -0.304554
H 4.98346 3.26367 3.72872 -0.11747 0.286947 -0.010113
H 5.28216 1.72901 3.62999 1.379461 -1.453195 -0.929668
H 4.30373 12.21876 1.92646 -1.619408 -0.971273 -0.44903
H 2.76998 12.50326 2.07448 1.036238 -0.747724 -0.805235
H 10.63146 10.87356 5.21785 0.461583 0.013862 0.585316
H 10.35496 10.09146 6.52865 0.936378 0.495676 -0.607238
H 4.18273 7.55435 2.11381 -0.161214 -0.235477 -0.008027
H 4.37388 6.89458 0.72192 -1.085135 -0.469665 2.047467
H 8.91984 9.50768 8.05684 0.964435 -1.398442 -2.297709
H 8.75717 8.44819 6.89236 -0.628546 -0.546364 -0.511451
H 6.22778 8.96851 2.34106 0.987943 -0.622333 -0.689511
H 5.07213 9.39714 3.06973 -1.131433 0.431282 -0.076671
H 10.64366 1.40833 8.00893 -0.672203 0.962214 0.027807
H 10.63936 0.2876 6.96985 0.459016 0.476441 0.617144
H 8.37001 6.24745 5.1525 1.716226 -0.66734 1.273585
H 8.09778 7.04016 3.87411 -0.312385 -0.112481 0.118276
H 6.73174 9.21014 9.55539 -0.719931 -0.72375 -0.117558
H 7.06071 10.67706 9.15343 0.780546 -0.918992 0.281338
H 12.01756 11.83896 2.87606 -0.178736 -0.196296 -0.487385
H 11.65836 10.38736 3.34514 -0.934854 -0.318378 -0.193254
H 8.938 12.42256 4.52061 -0.049558 0.392873 0.540409
H 10.23306 12.63786 3.73152 -0.028164 0.038129 -0.132925
H 5.87219 12.47976 6.6184 -0.773513 1.383311 0.110249
H 4.27835 12.56786 6.85989 1.912162 1.471197 0.097814
H 5.47083 9.2718 11.96826 -0.88113 0.817217 0.89734
H 5.00866 9.63952 0.69077 -0.020638 0.37641 -1.263271
H 0.07664 3.61686 7.27368 1.896569 -0.507937 2.403481
H 0.46255 3.45143 8.86383 -0.732107 0.238198 0.243948
H 7.98739 8.69786 1.40896 0.333971 0.87947 -0.461184
H 7.89123 7.26398 1.76111 -0.147094 -0.817037 0.247205
H 3.69977 9.01938 4.97459 -2.145492 -1.10753 0.275238
H 4.71889 10.12836 5.13462 0.447638 0.312793 -0.024628
H 7.8809 0.26823 9.99396 -0.724463 -0.174098 -0.001225
H 7.04841 0.28411 8.66254 0.245295 -0.088806 -0.342899
H 3.12289 9.52302 12.21626 -0.8479 -0.374211 0.051735
H 1.63449 9.90966 11.67206 1.530284 -2.518871 1.142757
H 2.51717 3.01922 7.98581 0.309436 -0.006344 1.16144
H 3.47684 3.08676 9.31083 -0.448482 0.963477 0.354261
H 10.01076 5.51932 12.26876 -0.085263 -0.530105 -0.321215
H 9.49882 4.01946 12.16716 0.28121 0.478792 -0.280765
H 4.77159 5.40853 2.95958 0.252767 0.283793 -0.252159
H 6.07962 5.06019 3.80336 0.991707 0.671571 -0.304794
H 7.50866 11.32706 4.81879 0.235381 -0.017264 0.552544
H 7.15998 10.61396 3.4763 -0.136516 0.060045 1.391806
H 5.72948 7.65897 8.45856 0.044702 0.138966 0.862496
H 4.77059 7.92984 9.61891 -1.927891 0.028927 0.520612
H 1.58354 8.38059 5.15304 0.283766 -0.513443 -0.29202
H 2.28858 7.57729 4.09585 -0.326527 -0.287866 -0.285667
H 9.4874 0.20322 11.61876 0.281178 -0.690565 -1.071108
H 9.83756 12.28896 10.16616 0.040949 0.29933 1.272158
H 11.06496 8.57808 3.92847 0.290272 -0.104228 0.103666
H 9.78825 8.43432 3.11538 0.589417 1.243749 -0.506815
H 8.51502 2.82113 7.60323 0.4465 -0.232377 0.307428
H 8.66537 1.4582 8.16895 -0.484487 -1.118191 -0.02387
H 7.09327 4.15103 7.22214 -0.457591 1.158179 1.254068
H 7.96725 3.77273 5.99401 -0.578501 -0.02981 0.281744
H 3.90777 4.89779 5.42349 -0.203753 -1.119448 0.29873
H 2.4709 4.68712 5.64841 -0.872326 -0.235436 -0.006108
H 9.34252 9.64517 12.41436 -0.729081 -1.153967 -1.422755
H 8.76861 9.54136 10.86076 -0.407431 -0.575351 1.822697
H 1.92781 0.99118 4.00611 1.212394 1.087636 0.006283
H 3.38986 1.62437 3.29547 -0.5496 -0.029476 1.406554
H 7.74451 11.78866 0.24081 -0.790384 -0.505407 -0.616313
H 8.60357 12.31536 1.2722 -0.33782 -0.410562 0.792644
H 4.92329 7.29319 6.36475 0.901158 -0.54787 -0.398517
H 6.18142 6.66473 5.62687 0.234398 0.355073 -0.466826
H 0.30315 7.16328 2.78803 -1.128597 -0.327389 0.619105
H 1.35301 8.15969 2.23684 0.239246 0.677757 0.218723
H 4.52161 4.7034 12.47366 1.370205 -0.340452 -0.18354
H 5.92155 5.24571 11.91986 0.090368 0.296455 -0.229649
H 6.03286 2.0673 11.22466 0.788482 -0.473541 0.771297
H 4.79484 3.04353 11.33676 0.898852 -0.589745 -0.279827
H 3.83397 6.30871 11.63556 -0.048929 0.399154 -0.373674
H 3.49294 7.81649 11.83376 -0.493852 0.178758 -0.162092
H 8.4307 5.05163 1.01051 -0.81332 0.97927 0.811146
H 6.92106 5.08405 0.87266 -0.122585 0.498749 0.591814
H 2.87703 6.2837 8.78042 -0.14229 0.030417 -0.079604
H 3.69231 5.72804 7.63958 0.024983 -0.358837 -0.238942
H 2.01796 7.90262 7.00313 -0.0166 -0.541036 0.172114
H 0.75271 7.51942 7.82069 0.43559 0.053993 0.093439
H 1.69352 1.70478 1.17243 0.742656 -0.779082 -3.22912
H 1.78306 2.28131 12.45066 -0.126873 0.632265 -0.081894
H 0.39781 7.66781 12.56716 0.461048 3.3968 0.925837
H 0.74839 6.76143 11.45036 0.572133 0.013169 -1.139751
H 12.11676 3.74576 10.62816 -0.079092 0.459309 0.056721
H 0.5702 4.55212 10.41216 1.969283 0.172501 0.619522
H 0.38784 11.28206 5.8352 -0.70562 -0.764707 -1.965966
H 12.73 11.54576 7.20557 0.137149 -0.105201 -0.047865
H 2.63168 10.45306 2.49482 -0.239882 0.40755 -0.320383
H 1.08976 10.36456 2.91191 -0.111617 0.506666 0.009453
H 2.56125 8.75183 8.83333 -1.482909 -1.401203 -0.965926
H 2.76378 9.57728 10.12236 0.744587 -0.715152 -1.610362
H 11.27756 1.23811 10.55196 0.866976 0.989003 0.879127
H 11.37376 1.57625 12.06526 0.649005 0.291969 -0.633802
H 10.09066 7.55704 11.75436 -0.486491 0.389449 -0.441073
H 11.35706 6.77445 11.57566 0.425107 -0.287914 -0.119126
H 6.70723 6.93664 10.57576 -1.738591 0.683854 -1.59263
H 7.88894 7.22406 11.40546 -0.955681 -1.657787 0.011882
H 1.74483 12.47616 11.72466 -0.618268 -0.412178 -0.047582
H 0.33484 12.36506 12.36286 1.073959 -0.881047 -1.405288
H 11.69686 8.87211 5.65414 0.036297 0.317303 0.029483
H 11.38716 7.32935 5.8208 1.00263 0.948314 -1.440583
O 1.98413 4.21059 2.93442 0.373951 1.1769 -0.549549
O 6.15984 4.27015 8.89533 -0.430298 2.00965 -1.344714
O 11.56006 7.5697 8.34909 -0.087091 1.563706 1.675057
O 0.50545 1.03088 4.88276 -1.529724 -0.536672 1.916664
O 9.10093 4.59116 10.04056 -0.701108 -1.756277 -0.73231
O 4.05161 0.12008 11.88436 -0.461912 0.794979 -0.045034
O 11.68416 11.99506 9.64744 -0.632352 -0.995873 0.607539
O 11.01536 9.62527 0.2371 0.251151 0.803137 -0.714085
O 3.14872 12.12126 8.13253 -0.657145 -0.561732 0.042111
O 12.30226 5.28596 3.71193 0.682208 1.077763 1.700602
O 12.51836 9.15362 10.57166 -1.009819 -0.09791 1.512776
O 5.67855 12.60136 2.6681 -1.889266 -0.004904 4.064348
O 11.67696 3.6639 1.5489 0.790028 -1.138228 1.227742
O 4.76168 2.3703 4.06211 -1.052951 0.793463 0.978567
O 3.38324 11.87106 1.56595 0.553932 1.306161 1.572684
O 11.11456 10.52816 6.01641 -1.412126 -0.199911 -0.091628
O 3.94973 6.70913 1.68028 1.587641 0.75296 -2.103867
O 9.42901 9.02023 7.24412 -1.03507 1.716966 3.42294
O 5.36402 9.32324 2.12309 0.055536 -0.280389 1.469416
O 11.24606 0.82596 7.54377 0.342066 -1.513197 -1.088577
O 7.69064 6.48775 4.55923 -1.394866 0.552549 -1.207741
O 7.46988 9.78764 9.33361 0.828595 2.091504 -0.488936
O 12.30346 11.09216 3.41911 1.286366 0.827966 0.391712
O 9.64237 11.95276 4.06738 0.148137 -0.111618 -0.338783
O 5.12694 0.35643 6.7027 -0.86671 -2.527422 0.160561
O 4.86311 9.85579 12.49876 0.520233 -0.794134 -0.144211
O 0.8175 3.4174 7.97838 -1.311423 0.341873 -3.256788
O 8.05861 8.13675 2.1782 -0.269762 -0.434283 0.006972
O 4.51144 9.33705 4.63779 1.88729 0.672226 -0.435283
O 6.96105 0.37162 9.61985 -0.427275 0.118945 0.304729
O 2.24429 9.07067 11.95626 -0.523917 3.541943 -0.738315
O 3.27391 2.63244 8.50103 0.524439 -1.161936 -1.364206
O 9.86261 4.67725 12.78096 -0.497914 0.116919 0.461068
O 5.14907 4.90923 3.69962 -1.048761 -0.427783 0.370577
O 6.8373 10.77346 4.40868 0.046056 -0.138569 -1.778918
O 5.67575 7.98061 9.39518 1.984028 -0.601143 -1.423724
O 2.35707 7.7847 5.04359 -0.359409 0.802663 0.763673
O 9.13084 12.53356 10.82256 0.404617 0.138271 0.199389
O 10.57116 9.04429 3.2031 -0.74776 -1.272706 -0.161066
O 9.0842 2.30968 8.23808 -0.007929 1.330021 0.114808
O 7.2383 3.47483 6.57936 0.898828 -0.889479 -1.614964
O 3.2932 4.26803 5.89809 1.347438 1.411077 -0.327967
O 8.75257 9.10493 11.78116 0.659868 1.230009 -0.463039
O 2.55226 1.11036 3.24943 -0.931914 -0.54544 -1.51183
O 7.74838 11.82436 1.20107 1.47642 0.632075 -0.325058
O 5.69496 6.68913 6.45899 -1.173122 0.432659 0.961205
O 1.22265 7.27079 2.59478 1.019997 -0.453976 -0.773264
O 5.50206 4.51348 12.39546 -1.059794 0.297027 0.703036
O 5.2932 2.41475 10.75886 -1.696792 0.910514 -0.955934
O 4.22851 7.18983 11.80636 0.251563 -1.001522 0.158702
O 7.61322 5.47863 1.45388 0.95816 -1.105856 -1.310804
O 3.72093 5.8552 8.59421 0.422809 0.007934 0.290198
O 1.73882 7.55502 7.87005 -0.963976 0.274485 -0.296176
O 1.88 1.46589 0.15251 -0.464263 0.153423 3.561592
O 0.34066 6.79944 12.29856 -0.885289 -3.353428 0.301415
O 12.44776 4.59427 10.23666 -2.045022 -0.908037 -0.173107
O 0.7381 11.48646 6.67108 0.951293 0.623607 2.249565
O 1.91926 9.87542 2.83093 0.299587 -0.852553 0.089158
O 3.13478 9.40117 9.19097 0.813064 2.220397 2.823094
O 11.71486 1.88391 11.18316 -1.268307 -0.92153 -0.368943
O 10.43156 6.78831 11.26526 0.29493 0.182036 0.618241
O 7.26888 6.4518 11.15006 2.58865 1.056206 1.453933
O 0.91728 11.93796 11.63526 -0.498516 1.024372 1.293659
O 11.85886 8.01256 5.20866 -0.740417 -1.212553 1.552466
Na 2.09425 5.64206 1.04995 -0.490585 -0.106053 0.31849
Na 4.43574 0.70488 9.46698 0.095069 0.139377 0.271588
Na 10.82826 5.55137 8.97939 -0.066764 -0.076458 0.101126
Na 4.90215 2.59753 6.64606 -0.098965 0.151362 -0.286547
Cl 8.14383 12.41066 6.93555 0.095705 -0.252149 -0.423924
Cl 11.10976 12.79186 0.87369 -0.256015 -0.038607 0.014922
Cl 10.41486 5.3347 6.36942 -0.234573 -0.024101 -0.232748
Cl 2.5141 4.15786 11.53236 0.213509 0.518784 0.072765
200
energy=-1089.77201272 config_type=nep2xyz pbc="T T T" virial="-13.39336 -5.46549 1.63651 -5.46549 -21.06547 -6.30833 1.63651 -6.30833 -13.64141" Lattice="12.711858749 0.0 0.0 0.0 12.711858749 0.0 0.0 0.0 12.711858749" volume=2054.1264525465754 Properties=species:S:1:pos:R:3:force:R:3
H 8.25352 11.17017 9.96117 -0.45451 0.083253 0.284031
H 8.88923 9.87373 10.45507 -0.389294 0.437023 0.848633
H 8.37088 7.29617 3.70011 -0.150608 0.081033 0.650972
H 6.71986 7.27846 3.57991 1.236185 0.115825 -0.027067
H 11.22047 1.60126 4.92857 -0.5016 -0.834441 -0.741188
H 11.20807 0.37075 3.83105 -0.008871 1.639593 0.752479
H 10.81907 5.82419 8.95907 0.711295 -1.688303 0.435888
H 9.99177 6.34519 7.76018 -0.321204 -0.031141 -0.764982
H 7.46937 7.05858 1.65338 -0.199205 0.15981 1.28065
H 6.63658 7.71728 0.38612 0.738036 -0.904084 1.145438
H 3.28695 2.80408 6.69881 3.259415 -0.102346 0.457463
H 2.21315 2.60066 5.78612 -0.95677 -0.891751 -2.625597
H 6.20756 8.94076 11.82307 -0.898126 0.128671 1.174071
H 4.91707 8.71532 12.64207 -0.805225 -0.179813 0.127891
H 7.16687 4.06408 8.62208 -0.321773 0.667584 1.129274
H 6.75251 5.5109 8.39008 -0.063983 0.503471 0.358154
H 5.82483 11.76637 8.56303 1.756715 0.275251 -0.435171
H 4.36978 12.23977 8.52045 0.211487 -0.286746 0.395522
H 7.37806 0.288 5.43158 -0.166611 -0.075529 0.212395
H 6.1263 0.75697 6.40959 0.410458 0.207361 -0.269482
H 3.39327 1.84394 9.61173 -3.157847 -1.05569 -1.033248
H 4.37198 2.2092 10.48177 1.626398 0.530037 1.514357
H 11.65397 9.02199 7.18254 0.733915 -0.457591 1.45704
H 11.31137 8.88462 5.72888 0.120363 0.898072 0.279227
H 4.59627 9.84025 8.93878 -0.323678 -0.421101 -0.663409
H 3.59607 8.93791 8.0257 0.430658 0.685073 -0.576409
H 4.47592 4.49479 3.59753 0.455406 0.3928 -0.387507
H 5.57672 4.97214 4.63184 -0.251307 -0.765938 -1.502014
H 5.75389 7.67634 9.90406 1.015991 0.222389 0.306337
H 7.29982 7.8799 10.31647 0.969736 0.352304 -0.940261
H 1.61404 8.37352 6.98968 -0.811339 -0.997258 0.380521
H 2.20745 9.36185 6.09682 0.240899 0.926863 -2.179075
H 3.40218 5.76998 4.96193 -0.878616 -0.50301 -0.492774
H 4.24301 6.86053 5.4142 0.231724 0.692183 0.144922
H 11.71637 3.81072 8.47866 -0.005172 0.424806 0.758273
H 12.60907 4.68826 9.38817 1.507614 0.204221 -0.173411
H 1.99429 5.79087 8.75954 -0.930864 -0.295446 -0.138364
H 2.14499 4.51622 7.96711 -0.705141 -0.273794 -0.226877
H 1.8122 7.28666 3.80139 -0.797663 -2.099112 0.808515
H 1.23308 6.25013 4.90378 -0.481076 0.126939 0.589126
H 11.56687 11.63617 8.63231 1.725969 -0.327509 -0.429319
H 10.13377 11.26437 8.2256 -0.60705 -0.859656 -0.958257
H 3.60993 1.90455 4.02558 0.535994 -0.41865 -0.25695
H 2.25818 2.57944 3.6613 0.03175 -0.818071 0.321671
H 3.60516 5.81871 1.12153 -0.351215 -0.82822 0.398347
H 2.38384 5.3105 1.92153 1.72521 -0.748918 -0.464817
H 2.86494 3.62837 11.44827 -1.118652 -0.585267 -0.831305
H 1.63901 2.69075 10.64077 1.630502 1.216908 1.169853
H 5.01274 5.06229 10.43317 -0.408254 -0.084067 0.036266
H 4.08456 5.96258 11.33857 -0.157074 0.270265 -0.022862
H 9.22086 11.79917 5.39432 0.055011 -0.574734 0.396754
H 9.51813 0.40263 4.5033 -1.143022 -1.064775 0.606236
H 12.58537 4.19833 4.83054 0.2752 1.09143 -0.005503
H 12.36897 2.78363 5.18033 0.984871 0.774982 -0.977204
H 9.61295 5.30057 12.58497 -0.2939 0.338525 0.348733
H 10.44467 5.62198 11.35447 -1.158942 0.207403 0.171683
H 8.26036 12.50847 8.06039 -1.705556 -1.020603 0.25999
H 7.89721 11.08807 7.44626 -0.304514 1.071241 1.344681
H 9.63694 7.52867 9.8748 -0.34744 0.997854 -0.521069
H 9.26581 7.55563 11.27237 -0.103407 0.968459 0.059631
H 9.7273 9.84837 6.44312 1.602672 -0.550453 0.223511
H 8.23388 9.77209 6.01789 0.889483 1.132108 0.253908
H 0.28588 12.30637 12.39187 0.796831 1.170324 0.661854
H 0.61007 10.82797 12.45997 0.198108 0.019877 0.204005
H 0.01186 11.84537 3.04565 -0.151179 -0.009407 -0.73941
H 12.55567 11.34897 1.49983 0.039484 0.328072 0.551926
H 7.82291 7.03487 6.89587 -0.07987 0.233411 -0.297363
H 6.45609 7.77427 7.13362 -1.557908 1.850618 -1.130889
H 1.62347 0.13475 4.52908 -0.498884 -1.039112 -0.138213
H 1.30589 11.19287 4.5855 -0.22038 1.940681 -0.019086
H 8.56887 2.01595 3.47474 0.745676 0.527983 0.631797
H 7.20125 1.62933 2.9706 1.626751 -0.15119 -0.767905
H 2.77242 7.82295 10.61407 -0.905978 -1.333011 -1.141143
H 3.23445 7.99361 9.21828 -0.182704 -0.629302 -0.182794
H 5.2613 9.87107 6.97338 -0.330948 -0.192201 0.647425
H 5.66631 11.17667 6.20765 0.283316 -0.978064 -0.420464
H 3.25461 12.34947 0.59562 1.686959 0.760612 0.448438
H 4.40317 12.27737 1.6425 0.643602 -1.110902 2.007578
H 8.18436 3.21169 5.67684 -0.791432 -0.460528 -0.971527
H 8.26376 4.57723 5.28912 -0.413585 -0.054061 -1.261021
H 7.93766 9.80786 2.82447 -0.550819 0.584644 0.654428
H 7.9004 11.13157 3.68063 0.394344 0.264911 0.359544
H 11.41177 1.96023 1.91408 0.507376 0.236779 0.120874
H 12.28227 2.89775 2.79168 0.017063 0.03762 0.544771
H 0.49984 11.84427 10.42177 -0.969951 0.050113 3.264507
H 0.93339 10.98367 9.36336 0.268624 -0.78662 -0.797274
H 5.48045 11.81057 11.04757 -0.065946 0.141713 0.04692
H 5.40142 12.56987 12.44707 -0.653137 -0.525907 -0.144847
H 1.09071 6.32316 12.25757 1.518917 1.618162 -0.303323
H 0.65327 4.94885 12.29767 -0.566725 -0.025388 0.129748
H 11.37877 9.63306 2.91018 -0.009148 1.257105 0.096553
H 11.58347 8.20312 2.89525 -0.360178 -1.097324 -0.054465
H 8.07675 1.84117 10.56007 0.143356 0.102668 -0.377284
H 7.2825 0.73585 11.25517 -0.18006 -0.386263 0.251645
H 5.47917 2.87991 4.02513 0.410371 -0.640875 -0.350644
H 5.7443 1.36008 4.44023 0.030299 -0.152014 0.064934
H 4.61516 1.81811 0.63262 -0.024061 1.025393 -0.929409
H 4.43887 3.37735 0.33957 -1.189744 1.595414 0.835043
H 10.42517 4.02206 1.23649 0.10067 -0.708606 0.12602
H 10.56087 5.29547 2.02821 -1.063803 -0.687501 -0.246584
H 0.23338 5.41291 6.90001 -0.281296 1.12661 -1.252151
H 11.80517 6.1959 6.01592 -0.403598 0.040972 0.169203
H 10.53607 4.02946 6.29878 -0.812368 1.401541 -0.574091
H 10.10097 2.84208 7.2469 -0.233694 0.237832 -0.360792
H 0.942 1.35665 1.23597 -0.475495 0.047477 0.236055
H 1.93775 1.87955 0.1679 -1.312727 -1.926542 0.011299
H 6.46704 3.10566 0.24237 0.27592 -0.157064 -0.591917
H 7.96069 2.78338 12.64907 0.44607 -0.943011 -0.258688
H 12.58007 6.46203 1.31 -0.627594 -0.139966 1.088095
H 0.19911 6.5052 2.87158 0.101196 -0.423026 0.29944
H 12.27207 1.87116 11.49057 2.705783 0.406009 0.703665
H 11.19157 2.80764 10.78467 0.967472 -1.811684 0.781596
H 4.65534 2.13992 8.12288 0.660509 0.093665 -1.534051
H 5.82154 2.63238 7.22443 -1.166903 -0.60891 -0.382266
H 9.28168 0.13199 1.93626 -0.00058 0.263031 -0.350646
H 10.57337 12.04327 1.75317 1.48271 -0.545687 0.680431
H 1.19012 0.82915 9.08721 0.707661 0.689069 -0.346098
H 1.92974 2.04562 8.15327 -1.027275 -0.818399 1.462281
H 5.74997 10.89057 3.28572 -0.515457 0.329309 -0.254547
H 4.24903 11.10007 3.69474 0.17921 0.026963 -0.248225
H 11.57337 8.20039 9.1034 1.956064 0.678005 -0.057338
H 0.47163 8.19436 9.28635 -0.055029 -0.250887 0.018117
H 4.13734 8.36338 3.87172 -0.014062 0.434599 0.162922
H 5.21596 8.83399 4.95424 -0.32948 -0.049205 -0.805475
H 2.23991 10.19777 1.94059 -0.640275 0.525837 -1.595373
H 2.12276 9.4711 0.59984 0.209314 0.406139 -0.040506
H 8.39789 8.44379 1.09705 -0.970007 -1.834496 -0.814795
H 9.50166 9.00968 1.94123 1.268419 -0.118175 0.703722
O 8.42155 10.68637 10.79717 0.809705 -0.289372 -0.788117
O 7.6013 6.94851 3.2334 -1.399227 -0.263462 -0.118023
O 10.78497 1.23545 4.12376 0.580287 -0.993371 -0.110094
O 10.43977 6.59577 8.56922 -0.316108 1.854218 0.609474
O 7.29039 6.96346 0.71717 -0.95418 0.564989 -2.492777
O 2.36378 2.82496 6.67177 -2.173496 0.926965 2.63812
O 5.81012 9.05456 0.03635 1.832165 0.229107 -1.097701
O 6.80307 4.86247 9.11909 0.343486 -0.967796 -0.925623
O 4.97354 11.60747 8.95149 -1.759893 0.059144 0.394814
O 6.40287 0.42589 5.53548 -0.394055 -0.45432 0.234581
O 4.25253 2.18944 9.54322 1.335629 0.483376 0.252897
O 11.40967 9.56385 6.44666 -0.62982 -0.648683 -1.88257
O 4.48373 8.96509 8.47506 0.130769 0.170205 0.438983
O 5.44422 4.53635 3.73219 -0.291912 1.0451 1.5475
O 6.42558 7.66103 10.62767 -1.555064 -0.578132 -0.014402
O 2.28915 9.03223 6.96558 0.599281 -0.042812 2.145861
O 3.62681 6.20715 5.77624 0.593974 -0.196044 0.515046
O 11.75467 4.28177 9.35364 -1.727123 -0.862068 -0.448281
O 1.43762 5.06076 8.36606 1.517284 0.829303 0.334772
O 1.45716 6.31987 3.97022 1.456115 2.19363 -2.006194
O 10.65917 11.77087 8.81401 -1.083116 1.280361 1.649511
O 2.64369 1.80232 4.12471 -0.600539 0.946556 -0.260565
O 3.2905 4.99701 1.59291 -1.322745 1.266748 0.343907
O 1.99323 3.14859 11.49667 -0.405923 -0.227248 -0.480086
O 4.43831 5.0715 11.22457 0.64616 -0.453041 -0.126039
O 8.81646 12.40507 4.76902 0.595251 1.610173 -0.965892
O 0.10421 3.33617 4.47408 -0.801494 -1.242306 1.152545
O 9.52666 5.7472 11.71657 1.497708 -0.537387 -0.247812
O 7.58554 11.74797 8.16964 1.847199 0.389134 -0.995588
O 9.25661 8.20081 10.51377 0.316146 -2.255978 0.131241
O 8.93364 10.37847 6.40547 -2.521382 -0.878783 -0.65391
O 12.65747 11.45617 12.12967 -0.766129 -0.583244 -0.651069
O 12.10987 11.79647 2.24717 0.746681 -0.460849 0.900817
O 7.04049 7.14624 7.46263 1.622911 -2.147235 1.411219
O 0.92172 12.14097 4.59291 0.467799 -0.646315 -0.291486
O 8.19877 1.61824 2.69578 -2.654715 -0.205274 -0.078138
O 2.55597 7.45005 9.67755 0.626368 1.339431 1.488368
O 5.71604 10.18417 6.18689 0.196828 0.881413 -0.440025
O 4.19053 12.67477 0.81812 -2.332401 0.826241 -2.015588
O 7.88692 3.74349 4.883 1.290545 0.580358 2.268497
O 7.46413 10.27467 3.56721 0.01534 -0.681009 -0.860385
O 12.21207 2.5188 1.90418 -0.478447 -0.26587 -0.755861
O 0.73891 11.89977 9.53504 0.512276 0.434714 -2.695729
O 5.99972 12.18237 11.77297 1.207028 0.323132 -0.174462
O 0.28861 5.8561 12.39457 -0.754928 -1.674603 -0.008951
O 10.92237 8.84798 3.20785 0.103407 -0.092943 -0.191432
O 8.1345 1.21261 11.28847 0.269661 -0.058914 0.027331
O 5.42928 1.94636 3.7009 -0.239234 0.378902 -0.004797
O 4.83545 2.59637 0.01878 0.897306 -2.774349 0.224635
O 9.85181 4.6451 1.69569 1.183256 1.548605 0.179115
O 0.00549 5.8768 6.02425 0.666171 -1.243075 1.49268
O 10.82507 3.23078 6.69661 1.227871 -1.642983 0.790985
O 1.42672 1.02501 0.46694 1.202985 1.640175 -0.756877
O 7.36637 3.50669 0.09981 -1.001397 1.398843 0.719233
O 12.17057 6.54679 2.22755 0.058533 0.18194 -1.311942
O 11.38157 1.92909 11.26587 -3.344788 1.438965 -1.493454
O 4.92898 2.18577 7.11912 1.141715 0.525178 1.597647
O 9.80861 12.33767 1.28306 -2.305064 0.616208 -0.782029
O 1.66945 1.70183 9.10157 0.15735 0.205961 -1.235542
O 4.91542 11.38037 3.04672 0.388081 -0.476182 0.498215
O 12.43117 8.73844 9.00914 -1.663242 -0.549891 -0.028404
O 4.98945 8.14126 4.27946 0.909862 -0.274503 0.655138
O 1.99601 10.38017 0.95775 0.319155 -0.910982 1.447896
O 8.8234 9.24782 1.31108 0.168251 1.787913 0.13376
Na 10.43557 12.60777 11.11647 -0.475699 -0.147579 -0.03505
Na 7.97763 11.03127 0.34422 -0.239622 0.224203 -0.435798
Na 7.18505 5.58704 11.62717 -0.02486 -0.262549 -0.283572
Na 7.35912 4.62461 2.26543 0.409619 -0.144359 0.199751
Cl 3.09725 7.59023 12.64537 -0.134725 0.101148 -0.00661
Cl 2.15132 9.41052 3.92273 0.008548 -0.047432 -0.159659
Cl 8.26603 2.21927 7.9522 -0.09118 0.140198 0.024179
Cl 9.59648 6.54569 5.60674 -0.029445 -0.179143 0.199264
200
energy=-1087.68903483 config_type=nep2xyz pbc="T T T" virial="-33.54666 4.8752 -7.19317 4.8752 -30.87741 -4.85918 -7.19317 -4.85918 -17.01872" Lattice="12.713358879 0.0 0.0 0.0 12.713358879 0.0 0.0 0.0 12.713358879" volume=2054.8537624783444 Properties=species:S:1:pos:R:3:force:R:3
H 8.3575 11.33632 10.60632 -0.312524 -0.073565 -0.579415
H 9.65204 10.50222 11.06162 -1.852916 1.465791 0.602756
H 8.04293 6.80288 4.00918 -1.137495 0.310004 -0.758214
H 6.62057 7.2995 4.22395 -1.195871 0.012633 0.45197
H 9.81212 1.81275 4.85601 0.879232 -1.686013 0.353407
H 10.83152 0.71062 5.53555 -0.033275 0.474619 0.535069
H 11.80482 6.37378 8.81937 -0.849597 1.472175 -0.135055
H 10.74582 6.92178 7.83724 0.093057 0.181596 0.458913
H 8.25638 6.73198 12.45552 -0.430029 -0.12976 0.664096
H 6.88987 7.53332 0.14355 1.309886 -1.416929 0.511018
H 4.01524 2.99333 6.94707 -0.150921 0.387888 0.238563
H 2.97016 3.378 5.8621 0.038045 0.119245 0.456154
H 6.11146 8.57067 11.67352 0.555189 0.562934 0.134044
H 5.53345 9.02886 0.32744 0.732356 0.269793 0.102161
H 9.03083 4.54428 9.86914 -1.511082 -0.567513 -0.204349
H 8.02429 3.41058 9.23566 0.434688 1.856703 1.002064
H 5.77881 11.55162 9.75699 -1.094551 -0.512796 -0.007082
H 4.64327 12.36712 10.32722 -0.496047 1.316501 0.506327
H 6.85011 12.09052 5.70217 -1.177982 -0.259541 0.618256
H 6.19743 12.11862 7.15955 -0.314787 0.137805 -1.176567
H 3.34413 1.17271 10.43592 1.027896 0.312558 -0.717729
H 4.30664 2.29324 10.80402 0.026633 -1.485225 -1.198694
H 12.28022 11.02632 7.0816 0.712332 -0.920185 1.55385
H 11.55642 10.75872 5.73604 -0.169701 0.233392 0.372578
H 3.18652 10.87672 8.80044 -0.603017 -0.352188 -0.076328
H 2.08545 11.07022 7.71895 0.108175 -0.348825 -0.747032
H 5.42066 3.94709 4.13595 1.355564 -1.065928 -1.564724
H 6.84918 3.51749 4.51359 -0.433609 -0.573899 -1.521849
H 5.18213 7.66677 9.64758 1.881891 0.741649 1.345133
H 6.67846 8.11054 9.41646 0.54965 0.376035 -0.185421
H 0.75217 11.87662 5.97825 0.999705 0.5379 0.303424
H 2.03262 11.39052 5.29102 -0.103015 1.325266 1.730121
H 4.59842 5.93921 5.17802 -0.417266 -1.477586 -1.00486
H 3.44203 5.48115 4.16538 1.389242 -0.631769 0.618475
H 11.84782 3.59459 8.87882 -1.080733 -0.163777 -0.523427
H 0.52461 3.84699 9.17296 -0.899718 1.363755 -0.610407
H 2.20401 6.45238 8.57658 -0.146745 0.278046 0.225618
H 2.72111 5.23966 7.87065 -1.088649 -0.266317 0.257607
H 1.85995 7.0371 3.71119 -0.175132 -0.564416 -1.326568
H 0.51394 6.51823 3.98184 -0.538649 -0.576826 -0.166079
H 11.70902 0.54154 9.73828 -1.586411 1.749194 -0.051437
H 10.28082 1.13913 9.21932 0.811082 0.02862 0.447106
H 3.31069 1.93265 3.92949 0.103408 -0.432478 0.238015
H 2.2724 2.85985 3.3221 -0.053877 0.203138 0.039456
H 2.18225 5.08332 1.15663 -0.159528 -1.790691 1.02594
H 1.63944 4.91676 2.58259 0.688487 -0.865973 -0.766909
H 2.58046 4.42488 11.57942 -0.314397 2.146497 1.367674
H 2.40792 3.72998 10.24992 -0.300273 -0.511734 -0.244152
H 5.2504 3.7871 9.14743 0.56817 -1.127461 -1.08707
H 4.19822 4.4142 10.04802 1.872359 0.46968 -0.340771
H 8.72931 11.05792 5.72039 -0.408026 0.656592 -0.897565
H 8.99065 12.31762 4.87832 0.357604 0.628862 -0.054256
H 0.70906 5.1612 6.82218 0.354524 0.150689 1.259504
H 0.86489 4.94007 5.32486 -1.615374 -0.076183 1.293861
H 9.80498 5.18165 12.11852 -0.677724 -0.230345 -0.076399
H 10.79652 6.16656 11.70542 -0.456373 0.005838 -0.435184
H 7.69622 12.38522 8.61898 0.054187 -1.902955 0.352286
H 7.57709 10.62982 8.56665 0.306291 0.817717 0.048993
H 10.64172 8.5472 9.88041 0.577 -1.198407 -2.884278
H 10.44452 8.11947 11.27162 -0.236392 1.055732 -0.189816
H 8.51803 8.48265 7.88906 0.105038 -0.444023 -0.476998
H 6.95266 8.83988 7.50002 2.198744 0.215433 1.556566
H 1.53818 0.27871 11.77982 -0.457453 -0.476951 0.419699
H 1.69327 11.49392 12.35152 0.105245 -0.03852 -0.006994
H 0.41397 10.89142 2.75057 0.354086 0.60326 0.214695
H 0.29381 9.61097 1.85292 -1.197608 1.696525 1.360335
H 7.24787 5.80238 7.72027 -1.090324 -0.24038 -0.087717
H 5.72815 5.63935 8.01819 -2.855386 -0.847007 3.901379
H 1.03229 0.69036 3.54484 -0.790929 -0.222128 -0.211038
H 12.36002 0.11227 3.93696 -0.427127 0.070204 0.582212
H 7.89741 1.49495 1.53127 -0.249753 -0.082022 0.144309
H 8.97933 2.59494 1.53841 -0.48744 -1.462978 -0.672143
H 2.89908 7.79198 10.05892 0.080669 0.055336 0.27612
H 2.97403 8.92525 8.9382 0.652579 -1.593502 0.495114
H 4.19023 9.93646 7.21305 -0.982629 -0.197546 0.341342
H 5.49247 10.48882 6.72684 0.195259 0.528911 -0.511677
H 3.41588 0.1691 0.12534 -0.190552 -0.141485 -0.151803
H 4.03248 12.59852 1.50712 0.158373 -0.238271 0.520834
H 8.23258 3.14246 6.30224 -0.494195 -1.203811 1.632646
H 8.63615 4.49679 5.81611 0.126518 -0.280921 -0.436259
H 7.04855 8.65366 3.10939 0.484277 0.125292 -0.311445
H 7.82748 9.90794 3.54127 0.689833 0.646551 0.896938
H 12.12532 2.20548 2.38766 0.130781 -0.267691 0.140077
H 12.51192 3.5883 1.75212 -0.304243 -0.177422 0.182077
H 0.45665 11.51272 9.47131 -0.02969 1.316628 -1.28487
H 0.89611 12.34632 8.17233 -0.282364 -0.021855 0.408605
H 6.07213 11.19352 12.18672 1.182853 0.750394 0.354681
H 5.93862 12.23802 0.48991 -0.614326 0.720506 0.910567
H 0.45294 5.95314 11.79262 -0.79549 -0.823078 -0.11482
H 12.43002 4.94359 10.81622 -0.387299 0.22218 -0.055992
H 11.28542 9.84065 3.69606 -0.819876 0.229004 1.218699
H 10.69972 8.92602 4.77285 0.040736 -1.084718 0.318761
H 7.94014 1.14035 10.29482 0.505867 0.221204 -1.753089
H 7.12932 0.79509 11.47232 -0.932185 -1.04819 0.890183
H 5.37952 1.67771 3.74776 -0.057175 -0.103088 -0.164502
H 4.99813 0.57043 4.7174 0.14788 -0.691053 1.004102
H 4.48212 2.41682 1.16764 0.713806 -1.823414 -0.469093
H 3.71382 3.48724 1.55625 -0.018272 1.47757 0.31743
H 10.24792 3.73257 1.81622 1.082372 -0.416947 0.051808
H 10.07122 5.22382 1.94844 0.280042 -0.347672 -0.166674
H 12.33132 7.7622 5.27169 -0.006713 0.45385 0.48847
H 11.23082 6.69729 5.13106 -0.236119 -0.45827 0.372473
H 11.97622 3.40419 6.53129 0.658559 0.730743 -0.221262
H 10.65002 2.67712 6.69375 1.101693 -0.128288 0.736876
H 0.26294 2.26701 0.38338 -0.18728 -0.720668 -0.5145
H 1.21141 2.51514 11.95892 0.906688 0.628765 -0.607079
H 6.24165 3.52778 0.51615 0.700946 0.268385 -0.912252
H 7.37945 2.91475 12.18522 -0.718694 2.671693 1.473815
H 11.98982 6.01147 0.81333 0.356115 -0.165995 0.056585
H 12.60942 6.22353 2.32096 -1.295096 -0.576604 -1.543813
H 11.05482 3.33936 12.01652 -2.351379 -0.780163 -0.688266
H 10.30952 2.77821 10.75112 -0.248979 0.173912 1.818361
H 5.42579 1.6473 8.53396 -0.483824 -0.847394 1.949875
H 5.73831 1.55291 7.09555 -2.8e-05 0.658985 0.057125
H 10.49382 12.22012 1.88628 -0.804847 -0.367898 -0.737038
H 11.11122 11.06842 1.21906 -0.678579 0.011387 -0.23342
H 1.13616 1.72887 8.8735 -0.231112 -0.242613 -0.412086
H 2.2197 2.63646 8.02483 -0.676926 -0.193675 0.560898
H 5.65297 10.22432 2.89068 -0.318077 0.783147 -1.199568
H 4.14332 10.37912 2.76308 0.015509 0.077255 -0.258781
H 12.20202 8.623 7.51617 0.396299 -0.146279 -0.627031
H 0.73594 8.08818 6.8351 -0.18861 0.685928 0.018698
H 4.38716 8.03795 4.47476 -0.22804 0.718135 0.337121
H 5.28659 8.59255 5.7484 -0.975522 0.161749 -0.119273
H 2.33464 9.94011 1.3978 -0.039264 0.214771 -0.086915
H 2.37036 9.10034 0.16894 -0.381472 0.736977 -0.239332
H 10.44542 7.97582 1.50618 -0.243383 0.391394 -0.717942
H 8.99538 7.94513 1.55446 -2.583987 -1.069377 1.351193
O 8.93686 11.21342 11.36602 2.499876 -1.852212 -0.214187
O 7.19758 7.01023 3.50012 2.275473 -0.986248 0.635098
O 10.17502 0.86846 4.84829 -0.855846 1.154141 -0.839273
O 11.27792 7.22366 8.62698 0.850833 -1.638231 -0.329732
O 7.41303 6.63618 0.26519 -0.288496 1.101812 -0.763385
O 3.22206 3.55818 6.79847 -0.102488 -0.782577 -0.279179
O 6.39709 8.93627 12.57472 -1.721374 -0.225115 -0.677317
O 8.0657 4.3131 9.73131 1.316483 -1.110387 -0.999978
O 4.81258 11.48392 10.03762 1.455453 -1.139117 -0.736526
O 5.92688 12.08312 6.19728 1.852369 0.313536 0.758503
O 4.25971 1.48015 10.18962 -0.96518 1.114865 2.1209
O 11.76482 11.44512 6.42851 -0.953992 0.750558 -2.344889
O 2.45632 10.39672 8.31388 1.39861 0.76344 0.830573
O 6.20704 3.38167 3.72329 -0.486709 1.775481 3.031754
O 6.10613 7.80875 10.12912 -2.625561 -1.066834 -0.737129
O 1.75571 12.03842 6.03658 -1.037481 -1.960442 -1.765233
O 4.27201 5.15251 4.62549 -0.817588 2.124695 0.253545
O 12.37162 4.38292 9.05677 1.712236 -1.206891 1.234418
O 1.89149 5.56968 8.31828 1.741188 0.079124 -0.695459
O 1.28822 6.2448 3.40211 0.163771 0.908895 1.71151
O 10.98422 1.25145 9.91961 0.854706 -1.788445 -0.516098
O 2.44673 2.35098 4.13062 -0.084157 0.095371 -0.370184
O 2.01305 4.30998 1.85126 -0.447452 2.194904 -0.469956
O 2.84787 3.66308 11.10922 0.503807 -1.66712 -1.160943
O 5.13912 4.56871 9.66187 -2.573237 0.65748 1.412992
O 8.30087 11.65272 5.05294 -0.131604 -1.236981 1.002599
O 0.16757 4.94591 6.0653 1.384325 -0.297897 -2.318212
O 9.80681 6.06916 11.71512 0.513298 -0.151857 0.12429
O 7.39295 11.48972 9.03967 -0.05172 1.418495 -0.371443
O 10.52842 8.92793 10.71012 -0.480778 0.365597 3.223645
O 7.75772 9.01285 8.14018 -2.607405 0.003764 -1.323178
O 1.94696 12.11192 11.64782 0.28919 1.041758 -0.63259
O 12.46302 10.31802 2.36943 0.414137 -2.277686 -1.754095
O 6.32859 5.75838 7.3694 4.005195 1.131352 -3.970516
O 0.20184 0.28025 3.17929 1.305593 0.536362 -0.174479
O 8.81711 1.63617 1.29839 0.506888 1.201279 0.66198
O 3.38993 8.0472 9.26458 -0.821242 0.949074 -0.592053
O 5.09769 9.67494 7.07634 0.915439 -0.593798 -0.015147
O 3.94775 0.56548 0.83442 0.240928 0.231279 -0.287912
O 8.41787 3.58316 5.49683 0.418306 1.109107 -1.141677
O 7.28635 9.57148 2.84091 -0.427914 -0.347446 -0.757909
O 11.87982 2.83699 1.69705 0.33922 0.468035 -0.050001
O 0.15583 12.18942 8.78491 0.522281 -1.086144 1.306113
O 6.64189 11.85212 12.68932 -0.877766 -1.107929 -1.214615
O 12.30902 5.42593 11.67182 1.630818 0.732456 -0.00881
O 10.69252 9.84294 4.52682 0.941536 0.882289 -1.69739
O 7.78486 1.41277 11.18402 0.224208 0.736876 1.159709
O 4.82866 0.86101 3.83111 -0.034326 1.151743 -0.875969
O 4.66556 3.31339 1.42504 -0.768626 0.217985 -0.052099
O 9.57971 4.40988 1.71857 -1.004743 0.955196 0.286469
O 11.90122 7.18454 4.63055 0.16951 0.347835 -0.972086
O 11.59662 2.65454 6.99948 -1.786979 -0.61496 -0.405035
O 0.56937 1.8738 12.24012 -0.49661 -0.060555 0.745002
O 7.06925 3.79624 0.00683 -0.397778 -3.039971 -0.827501
O 11.82742 5.86899 1.75461 0.962073 0.907026 1.369777
O 10.10202 3.07907 11.70112 2.9682 0.520123 -0.764959
O 5.40453 2.18263 7.76876 0.289334 0.226506 -2.197293
O 10.28142 11.61072 1.13129 1.472634 0.444645 1.306032
O 1.74955 2.46368 8.89762 0.607201 0.786565 -0.307626
O 4.95776 10.64022 2.29249 -0.0933 -0.772521 1.019292
O 0.0873 8.82013 6.74602 0.024293 -0.870315 0.812033
O 5.2529 8.0948 4.90527 0.934242 -0.830319 -0.323301
O 2.11339 10.01532 0.44672 0.382504 -1.57817 0.74507
O 9.65311 8.2943 1.01415 2.802047 0.882669 -0.516223
Na 9.79973 0.52039 12.25812 -0.12179 0.375921 -0.362021
Na 8.24992 10.30032 0.6812 0.018289 0.03402 0.07034
Na 6.69246 5.41984 11.01332 0.028524 0.044229 0.333782
Na 7.36274 5.0808 1.95079 -0.182665 -0.152726 -0.031376
Cl 2.52437 6.42344 12.35982 -0.178772 0.401846 -0.120023
Cl 2.33352 8.89441 3.58017 0.484808 0.551567 0.230462
Cl 8.55374 1.5609 8.18111 -0.342152 -0.260626 -0.239463
Cl 9.54337 6.31565 6.34104 -0.447584 0.299881 -0.131214
200
energy=-1087.74455336 config_type=nep2xyz pbc="T T T" virial="-15.89385 6.98144 -1.65635 6.98144 -18.0481 2.59385 -1.65635 2.59385 -9.62383" Lattice="12.789216042 0.0 0.0 0.0 12.789216042 0.0 0.0 0.0 12.789216042" volume=2091.8559333897383 Properties=species:S:1:pos:R:3:force:R:3
H 8.67178 8.83151 2.00472 -0.168209 -1.22765 0.307705
H 7.81802 8.38996 3.16983 -0.053164 -0.622413 -0.345846
H 5.07426 10.08097 7.2895 1.299544 -1.620861 0.740907
H 6.25021 9.05539 7.0455 0.797004 -0.358074 -0.855686
H 4.55353 4.14191 6.4021 -0.463458 0.351111 -0.375141
H 4.24861 4.65248 7.79229 -0.093111 0.526527 -0.379052
H 2.17641 6.0544 10.66027 0.739465 0.359027 0.271643
H 3.21285 5.03324 10.18037 0.181691 0.951773 0.591359
H 9.89237 3.74612 2.3756 0.622208 1.574726 -1.545513
H 10.41197 2.36412 2.85083 -1.496329 1.683208 0.370103
H 5.86547 11.35147 5.37357 0.118157 0.724567 0.230407
H 7.27995 11.17517 4.92403 2.224792 -1.677279 -1.278624
H 6.98261 7.10237 6.00229 -0.688469 0.716009 -0.272078
H 8.41075 7.29157 6.36707 -0.830522 1.252645 -0.459347
H 11.67567 7.78816 0.24168 0.1564 -0.006271 1.09155
H 11.56717 6.67057 1.38074 0.579142 0.125361 0.103111
H 8.90983 9.71635 0.20705 -0.88532 -0.13276 -0.368636
H 9.73717 10.59697 1.0426 -1.906611 -0.14669 0.926932
H 4.538 6.0651 11.56457 0.281683 0.12051 0.831419
H 5.99915 6.19582 12.13417 1.066699 0.021001 -0.320921
H 10.60597 0.01606 2.34161 0.088412 -0.521667 -0.373198
H 9.17287 0.15546 1.85458 -0.18828 -0.249949 -0.024094
H 2.20349 8.32281 3.32002 1.941917 -0.091111 -0.272563
H 3.37096 7.39628 2.73344 -0.22672 0.29486 0.283992
H 8.20136 7.91399 8.5566 -0.544213 0.168087 -0.818171
H 9.04493 7.92938 9.76039 0.256658 0.093919 0.523178
H 2.13815 9.49885 9.09844 -0.410483 1.054875 -0.414754
H 2.407 9.18586 10.64257 -0.055052 -0.212051 -2.192218
H 2.13717 10.38327 0.94205 1.056523 0.461248 0.049347
H 3.33124 10.10797 1.80056 1.254086 -1.922383 1.649325
H 10.16867 5.25626 4.22526 1.148599 -0.122059 0.484538
H 11.54167 4.66809 4.95105 -0.75089 0.348902 0.263621
H 4.1458 10.46467 12.37167 0.105459 -0.478822 1.71096
H 4.74397 10.84967 11.05967 0.396818 0.031186 -0.416658
H 7.56804 0.7348 4.75621 2.125162 0.47362 0.236363
H 9.06994 0.47679 5.19224 -0.273582 1.103508 -0.320429
H 4.1554 2.89682 12.30747 -0.709541 0.296029 -1.665209
H 3.91464 2.25137 10.82927 -0.227206 -0.181565 0.142554
H 12.46597 11.93717 0.884 1.099046 1.157025 -1.488165
H 12.41237 11.91327 12.08347 0.319599 0.904668 0.4125
H 10.13567 8.36569 3.94481 -0.224875 -0.131164 -0.079533
H 10.78427 7.05004 4.66056 -0.222515 2.020395 0.307498
H 5.18671 9.67053 3.7031 -0.256732 -0.225704 0.07861
H 6.08104 10.53677 2.8722 0.538613 2.516543 -0.935934
H 8.14069 2.7207 0.86435 0.695277 -0.098024 0.524741
H 7.06975 3.34315 0.14672 -1.061829 0.840136 -1.569491
H 8.52497 6.1817 3.07938 -0.491789 -0.119599 0.367637
H 8.177 5.81377 4.56864 -0.046381 -0.110734 -0.930754
H 6.61514 9.27449 12.10227 0.01624 -0.060516 -0.103646
H 7.45218 8.86801 10.85647 0.235738 -0.977673 -0.911764
H 3.41011 0.68082 9.16886 -0.306752 -0.082173 -0.734521
H 4.39424 12.62725 10.12727 -1.555507 2.01528 -0.419536
H 1.78067 8.49 12.34127 -1.178978 1.753149 -0.03295
H 0.52018 9.53772 12.18987 1.302366 -0.71445 -0.024812
H 12.20737 8.48872 3.72999 -1.590465 -0.721719 1.805725
H 12.61707 8.46285 2.30183 0.135165 -0.219953 -0.055979
H 2.23454 12.48177 1.82868 0.118256 0.018069 0.024255
H 2.35691 1.20172 2.2049 0.734559 1.264233 1.118925
H 2.12165 10.95427 7.17329 -0.93302 0.371 1.286461
H 0.61951 10.81857 7.65768 -0.603921 -0.307112 -0.489184
H 4.39553 6.7983 6.09757 -0.329571 -0.665797 0.499037
H 4.56178 7.73578 5.00875 0.26845 -0.076583 -0.67697
H 12.43107 10.61317 2.82198 0.061273 -0.827494 0.135637
H 0.15583 12.03347 3.01475 0.347348 0.415259 0.133369
H 9.09479 4.20536 12.19517 -1.343434 0.703311 -0.31004
H 10.52467 3.94965 12.04767 -0.790196 -0.730083 1.01762
H 0.21967 3.5476 5.54148 1.422201 0.039224 0.479184
H 11.80957 3.04931 6.34392 -0.094377 0.106839 0.036116
H 5.56776 3.46201 11.10287 -1.976687 -0.4274 0.334889
H 6.79426 2.73943 10.49997 0.141505 -0.276242 0.136348
H 7.28389 11.14787 1.23045 -0.744508 0.746245 0.077736
H 5.79939 11.51207 0.79516 0.730384 0.158705 0.586235
H 6.56307 5.68763 8.53742 -0.883809 0.101922 0.546052
H 5.79133 4.94041 9.68622 0.144285 1.333727 -0.953479
H 10.88287 9.63337 9.5714 -0.794071 1.737068 -1.47742
H 10.45887 11.11627 9.46768 -0.235354 1.565952 0.828987
H 3.00094 5.10807 1.96156 -1.247057 -1.039997 0.563484
H 4.21997 5.59964 1.34208 1.393248 0.232732 -1.311471
H 5.64052 8.77137 1.52374 0.037422 0.412611 0.094794
H 4.85918 8.17282 0.34317 -0.374486 -1.073683 -0.529904
H 11.49987 9.3895 6.18003 -0.392596 -0.254233 -0.194557
H 11.13097 10.36017 7.44435 0.548015 -0.610511 -0.614177
H 3.48131 1.32839 6.85327 2.197504 0.850418 -1.494688
H 2.13407 0.61836 6.74792 1.11024 0.738621 1.29669
H 10.19897 6.21385 10.57407 -0.463832 0.655487 0.521696
H 10.88847 5.29023 9.67068 1.015112 -0.995541 -0.857699
H 8.88155 7.45756 12.43837 -1.161012 -1.552504 0.417728
H 7.82633 7.11619 0.70029 -0.497457 0.435199 1.253991
H 7.83767 0.84918 12.09217 0.449785 0.507101 -2.023739
H 8.78422 1.14069 10.85247 4.183371 -0.14138 -0.935635
H 6.55503 2.30138 7.21413 0.9851 0.062858 -0.542225
H 7.62415 2.36614 6.01707 0.022685 -0.131848 0.866486
H 1.58349 2.8754 7.73947 0.36768 0.983382 -1.154382
H 2.49499 4.01363 6.99685 -0.841199 -0.454292 0.210889
H 8.64327 5.32609 8.6523 0.449057 -0.18925 0.511537
H 7.96549 4.39974 7.56513 -0.03452 -0.910067 -0.213599
H 0.07612 0.35245 9.94928 0.291023 0.110293 0.49381
H 1.28664 12.36817 9.55094 0.951201 -1.257822 -1.476644
H 9.50271 10.89837 4.98491 0.484048 0.135089 0.238108
H 8.70008 9.61894 4.89582 -0.129527 -1.126607 0.693243
H 0.26889 1.2441 1.57254 0.137904 0.218587 0.372444
H 0.01666 2.43428 2.5492 0.282088 0.01365 0.021778
H 0.04085 4.22851 11.56267 0.275936 0.685562 -0.131563
H 12.75832 2.82003 11.14457 0.288858 -1.394446 -2.031064
H 1.87606 12.44987 4.95319 -0.292455 0.618955 0.285635
H 1.69822 1.21106 4.72574 -0.350844 -0.517272 0.287583
H 4.9121 1.28834 3.01531 -0.581354 -0.054779 -0.048278
H 6.17617 0.41629 2.89205 0.048185 -0.816549 -0.524205
H 6.00506 0.12206 8.54864 -0.473428 -1.200008 2.911492
H 6.38408 0.0316 7.20777 -0.193078 0.974938 -0.499456
H 11.75127 4.95979 3.00089 -0.334632 0.72765 -0.067581
H 0.10656 4.60201 2.09721 -0.3225 0.275709 -0.517
H 11.95707 1.18124 7.16657 -0.0178 -0.44683 -0.795597
H 11.54097 1.42215 8.6171 0.270805 0.86528 -0.670562
H 11.30967 12.01577 5.97952 -0.045389 -0.787678 0.447848
H 11.75207 0.19159 4.98435 1.141054 0.6432 -1.190677
H 6.54304 10.89377 10.00851 -0.310791 0.92864 0.267868
H 6.87781 12.39177 10.30607 0.644934 0.55866 0.536263
H 1.87391 7.68589 6.67979 0.892441 0.429998 0.039262
H 2.97157 8.77772 6.41578 0.116638 1.746318 -0.956548
H 0.65518 6.18723 0.07239 0.680347 0.243089 -1.966445
H 12.63177 6.51434 11.67657 -0.066054 0.343956 -0.69483
H 12.53327 3.51275 8.48919 -0.834776 0.363198 0.947068
H 0.42804 4.76297 8.83843 -1.124072 -0.508654 0.666413
H 3.79576 2.8666 1.76928 2.814102 -0.855234 -1.209787
H 5.4683 2.30863 1.33347 -0.324795 0.434712 0.725887
H 5.02988 4.97357 4.56278 0.529813 -0.255968 0.052853
H 4.43905 3.90069 3.74682 -0.519167 -0.54314 -0.186667
O 8.37831 7.96663 2.48066 0.088694 1.760134 0.296747
O 5.66767 9.35668 7.72868 -2.240024 1.68265 0.279494
O 3.89816 4.70462 6.87371 1.166394 -0.651954 0.714286
O 3.1363 5.99349 10.43117 -0.65809 -1.44373 -0.829663
O 9.67498 3.06109 2.9652 0.822223 -3.293676 0.930326
O 6.75593 11.77937 5.38512 -2.426369 1.496621 1.260621
O 7.63117 7.83413 6.02891 1.481051 -1.822827 0.733018
O 12.06677 7.47282 1.11391 -0.693566 0.092842 -1.301957
O 8.81911 10.15257 1.0761 2.424373 0.504598 -0.811514
O 5.08596 6.17815 12.38847 -1.389566 -0.061162 -0.309452
O 10.02279 12.55977 1.59698 -0.044327 1.03692 0.253627
O 3.21354 8.2616 3.18902 -1.818364 0.06807 0.008427
O 8.13028 7.77975 9.49782 0.289642 -0.083312 0.375792
O 2.3951 8.80757 9.69878 0.560046 -0.646423 2.102934
O 2.9449 10.82307 1.35613 -2.263683 1.517043 -1.521316
O 11.10867 5.48943 4.49781 -1.338528 -0.004801 -0.667615
O 3.92852 10.53587 11.46147 -0.433157 0.638577 -1.219367
O 8.50312 1.18507 4.7863 -2.258247 -1.650461 0.106342
O 3.85724 3.09502 11.32287 0.79676 -0.162634 1.544078
O 0.05013 12.42297 0.02646 -1.498348 -2.103808 1.05681
O 10.58147 8.0941 4.75791 0.778145 -2.097239 -0.061265
O 5.943 9.65131 3.10097 -0.368362 -2.493369 1.122974
O 7.2466 3.02952 1.01838 0.332903 -0.754707 1.100759
O 8.27697 5.42929 3.66828 0.413312 0.349877 0.645404
O 7.24448 9.59969 11.42307 -0.281112 0.968567 0.841318
O 3.68058 0.58738 10.08967 2.15859 -1.853163 1.197371
O 1.51179 9.46837 12.29587 -0.702822 -1.361668 0.349948
O 0.0739 8.84874 3.17439 1.644085 1.242358 -1.491775
O 1.92451 0.60062 1.62752 -0.357395 -1.473682 -1.083369
O 1.49393 11.05917 7.96604 1.502967 -0.207488 -0.780885
O 5.00905 6.95671 5.37837 0.137751 0.273027 -0.177652
O 12.29497 11.52897 2.52335 -0.120706 0.157021 -0.026541
O 9.74014 3.65926 12.61637 2.266015 -0.056929 -0.753592
O 12.06667 3.4625 5.49929 -0.816678 -0.590029 -0.263195
O 6.48081 3.56752 10.88187 1.822038 0.924178 -0.3316
O 6.5148 11.77667 1.41757 0.391159 -0.750425 -0.624279
O 5.68531 5.71559 9.03125 0.814081 -1.463673 0.323468
O 10.56817 10.37257 8.90224 0.835635 -2.966805 0.708021
O 3.57929 5.84926 1.98776 -0.037276 0.918395 0.604508
O 5.45026 8.87939 0.57197 0.411284 0.778842 0.370087
O 11.65897 10.24937 6.57859 -0.119935 1.074279 0.652037
O 2.81756 1.00691 7.40201 -3.119556 -1.42028 0.723484
O 10.07957 5.35604 10.16897 -0.563433 0.178304 0.402973
O 8.25769 6.7161 12.74967 1.697643 0.943888 -1.796098
O 7.9199 1.10944 11.12147 -5.120386 -0.667943 2.825858
O 7.19986 2.88729 6.73302 -0.551186 0.17185 -0.022458
O 1.55109 3.69389 7.16446 0.164228 -0.703067 0.730182
O 8.28646 5.28405 7.76185 -0.497205 1.066375 -0.415051
O 1.03022 0.24923 10.15187 -1.194194 0.981605 1.042218
O 8.85019 10.44217 4.45362 -0.106476 0.663217 -0.906476
O 12.35797 1.8005 1.97958 -0.701834 -0.275026 -0.128685
O 12.65777 3.35131 11.89617 -0.715974 0.505929 2.219628
O 1.28895 0.42797 5.17524 0.703374 -0.226003 -0.827281
O 5.81983 1.20636 3.28989 0.701582 0.753557 0.594218
O 6.02844 0.70837 7.83395 0.519661 0.199531 -2.752516
O 12.01217 5.01965 2.05013 0.677935 -1.018544 0.438712
O 11.97457 1.8738 7.82856 -0.394261 -0.315135 1.234362
O 11.10637 0.11735 5.6622 -1.058066 -0.210592 0.84257
O 6.15917 11.81517 10.04017 -0.332563 -1.368603 -0.448585
O 2.80331 7.95592 6.83481 -0.839956 -2.069084 0.935729
O 0.76344 6.2752 11.84297 -0.666718 -0.448051 2.444006
O 12.43547 4.23266 9.17878 1.840726 0.384707 -1.592484
O 4.59991 2.67022 1.08665 -2.86323 0.635951 0.432882
O 5.15942 4.01429 4.37563 0.399809 1.121113 0.275171
Na 7.21336 3.02502 3.66016 0.231303 0.410153 -0.236654
Na 4.15176 7.58803 8.74605 -0.043976 0.072385 0.250681
Na 10.98187 1.73112 0.14887 0.37145 -0.045446 -0.181898
Na 2.30489 12.70707 12.13887 -0.182735 0.073337 -0.537561
Cl 2.4047 3.19765 3.38219 -0.248031 -0.394977 -0.364343
Cl 10.78487 8.78927 11.46557 0.07712 -0.370481 0.105725
Cl 3.80947 10.96347 5.69295 -0.332144 -0.301401 -0.082122
Cl 10.76247 0.58662 10.43267 0.085936 -0.052326 -0.069681
200
energy=-1091.8282884 config_type=nep2xyz pbc="T T T" virial="-16.56848 -0.77526 1.57494 -0.77526 -19.42474 2.15169 1.57494 2.15169 -14.02712" Lattice="12.708837509 0.0 0.0 0.0 12.708837509 0.0 0.0 0.0 12.708837509" volume=2052.662181839692 Properties=species:S:1:pos:R:3:force:R:3
H 0.85387 8.08888 2.30969 -0.129957 -0.010636 -0.239734
H 2.35461 7.95629 2.28525 1.244977 0.576598 0.787457
H 6.73613 9.53912 3.95812 0.006741 -0.276471 0.008927
H 6.09876 8.98767 2.63523 -0.154773 -0.436933 0.241177
H 9.75425 0.56787 2.69636 -1.003162 0.897464 -0.253695
H 8.66206 1.76866 2.64977 0.240968 -0.692048 0.385113
H 6.18594 12.12896 5.38255 -0.004558 -0.560624 0.259159
H 6.99817 11.30876 6.50867 0.370996 -0.026258 -0.433858
H 3.68213 0.171 6.19654 0.537623 0.269642 -2.26888
H 3.28616 0.00942 4.69871 -1.826865 -0.990343 -1.406147
H 4.39882 3.28331 11.41146 0.369975 -0.15651 0.375716
H 3.72998 2.60565 12.69706 0.673142 0.189616 0.226155
H 11.94356 12.43356 10.07416 0.950535 1.767144 0.564401
H 11.37846 11.13556 10.49756 -0.365465 -1.216284 1.559973
H 1.18793 8.7368 9.59447 -0.562171 -0.518134 0.586832
H 0.21795 8.89975 10.81816 0.135507 -0.737927 -0.879826
H 6.69067 5.62977 2.53061 -0.654421 0.493855 -0.256565
H 7.2743 6.97917 3.2073 -0.342982 -0.885603 -0.597328
H 10.26916 7.07398 0.1588 1.433049 -0.239716 -0.743828
H 8.97598 6.21028 12.52866 0.579373 0.142614 -0.078764
H 2.55465 3.32878 8.10417 -0.43214 -0.637407 -0.028241
H 3.9201 2.72736 7.94491 -0.454439 -0.284987 0.012694
H 9.39375 10.54966 7.37522 0.070314 -0.109001 -0.247694
H 10.22936 11.53716 8.31584 -1.483437 -0.473528 -0.571604
H 4.56771 3.17019 5.43691 0.259388 -0.404918 -1.658932
H 4.44855 1.75346 4.83959 0.11037 0.23103 -0.356822
H 6.29621 8.85011 0.382 -0.26811 -0.5069 0.419773
H 4.87846 9.17956 0.74018 -1.340519 1.184153 -0.06057
H 11.90936 2.9384 3.655 -0.150313 -0.751409 1.320718
H 12.65776 3.04912 2.31861 -0.615445 0.339528 0.205207
H 9.71421 1.72882 8.00607 0.103069 0.048814 -0.190516
H 9.58236 0.34556 7.30952 -0.130911 -0.495848 -0.336479
H 4.50067 1.95511 2.70035 0.273616 0.265851 0.900023
H 4.00839 1.13697 1.51076 0.58609 0.338575 0.326369
H 12.37816 9.97556 2.25138 -0.083488 -0.842679 -0.409809
H 12.00266 9.39228 3.51593 -0.196525 -0.211198 1.919303
H 10.74596 7.46797 3.05769 -0.641051 -0.125242 0.234314
H 9.69213 6.5686 2.45021 -0.778624 -0.22951 -1.174712
H 7.62255 9.59593 9.78155 -0.254536 -0.071617 -0.067018
H 8.24739 10.95526 9.53385 -0.335435 0.194976 0.071525
H 12.12866 7.17925 9.29804 0.632368 0.766078 0.397771
H 11.82966 5.71657 8.95427 -0.011421 -0.262103 -0.06936
H 1.76274 9.41492 6.07558 -0.039174 -0.038906 -0.149507
H 3.0725 9.22873 5.29708 -0.318209 0.293086 0.462386
H 2.24569 2.50938 1.32191 -0.679982 -0.73893 0.45478
H 0.88265 1.55133 1.1717 1.264747 0.781264 0.051915
H 1.9906 6.22185 0.96956 0.396016 -0.57132 0.318488
H 2.3834 4.88881 1.64826 0.077832 -0.54939 1.355106
H 8.7074 10.90316 4.27214 0.450621 0.046677 -0.138418
H 8.26762 9.81294 5.35675 0.266431 0.227914 -0.40091
H 4.1938 8.69839 3.47741 -0.317235 0.259572 0.020607
H 3.29144 9.91106 3.31838 -0.373618 1.319688 -0.204313
H 8.85041 0.10865 11.69406 0.028882 -0.354364 0.208648
H 9.46349 0.98713 10.60356 0.619428 0.519495 -0.167393
H 9.85835 6.30166 6.35518 -0.270061 -0.18882 0.306682
H 10.83636 6.8754 7.43377 0.559825 -0.173508 1.917722
H 7.2162 3.53457 3.24974 0.514148 -0.894747 0.556653
H 6.86094 2.68171 4.45018 -0.469351 -0.495155 0.393417
H 2.53474 10.08596 0.5894 0.12528 0.161439 0.068649
H 1.94495 8.79058 12.63136 0.423303 0.924145 0.026315
H 8.06847 1.69212 6.71019 -1.126408 0.490128 -0.123469
H 6.66016 1.04602 6.44273 0.29751 0.671803 -0.111616
H 0.2231 0.69253 6.41978 -0.374729 0.321813 -0.279594
H 0.5514 11.86426 6.60085 0.780294 2.477914 -0.018839
H 8.05363 7.06553 8.96316 -0.105639 0.405142 0.320755
H 9.47827 7.57352 9.36747 -0.596497 0.090188 -0.28805
H 5.85651 7.47897 4.77595 0.298096 -1.654987 1.597917
H 6.87937 6.38983 5.26186 -1.383029 0.011466 0.288245
H 1.54899 5.4724 5.68059 0.700695 0.500452 0.049495
H 0.37549 5.13699 6.61474 0.341165 0.149787 -2.224418
H 8.59413 8.47931 7.3536 -0.844717 -1.459226 2.649408
H 9.76449 8.49438 6.36041 -0.336857 -0.005642 0.161228
H 9.17426 10.73846 0.28366 0.029966 -0.006474 -0.028254
H 9.85987 11.71696 1.21768 0.204216 0.156863 -0.236284
H 10.30836 3.19945 1.1291 0.874092 0.553012 0.848319
H 9.30946 2.17362 0.81226 0.534571 0.249968 -0.735294
H 6.61934 0.94892 8.3094 0.316108 0.113358 -2.4467
H 7.50563 0.99666 9.59989 -1.07945 -0.180043 -0.423076
H 3.73594 1.2546 11.07086 -0.182807 0.507756 0.602985
H 3.52575 12.66286 11.94206 0.060235 0.102599 0.088097
H 4.125 10.87056 9.97826 0.23585 -0.056616 -0.180687
H 3.59501 10.15786 11.22496 0.737824 0.093135 0.172906
H 7.43458 12.46626 1.03704 -0.026431 0.016805 -0.905978
H 6.05444 11.97006 0.59146 0.450605 0.067863 -0.290474
H 4.28101 7.33928 11.00236 0.205349 -0.475214 0.552465
H 4.17485 8.65232 10.17376 0.299071 -0.067849 0.092129
H 1.82912 4.54398 4.02719 0.14926 -0.272283 -0.261875
H 3.1231 3.76244 3.76088 1.684429 -0.967182 0.908681
H 1.46473 11.97736 3.1752 0.430785 -0.220118 -0.122863
H 1.56224 11.48926 4.62943 0.851766 -0.02546 -0.861948
H 11.14446 2.92855 9.10475 -0.221582 -0.032175 0.394625
H 9.76756 3.48824 9.50703 -0.019727 0.009583 0.142516
H 4.79722 11.66336 7.57972 -0.478827 0.214716 0.361349
H 3.56252 10.78136 7.84846 0.21634 1.098972 0.048643
H 8.89019 5.17039 4.34483 -0.566228 0.270837 -0.135707
H 8.63894 3.88848 5.14615 0.116596 1.046812 0.082988
H 0.01826 6.95406 0.54137 -0.230477 0.057358 -1.071486
H 12.65306 7.26721 11.68616 0.406527 0.148991 -0.101348
H 7.73498 4.66655 11.05326 0.287287 0.466636 0.202181
H 9.08914 4.17192 11.47746 0.188381 0.306969 0.440502
H 11.25566 11.92876 2.9807 -0.145777 0.0062 0.293948
H 11.13796 11.24356 4.36019 -0.983365 0.949486 -0.557399
H 5.35843 6.9796 9.06495 0.01026 -0.173132 0.170412
H 6.05163 6.90912 7.66768 -0.097955 -0.428772 0.283324
H 0.2922 10.60526 12.11866 0.215935 0.163187 0.60158
H 11.58516 10.26176 12.69176 -0.357399 0.517659 0.268899
H 6.95348 0.44791 3.46201 0.40244 0.084542 -0.479399
H 5.70646 12.31656 2.99166 -0.066526 -0.111455 -0.180342
H 10.86136 2.17944 6.20894 -0.012428 -0.206469 -0.793269
H 12.19966 2.90194 6.05377 -0.123968 0.021715 -0.324146
H 3.58437 5.34641 6.79458 0.177963 0.377849 -0.567274
H 3.88601 6.26799 5.58571 1.429936 0.361156 -0.582574
H 8.33952 9.77715 11.73946 -0.564816 0.066753 -0.371984
H 8.66207 8.54247 12.64546 0.012227 -0.149209 0.282543
H 12.20496 4.87314 11.85036 -0.083425 1.78106 0.351469
H 11.42656 3.59017 12.03866 0.560372 -0.071795 -0.342621
H 5.57698 4.89477 11.32786 0.044579 0.232425 -0.102554
H 5.93351 4.09935 9.97096 -0.26732 0.156537 0.505784
H 5.06841 6.93581 0.31165 -0.017682 -0.570999 -0.528767
H 3.93005 5.78566 0.21344 1.547726 0.509879 -0.687017
H 0.23952 1.75431 11.07996 -0.690657 1.354063 -0.376805
H 0.83933 0.56527 11.61686 0.07669 -0.329297 -0.852134
H 0.51045 10.67136 9.05708 -1.545365 0.655736 1.095935
H 1.21204 10.25526 7.89184 0.808641 0.25258 0.287893
H 5.70984 4.72534 7.89277 0.36514 0.707038 0.065096
H 5.9838 3.37518 7.07168 0.465932 -0.022955 0.222824
H 2.51308 6.43401 9.84351 0.383278 0.344696 0.089177
H 1.78322 5.14317 9.39292 -0.291019 -0.04698 -0.223034
O 1.5841 7.60469 1.85418 -1.556412 -0.233862 -0.731347
O 6.13343 8.82302 3.60408 0.108308 0.246522 -0.4232
O 9.04184 1.00812 2.1523 0.197782 -0.303558 0.456522
O 6.25211 11.88536 6.34339 -0.686964 0.839487 0.291196
O 4.00051 0.2968 5.22983 0.764788 0.614663 3.935072
O 3.6331 2.77223 11.75116 -0.390737 0.399669 -0.558166
O 11.48296 11.68606 9.74735 -0.473445 -0.682198 -2.341241
O 0.54838 8.21353 10.14946 0.293553 1.560991 0.519871
O 7.42127 6.02524 2.99823 0.960448 0.453716 0.521034
O 9.37544 6.89927 0.4033 -1.756464 0.066398 0.59647
O 2.97076 2.4549 7.98018 0.943127 0.529481 0.232084
O 9.34998 11.42376 7.80712 1.626843 0.457398 1.254012
O 4.69216 2.70118 4.5507 -0.407771 0.527273 2.124587
O 5.50376 8.48514 0.86764 1.984094 -0.175768 -0.316199
O 11.80366 3.25714 2.77083 0.604993 0.565569 -1.547806
O 9.62499 1.30391 7.11616 -0.034212 0.602947 0.614105
O 4.33841 2.03512 1.76456 -1.04417 -0.677012 -1.448497
O 12.13526 9.08141 2.63166 0.443755 0.858026 -1.31356
O 10.01716 6.84975 3.29768 1.53553 0.536573 0.748732
O 7.50525 10.53186 10.01756 0.722477 -0.18715 -0.191233
O 11.43466 6.60468 8.97218 -0.828458 -0.32893 0.055847
O 2.72061 9.56376 6.15512 0.159764 -0.127931 -0.092847
O 1.35731 2.39906 0.92197 -0.657642 -0.343948 -0.188455
O 2.46156 5.36004 0.82299 -0.316712 0.77407 -1.599006
O 7.96575 10.39556 4.61261 -0.448034 -0.295587 0.446991
O 3.24731 8.96765 3.44234 0.954766 -1.395167 0.226677
O 8.80359 0.314 10.75066 -0.518873 0.020877 -0.242124
O 10.68896 6.76773 6.50794 -0.522999 -0.009628 -2.689404
O 7.56703 2.78836 3.79967 0.008315 1.308445 -1.03313
O 2.35125 9.67119 12.44016 -0.45758 -0.922564 -0.200712
O 7.07979 1.94006 6.57231 0.700672 -1.135273 -0.109058
O 0.95699 0.12489 6.65835 -0.548776 -2.920041 0.349302
O 8.58832 7.88059 9.07195 0.425093 -0.682156 0.207947
O 5.94492 6.68879 5.45457 1.030612 1.744507 -1.603749
O 0.59993 5.29525 5.61386 -1.096832 -0.652118 2.104468
O 8.91063 8.9198 6.60957 1.407178 1.687863 -2.832951
O 9.8354 11.46896 0.28166 0.073956 -0.152951 0.432228
O 9.79093 2.93119 0.37836 -0.858806 -0.674076 -0.290386
O 6.57507 0.99287 9.2295 0.713182 0.038227 3.307376
O 3.5963 0.29471 11.03656 0.109632 -1.095034 -0.72566
O 4.43814 10.30396 10.71256 -1.144958 0.011212 -0.069568
O 6.95123 12.20386 0.21995 -0.580638 0.061455 1.117758
O 4.12538 7.67246 10.11186 -0.227102 0.257093 -0.707275
O 2.38471 4.14753 3.33398 -1.82659 1.042389 -0.827604
O 2.12489 11.61946 3.81579 -1.03862 0.077799 1.274799
O 10.26076 2.65558 9.46599 0.149207 0.021043 -0.486071
O 3.96505 11.65076 8.13143 0.3631 -1.25901 -0.809903
O 8.88059 4.84887 5.25799 0.316362 -0.948477 -0.063982
O 12.26216 6.75702 12.40176 -0.19471 -0.462127 1.189048
O 8.65886 5.00061 11.19436 -0.561633 -0.897423 -0.287353
O 10.59456 11.80356 3.71003 1.065527 -0.940511 0.464708
O 6.05133 6.48604 8.55585 0.098181 0.350921 -0.66477
O 12.23576 10.03396 12.02136 0.053472 -0.69044 -1.089256
O 6.06544 0.17357 3.68844 0.013354 -0.083553 0.513003
O 11.48506 2.51192 5.51127 0.405184 0.330649 1.029678
O 3.18877 5.91789 6.10843 -1.395196 -1.014464 1.197937
O 8.21673 9.41788 12.63076 -0.110428 -0.42389 0.016294
O 12.23926 3.95824 11.62076 -0.829716 -1.688873 0.197314
O 5.94773 4.06686 10.94766 0.039262 0.007618 -0.340134
O 4.82265 6.12279 12.49526 -1.529531 -0.097691 0.880462
O 0.54532 0.92033 10.74266 0.563056 -0.964001 1.147878
O 1.4173 10.61526 8.79126 0.414293 -0.78129 -1.34893
O 5.31449 3.95426 7.47731 -0.743594 -0.705825 -0.239238
O 2.41682 5.4962 10.03516 -0.093324 -0.461412 0.179296
Na 1.75467 4.01599 11.62626 0.073293 0.061988 0.285275
Na 5.9985 12.16096 10.76896 0.085336 -0.191004 0.117933
Na 11.22776 5.40953 4.64953 0.303726 -0.112787 0.244765
Na 2.13751 0.33135 8.92731 0.159876 0.100376 -0.240346
Cl 0.26334 3.86541 8.50358 -0.120468 0.061197 -0.295657
Cl 12.19886 9.87336 5.94186 0.174368 0.414931 -0.065805
Cl 4.1557 11.53476 1.35332 0.098057 0.112888 -0.099615
Cl 0.15341 12.07226 1.65023 -0.136389 0.28407 -0.426525
200
energy=-1087.00925848 config_type=nep2xyz pbc="T T T" virial="-33.79752 2.32607 -2.36214 2.32607 -22.05431 -5.87349 -2.36214 -5.87349 -22.34967" Lattice="12.819284439 0.0 0.0 0.0 12.819284439 0.0 0.0 0.0 12.819284439" volume=2106.644975189124 Properties=species:S:1:pos:R:3:force:R:3
H 8.71535 6.68835 1.70829 -0.286395 0.165942 1.023761
H 9.74767 5.91164 0.82283 0.191125 0.580402 0.244875
H 5.58988 4.53254 2.366 -0.389284 0.353 -0.501294
H 6.36967 4.18109 3.63805 0.447282 0.1296 -0.714314
H 1.86269 8.33546 3.57978 0.06949 -0.119631 0.196908
H 3.33499 8.67933 3.57598 -0.110015 -0.378115 -0.075935
H 9.92398 5.12577 4.89699 -0.230133 0.008775 1.040317
H 10.60818 5.62228 3.58306 -0.19241 -0.498558 0.298051
H 8.97648 6.03819 3.61775 0.390516 -0.158667 0.191926
H 7.58547 5.85365 3.10351 -0.361076 0.240539 -0.233221
H 8.27006 2.82429 7.3867 0.454123 1.236172 0.31689
H 7.52881 3.87725 8.27215 2.158265 -0.236585 -0.0842
H 11.61858 10.25238 5.99539 -0.137704 -1.204671 -0.788551
H 12.31268 8.82128 6.15855 -2.142591 0.955459 -0.579466
H 9.65851 8.81229 6.14878 -0.116982 -0.202021 -0.169973
H 8.07291 8.55666 6.09452 -0.115806 0.235481 -0.433832
H 6.99042 1.33406 1.02575 -0.084984 -0.579818 -0.490353
H 5.61483 0.42622 0.85811 1.578802 2.941711 -0.685501
H 10.56228 7.53956 2.43344 -0.726322 0.04606 0.346989
H 11.89678 7.06456 2.7115 -0.051026 -0.076183 1.11084
H 2.63409 3.81523 12.22438 0.613599 1.107553 0.259532
H 2.29946 2.52841 11.60008 0.177548 -1.033029 -0.399717
H 6.47165 6.03952 8.8981 -0.296015 -1.785664 0.381959
H 7.69696 5.94849 9.58346 0.682934 -1.185181 0.728602
H 1.49699 7.86178 6.77442 -0.904393 -0.553734 0.435801
H 0.01471 7.12302 6.9991 0.755887 -0.348775 0.093937
H 8.84337 9.41021 9.30641 -0.667042 0.322056 0.108899
H 9.94324 9.00179 8.35202 -0.344513 -0.021594 1.79178
H 2.4653 8.6487 11.12468 1.239255 0.194303 -0.143248
H 3.61922 9.69781 10.97258 0.296303 1.060806 -0.04328
H 12.69688 2.9084 9.18385 -0.428871 0.501294 0.152138
H 0.32388 2.61364 7.71112 -0.453291 0.768115 0.387888
H 5.47579 1.9609 7.73403 -0.402253 -0.087353 0.532872
H 3.96928 1.7936 7.91341 -1.148452 0.077318 -0.642888
H 0.61702 0.24198 3.59749 -0.068511 0.509513 0.293532
H 1.36381 1.33719 4.60114 -0.36927 -2.203831 -0.870599
H 8.66345 12.44068 10.75278 -0.136123 0.387536 0.312566
H 9.9202 11.61158 10.52728 -0.366724 0.660666 1.331804
H 9.75742 10.18808 1.12357 -0.084264 -0.258714 0.319046
H 9.79025 11.36918 0.14499 0.63891 -0.498302 1.069128
H 7.43825 10.16708 11.77018 0.625868 -0.446287 -0.387288
H 7.63744 9.47257 0.21788 -0.949042 -0.390476 3.493093
H 3.41149 6.32959 8.33372 0.155059 0.053136 1.039469
H 3.96378 7.30507 9.40594 -0.094959 -0.195819 0.158202
H 12.27228 0.18728 8.50333 0.987211 -0.964311 0.313207
H 0.98833 12.73518 8.01165 -1.847622 -0.642693 1.381672
H 0.14637 2.25431 0.82605 -1.744587 -0.804788 0.595139
H 12.12008 2.08609 2.12188 -0.150278 -0.147763 -1.954446
H 0.38602 3.41946 11.17558 -0.451155 -0.048169 -0.177936
H 12.51938 2.14902 11.07048 0.226462 -4.300092 1.266649
H 5.55916 11.18568 1.88901 -0.160292 -0.77091 -0.038504
H 4.04667 10.66208 1.53787 1.669245 1.368171 0.066129
H 8.69119 0.0468 1.65081 0.135362 -1.300834 0.341153
H 8.73379 1.45582 2.25008 0.786088 0.136738 -0.115369
H 4.86227 10.61348 4.15086 -0.968768 1.058461 -0.072758
H 4.01197 11.02668 5.34098 -0.537752 0.365923 -0.019356
H 10.79848 12.09398 2.57726 0.417207 0.445568 1.358163
H 11.05878 12.51038 4.12593 -0.683588 -0.387371 0.395968
H 9.3703 3.38313 3.50467 0.267443 -1.68191 0.44435
H 8.79929 2.10095 4.37475 1.410444 0.939097 -1.980069
H 8.49036 5.36264 6.84321 -0.027553 -0.584613 0.02506
H 9.01414 6.77156 6.37706 0.462486 -0.411607 0.066429
H 12.60438 3.28599 4.35293 0.64462 1.273164 0.99309
H 11.45128 2.49354 3.69963 -1.129182 -0.089145 0.509815
H 0.05312 5.08306 5.52581 0.440041 0.13549 0.18136
H 0.30396 5.3179 4.02106 1.138801 -0.582941 1.36931
H 0.65668 8.03627 8.77152 0.94295 -0.069996 1.358439
H 1.74801 7.34169 9.7345 -0.987326 0.917624 -0.154438
H 7.15185 0.28822 9.35829 0.28436 0.92614 1.251866
H 8.16947 1.45822 9.46772 -0.038592 0.123699 0.517631
H 12.43918 9.10045 4.12044 0.108707 -0.607632 -1.243188
H 0.38267 10.21088 4.06541 0.961624 1.767635 0.107022
H 12.64968 11.50698 1.99996 0.713322 -0.19588 -0.100391
H 1.19793 10.89948 1.47285 1.084575 -2.176024 0.452059
H 4.40262 4.54713 0.41213 -0.531033 0.568027 1.426746
H 3.89403 5.51096 1.54911 0.025094 1.495074 -0.054623
H 11.43778 5.95642 10.24548 -0.238431 0.434975 0.613526
H 12.56148 6.95896 10.52738 0.567524 0.523769 0.001886
H 6.22407 6.80209 6.03117 1.550403 2.478543 -2.20036
H 5.59303 5.47451 6.08384 0.052773 0.155487 0.660525
H 3.51886 2.51838 3.95695 -1.498945 0.902936 1.011084
H 2.62016 2.8686 5.28734 0.107965 -0.092566 -0.442506
H 0.04129 9.74766 10.32338 -1.999979 1.539685 0.610124
H 11.78268 10.41728 9.52417 -0.705571 0.430606 -1.767161
H 9.75608 6.19817 8.75011 0.149081 0.781964 -0.427075
H 9.73208 4.73977 9.01806 -0.217428 0.607023 0.81418
H 12.43818 12.22928 6.79234 0.252488 0.494142 2.935431
H 0.17496 12.52508 5.40956 -0.000519 -0.421718 -0.057926
H 2.90743 9.22719 0.20243 -0.204855 0.342464 0.790994
H 2.56487 8.31495 1.34594 -0.056969 0.85624 0.608807
H 7.82682 12.02308 7.53531 0.416878 0.901792 -0.680044
H 7.90369 0.72042 6.88085 -0.013685 -1.059831 -0.241899
H 12.36208 4.61331 7.74356 -1.170922 1.198844 -1.008559
H 11.03258 5.41554 7.11639 -0.20922 -0.174263 -0.111849
H 8.74852 3.01995 11.83038 0.249559 0.49438 -0.06556
H 10.00068 3.73815 11.28088 -0.228114 -0.499318 -0.017961
H 2.64702 2.18229 1.43609 -1.483267 -0.527482 0.228565
H 1.66418 2.07087 2.65194 0.274385 -0.534498 -1.471386
H 11.62478 4.11495 0.82869 -0.057441 -2.301045 0.622056
H 11.82388 5.10233 12.49848 -0.191145 0.344398 1.441907
H 8.03233 5.31291 0.22789 0.095774 0.244513 -0.101033
H 7.30311 4.08338 0.701 -1.337769 -1.001919 2.690017
H 7.39411 7.52431 4.18101 0.726271 -0.352565 -0.785782
H 6.24533 8.57948 4.17665 1.023854 -0.756064 0.563215
H 4.58969 5.00704 10.58108 -0.003477 -0.399687 1.925089
H 5.39128 5.47345 11.79058 0.778774 0.388599 0.429982
H 4.63494 10.54458 7.59866 -0.846695 0.391701 -0.156918
H 3.10733 10.57368 7.86376 -0.772274 -0.317596 0.630871
H 0.17734 0.00089 12.51008 0.031773 -0.119923 -0.064333
H 12.72558 12.36528 11.02728 -0.055743 0.360124 0.269148
H 12.56468 7.8427 0.4131 0.120678 0.559613 0.149474
H 12.60348 9.43698 0.44305 0.04538 -0.207688 0.225245
H 4.89406 7.60087 0.09556 0.101047 0.507952 -0.141906
H 5.8932 7.60827 1.32324 -0.691425 -0.016565 -0.516548
H 10.00328 0.54921 7.972 0.481746 -0.216213 0.701313
H 10.72388 1.82197 8.39537 0.393612 -0.614645 0.608334
H 1.61383 6.30244 2.38593 -1.083848 0.458112 0.17816
H 0.43543 5.86505 1.48405 -0.660822 -0.619482 -0.335645
H 3.62959 1.19284 9.87355 -0.378817 0.098032 2.627492
H 3.36606 0.36009 11.17648 -0.446623 -2.165319 0.438197
H 5.52788 2.12765 2.39308 -0.395933 -0.32456 0.916664
H 5.77361 1.92519 3.95843 0.425247 0.005133 0.218239
H 8.64715 12.10128 5.19437 -0.717908 -0.278221 0.607675
H 8.11813 11.27948 3.87386 0.164539 0.115847 0.748805
H 5.10571 10.91428 10.30998 -0.92249 0.42653 0.043065
H 4.65044 11.66688 11.59758 -1.199518 -1.541868 -1.796741
H 3.2695 7.45835 5.56716 -0.654028 0.142094 -1.726491
H 4.25695 7.07217 6.61001 0.017623 -0.069339 0.284707
O 9.20829 6.72854 0.87852 0.686785 -0.5078 -1.879556
O 6.48679 4.59995 2.75126 -0.020098 -0.652709 1.198821
O 2.75176 7.90264 3.66113 -0.141578 0.625471 0.018421
O 10.08898 4.85441 3.9887 0.725122 0.702387 -1.060062
O 8.25422 6.56914 3.2349 -0.871731 -0.389524 -0.006527
O 8.47512 3.57285 8.02203 -2.26939 -0.71577 0.116698
O 11.45058 9.27648 5.75035 2.180558 0.515357 1.49001
O 8.89216 8.35867 6.57177 0.487977 0.114405 0.277793
O 6.08081 1.35634 0.61066 -1.450085 -2.42054 0.770161
O 11.03858 7.17761 3.20164 1.039653 0.0837 -1.403305
O 1.96609 3.1459 12.25488 -0.747473 0.114669 -0.118329
O 6.94463 5.33677 9.44765 -0.757744 2.820112 -1.181214
O 0.57699 7.92804 7.15303 0.08659 0.238766 -0.345752
O 9.75602 9.10255 9.34221 0.569611 -0.368001 -1.923287
O 3.4364 8.80705 11.28928 -1.820675 -1.703943 0.467797
O 12.47838 3.14784 8.25363 0.436823 -0.6421 -0.998119
O 4.77433 1.91576 8.41944 1.590364 0.147301 0.256457
O 1.23761 0.33772 4.35007 0.575708 1.579286 0.13715
O 9.44856 12.13158 11.24068 0.710047 -0.854276 -1.195501
O 10.18598 11.04138 1.01536 -0.674205 0.989639 -1.4093
O 7.95638 9.44519 12.17748 0.771037 0.536065 -3.524268
O 3.59269 6.41085 9.30992 -0.212824 0.146874 -1.063982
O 0.19506 12.30758 8.52688 0.877654 1.984253 -1.268326
O 12.01308 2.00608 1.10684 1.901181 1.088581 0.747025
O 12.40908 2.99673 10.76988 0.515036 4.115608 -0.403525
O 4.68139 11.47408 1.57653 -1.602809 -0.71273 -0.40229
O 8.68602 0.95434 1.38602 -0.588953 1.337313 -0.132456
O 4.08623 11.19828 4.37662 1.385172 -1.463233 0.305389
O 11.43418 12.46718 3.25271 0.395436 -0.288927 -2.026891
O 9.41303 2.36561 3.55878 -1.298075 0.356716 1.051465
O 9.23815 5.78501 6.40689 0.00103 0.841431 0.061997
O 12.38378 2.69816 3.6531 0.208978 -1.24345 -1.202774
O 0.76359 4.96659 4.85311 -1.848699 0.719769 -1.23595
O 0.98946 8.00591 9.7688 0.456829 -0.982437 -1.306323
O 7.47956 1.00663 9.99498 -0.422015 -0.921929 -1.435777
O 0.32505 9.45544 3.49365 -1.044685 -1.163681 1.179356
O 0.61441 11.61578 1.41986 -1.61033 2.189033 -0.450821
O 4.13963 4.61992 1.37986 0.488413 -2.295072 -1.092747
O 11.81628 6.52321 10.96458 -0.470209 -0.794804 -0.290857
O 5.8175 6.24538 6.64293 -1.513959 -2.542645 1.541492
O 2.62842 2.88977 4.30378 1.549232 -0.874677 -0.893029
O 12.04188 10.38238 10.42108 2.831148 -1.975041 1.485258
O 9.81797 5.61225 9.50321 -0.16662 -1.55446 -0.598306
O 12.36358 11.95048 5.91986 -0.566846 -0.724534 -2.940608
O 2.58332 9.28059 1.15486 0.572566 -0.687104 -1.51572
O 8.33637 12.64818 6.93137 -0.285609 0.095598 0.849589
O 11.99258 5.47349 7.21124 1.372799 -0.824957 0.746645
O 9.56646 2.86765 11.32668 0.039549 -0.023313 0.135389
O 1.85348 1.65082 1.743 1.617373 1.314501 1.563393
O 11.69208 5.03562 0.67726 0.278797 1.916849 -2.207104
O 7.7254 4.42938 12.78468 0.983518 0.710454 -2.476173
O 6.78718 7.99391 4.77015 -1.705407 1.112043 0.941456
O 4.78223 4.77404 11.56298 -0.693165 -0.228014 -2.610427
O 3.7629 10.84358 7.24036 1.880076 -0.001043 -0.602973
O 12.71108 0.32111 11.63328 -0.088534 -0.36943 -0.071365
O 12.05428 8.65744 0.28459 -0.48702 -0.35803 -0.377618
O 5.15533 7.11556 0.88147 0.496272 -0.128039 0.438883
O 10.61678 0.87937 8.68442 -0.837722 0.763121 -1.483905
O 0.66523 6.49669 2.17221 1.701046 -0.083978 0.130569
O 3.4486 1.24197 10.90338 1.101805 2.315101 -3.283771
O 5.09921 1.91821 3.26413 -0.342165 -0.083092 -1.048669
O 8.7315 11.92968 4.25481 0.402116 0.067587 -1.472542
O 4.24385 11.16048 10.78828 2.617266 1.521692 1.525105
O 3.32292 7.35399 6.50462 0.347048 -0.051825 1.317763
Na 10.22058 8.32609 11.47998 0.198749 0.106959 0.243564
Na 10.59088 1.1017 12.40838 -0.113252 -0.006744 0.050929
Na 5.68679 2.38799 11.22168 0.0744 -0.149849 -0.119309
Na 3.25833 12.77938 2.99492 -0.157826 0.154801 0.198022
Cl 6.92928 10.74858 9.07076 -0.258446 0.078556 0.100167
Cl 2.03736 1.8726 7.12964 0.200893 -0.369488 0.023106
Cl 7.2916 2.49338 5.53935 -0.780387 -0.153403 0.282343
Cl 7.05884 9.44794 2.21821 -0.354466 0.506906 0.002831
