174
energy=-940.73970868 config_type=nep2xyz pbc="T T T" virial="-15.89377 -3.67212 -8.57862 -3.67212 -12.69616 -0.0082 -8.57862 -0.0082 -8.14828" Lattice="11.65149498 0.0 0.0 0.0 11.65149498 0.0 0.0 0.0 11.65149498" volume=1581.7759103845253 Properties=species:S:1:pos:R:3:force:R:3
H 3.3754 1.06138 2.49668 2.007225 0.445323 0.505082
H 4.48895 3.03948 0.68359 -1.262609 1.215218 -0.074712
H 4.83077 3.36573 6.11663 0.300711 0.088599 0.597512
H 5.22317 3.86036 3.83311 0.27475 0.255534 -0.481373
H 3.32635 4.78755 4.42058 0.136149 -0.379104 0.2462
H 4.34521 2.6149 4.08807 0.072638 -0.313283 -0.419827
H 1.05868 0.8611 1.70192 0.334522 -0.067871 0.000922
H 5.63012 1.51933 1.62916 -0.855269 -0.7396 0.73383
H 1.16745 4.98865 4.73604 0.501356 0.004516 0.546957
H 0.15452 0.45313 5.20675 -0.069951 -0.353542 -0.926842
H 5.45732 5.41569 2.20728 -0.489957 1.479362 0.035918
H 6.86894 4.9002 2.78566 -0.750307 0.558862 -0.208974
H 11.39262 4.42145 4.41539 0.600639 -0.266588 1.564014
H 10.62545 0.95216 1.80368 -0.706354 -1.089523 -0.034088
H 7.7365 1.12349 3.50232 0.790073 -0.800738 0.77532
H 6.97419 2.10504 2.7404 -0.917258 0.763714 -1.256954
H 8.20347 3.47942 5.8225 1.209397 -1.288786 -0.294327
H 9.29143 2.96482 3.52324 -0.085156 0.392457 0.630792
H 10.10836 3.82737 2.68561 0.341999 0.393055 -0.728053
H 11.23647 2.12844 1.11953 -0.234995 0.188468 -0.846234
H 6.81194 3.94516 0.93933 0.307651 0.152281 -0.19713
H 11.33009 5.43931 1.61497 -1.001199 -0.185128 -0.216353
H 8.78164 5.29937 3.74865 0.075639 -0.613599 0.202624
H 6.8534 0.94212 0.76365 -0.383176 0.010289 -0.214583
H 10.24584 3.83915 0.10688 0.565932 -0.211797 -0.249367
H 9.6566 0.93328 11.42807 -0.167462 0.473412 -0.158713
H 9.01399 4.57364 0.5284 0.605031 0.168025 0.551846
H 4.43891 0.34424 3.43448 0.204051 0.388171 -0.456039
H 0.12621 6.50228 2.7531 0.049714 -0.286168 -0.341482
H 1.66309 11.13591 2.04052 0.312251 -0.406425 0.259752
H 4.03011 10.64746 4.83474 -0.606959 0.499476 1.752607
H 4.17692 7.1191 3.34291 0.278899 0.377532 -0.951344
H 4.39417 7.72214 1.86111 -0.026711 0.346094 0.02064
H 4.90022 9.82636 1.88913 -0.379421 0.46595 0.654928
H 5.9099 9.81768 4.25011 -0.260554 -0.307109 0.029918
H 2.96891 9.98023 3.40641 -1.356114 0.209895 -0.615972
H 0.69563 7.96386 5.28851 0.326149 -0.038418 0.787495
H 3.01721 6.32654 4.47229 -0.520398 -0.137406 0.228326
H 3.89394 8.70923 4.62346 0.404064 -0.903261 0.635472
H 1.73402 8.95568 3.43068 -0.297383 0.762534 -0.29132
H 5.43388 6.88025 5.12607 1.187179 0.208193 0.377967
H 0.64742 10.98558 4.14854 0.012453 0.011274 -0.00535
H 11.62144 7.58378 0.82645 0.054442 -0.106388 0.053562
H 5.78175 9.01521 0.99375 -0.279732 0.014109 -0.065071
H 8.17831 10.76474 4.0531 0.071095 -0.803389 0.153974
H 9.67774 11.3973 4.11472 -1.299593 -0.229385 0.366298
H 10.42067 9.58328 1.30041 0.151871 -0.383505 -0.400391
H 6.54612 8.48712 4.90912 0.463933 1.024503 -1.170204
H 11.17582 7.94624 4.27624 -1.502562 0.47981 -0.464086
H 7.57302 10.84407 10.88449 -0.495716 -0.523734 -0.805676
H 7.63799 6.34762 4.21236 0.040036 -0.51761 -0.024367
H 9.37707 8.39487 4.74014 -0.596136 0.500935 1.046191
H 9.18157 7.2333 3.72831 0.325052 1.705907 -0.339631
H 9.28753 9.404 2.26096 0.112199 0.014497 0.55656
H 8.33982 10.67445 0.67391 0.06867 1.159881 -1.96837
H 7.41733 7.15764 1.58738 0.091316 0.50887 -0.184932
H 6.43195 7.30646 0.3827 0.790417 0.178087 0.335113
H 3.12704 3.18784 11.55959 0.675355 0.276033 -0.036984
H 4.93651 11.20569 10.97778 0.480979 -0.641191 0.583278
H 3.9711 2.71016 7.0726 -2.271736 -0.922386 0.697547
H 2.89464 6.52385 7.54725 0.237621 -0.713324 0.133773
H 2.60806 2.22115 9.35604 -1.054796 1.027077 1.387303
H 1.67874 3.26771 10.23132 -0.361632 0.331566 -0.662575
H 4.26014 0.69201 10.41741 -1.14966 1.078081 -0.108898
H 1.18493 5.46806 10.38642 -0.632085 -0.940901 0.085616
H 5.78449 1.16888 7.07562 0.626866 0.49034 0.898359
H 1.50106 1.73372 7.27073 -0.140151 0.24399 -0.801539
H 0.33623 4.87548 9.22447 0.517526 0.210567 0.488732
H 1.4363 0.96087 8.50342 0.119232 -0.45464 0.372909
H 5.77888 3.10748 8.85621 0.620824 -0.565324 0.570035
H 6.70975 3.68268 5.76062 0.770997 0.582949 0.056926
H 6.58118 1.33163 8.53545 -0.790803 -0.288709 -1.439435
H 9.63722 2.64489 9.74253 0.514038 -1.515339 2.004371
H 10.33508 3.97786 9.28517 0.323985 -0.153881 0.709282
H 0.46538 2.92279 5.83998 -0.108296 -0.748026 -0.230926
H 8.93717 1.11922 5.79819 -0.073331 0.068251 0.782724
H 11.02988 2.03019 6.48041 -0.464546 -0.25219 0.393563
H 5.7939 2.37502 10.19159 -1.624724 -1.060809 2.449964
H 7.40785 3.43804 11.24013 -0.118163 -0.664287 -0.483205
H 8.1416 1.41683 7.12968 1.49534 0.225316 -0.98853
H 5.8762 5.384 11.27329 -0.675319 0.956239 0.117634
H 10.79355 1.01367 10.48809 0.875497 -0.43843 -1.115602
H 8.43552 11.26023 8.71284 -0.331498 -0.953378 0.426194
H 0.31818 9.05119 0.19117 -0.96702 -1.551182 -0.000356
H 3.153 0.33588 7.38767 0.737474 -0.541464 -1.092408
H 1.88238 10.80995 11.41128 0.676495 0.770599 1.028399
H 3.42573 6.22812 11.26016 0.262355 0.225568 -0.37475
H 3.79708 6.57964 6.38656 -0.032671 -0.347039 0.00313
H 2.05917 9.54308 10.51204 1.78968 -1.577232 -0.939531
H 0.00296 5.34654 6.79555 0.097669 0.085787 0.012901
H 2.28847 8.18926 6.14162 -0.469563 0.137547 0.569288
H 2.53203 7.14921 10.3484 0.410731 0.099084 -0.138226
H 3.0927 10.53723 7.0718 0.298413 -0.521718 -0.440204
H 3.72431 8.06321 8.50347 1.418315 0.26748 -0.381497
H 2.20586 8.38554 8.01064 0.538099 -0.757154 0.460427
H 0.58316 6.68366 7.1456 0.834653 1.460391 -0.099667
H 4.90818 8.34313 6.70738 1.286503 0.640212 1.71721
H 0.29686 9.43278 6.929 1.438443 -1.178142 -0.342127
H 0.51111 10.92877 9.77042 -0.722343 0.366045 -0.737222
H 11.17587 10.35564 5.8848 0.517824 -0.022201 0.916431
H 5.09884 5.6631 7.92103 0.435138 0.045541 0.167731
H 6.01131 6.79416 8.29908 0.083295 1.661824 -0.353442
H 6.4633 6.89846 6.31939 -0.026133 -0.080945 -0.497295
H 5.3384 6.22537 10.19237 0.087627 0.331324 -3.886834
H 11.38602 11.11408 8.35372 -0.124005 -0.573896 -0.626909
H 9.77364 9.23557 6.7667 -0.826909 -0.674879 -0.537652
H 10.03652 6.36791 7.94215 0.05733 0.48806 -0.004145
H 8.34098 9.77963 9.3857 -0.357408 0.959943 -0.829317
H 9.07864 7.1886 8.90248 0.223796 0.380794 0.942268
H 8.94775 7.92696 7.07014 -0.014835 -0.080773 -0.265724
H 8.25355 8.04047 10.98682 0.602098 -0.058886 0.094842
H 9.75924 8.42155 10.94563 0.958953 -0.117073 0.615129
O 3.7441 3.69587 0.51824 0.762532 -1.475046 0.230391
O 4.32246 1.24239 2.89484 -2.126824 -1.153076 -0.06137
O 1.85984 0.30602 1.55445 -0.294408 0.560594 -0.329989
O 4.59372 3.48426 4.4706 -0.251564 0.031009 0.626082
O 2.62393 5.4368 4.2507 0.339166 0.653431 -0.733147
O 4.82407 3.07445 7.08451 1.807721 0.683973 -1.03288
O 0.41567 4.50541 5.16468 -1.380654 -0.296461 -1.311797
O 0.25905 6.16899 1.83699 1.18385 0.588236 0.696001
O 5.98542 4.64946 2.41052 1.3033 -1.809495 0.490089
O 11.11025 1.74276 1.98186 0.96918 0.64987 1.027107
O 9.84318 3.78125 3.60934 -0.561345 -0.403236 -0.050713
O 7.5723 2.06637 3.46532 0.489831 0.456437 0.670934
O 8.71251 11.49252 4.39559 1.290178 0.466279 -0.284787
O 6.16391 1.63644 0.83944 0.799055 0.58803 -0.554881
O 10.00176 4.5428 0.71276 -0.896418 -0.156483 0.02647
O 4.34345 6.89984 2.37465 -0.296165 -0.757335 0.800326
O 4.86688 9.37988 1.03942 0.73693 -0.227405 -0.312429
O 4.54887 10.52626 4.0652 0.041874 0.016402 -2.073477
O 1.98002 9.85969 3.09378 1.515552 -0.857718 1.216748
O 0.42954 7.68109 4.40062 1.408828 -0.570353 -0.843085
O 3.87389 7.84372 5.11367 -0.113866 -0.211931 -0.908653
O 11.24512 8.35364 0.35089 1.156543 1.782623 -0.374602
O 11.51566 11.39305 4.56678 0.037466 0.367152 0.452105
O 6.4022 6.65114 5.36907 -1.355846 0.417145 -0.106721
O 6.76591 9.29431 4.34476 -0.08098 -0.387913 1.023619
O 8.23076 6.04691 3.46594 -0.715764 0.159472 -0.051686
O 9.68419 10.08293 1.68646 -0.772456 0.446659 0.271991
O 9.5442 8.19525 3.81559 0.220528 -1.399795 -0.940866
O 8.08201 11.30952 11.53 0.90854 -0.162658 3.206129
O 7.18464 7.77576 0.8628 -0.985617 -0.791101 -0.482526
O 3.53247 5.93117 7.0824 -0.122254 0.890303 0.050746
O 2.33096 2.54723 10.27957 1.005497 -1.083036 -0.574051
O 5.05267 0.20024 10.27618 0.303225 -0.871824 -0.462063
O 0.56998 4.69357 10.16774 0.631872 0.878324 -0.612386
O 6.50109 0.80811 7.65069 0.186782 -0.014354 0.05364
O 2.12931 1.36878 7.93758 -0.341326 -0.012992 0.581728
O 7.55235 4.13682 5.98882 -1.623794 0.371257 0.280666
O 7.41259 4.17575 0.18979 -0.391372 0.783655 0.422398
O 9.69742 3.29535 9.08285 -1.040604 2.114206 -2.712527
O 10.29863 1.59069 11.07105 -1.035557 -0.307818 0.71502
O 0.29345 1.97647 6.17121 0.371072 1.201669 -0.20495
O 6.36469 2.62596 9.51647 1.004483 1.74946 -3.050077
O 9.04238 1.57594 6.67398 -1.390753 -0.449962 -0.218242
O 5.31228 6.19927 11.10404 0.947662 -1.290896 3.846863
O 3.70356 11.27031 6.88016 -1.021705 0.661696 1.300246
O 1.46844 10.18213 10.83612 -2.211007 0.668424 0.206987
O 2.52681 6.58199 11.15164 -0.643291 -0.432263 0.20591
O 1.52423 8.27818 6.78079 0.472083 -0.031349 -0.373626
O 0.05929 5.98421 7.54322 -0.967228 -1.560067 0.087774
O 2.8555 8.15887 8.87752 -1.90633 0.584905 0.365513
O 5.51377 8.5834 7.51117 -1.03928 -0.863936 -1.670132
O 11.2461 10.07803 6.84973 -1.807252 1.344099 -0.373795
O 11.53977 11.50748 9.2205 0.881711 0.471525 1.182835
O 8.96462 8.69659 6.45014 0.827628 1.152137 0.494019
O 5.99315 5.83904 8.34715 -0.964281 -1.253578 0.097623
O 9.10821 6.69097 8.07856 -0.002141 -1.245255 -0.429176
O 7.82311 10.51091 8.90648 0.858903 -0.578009 0.355013
O 9.01594 8.19843 10.38249 -1.624959 0.233059 -0.785939
Na 2.57116 5.1914 1.74433 -0.015808 0.670697 0.148853
Na 7.87796 4.642 8.19022 0.178598 0.106685 -0.04204
Na 5.43635 10.58224 8.24818 -0.702457 0.055642 1.046778
Na 7.04545 10.11689 6.68238 0.84466 -0.657393 -0.747009
174
energy=-940.7796664 config_type=nep2xyz pbc="T T T" virial="-15.37185 -1.55297 -5.27668 -1.55297 -12.72746 -1.8389 -5.27668 -1.8389 -5.85992" Lattice="11.864695549 0.0 0.0 0.0 11.864695549 0.0 0.0 0.0 11.864695549" volume=1670.2050627101487 Properties=species:S:1:pos:R:3:force:R:3
H 2.88917 3.82545 0.11082 0.258829 -0.283821 -0.445898
H 3.31374 4.25224 4.24712 0.110339 0.151109 -0.271933
H 3.23135 0.78011 1.8893 -0.427573 0.074685 0.781334
H 3.09784 2.28849 2.03591 0.014534 -0.619627 0.462464
H 3.60795 4.80524 2.01262 0.078647 -0.681903 -1.122899
H 4.0029 1.34801 3.95503 0.046487 0.157081 0.009496
H 7.21999 2.82507 2.0658 0.665422 1.040205 0.45325
H 6.97013 1.14662 1.87028 0.713158 -0.324849 0.716819
H 9.89937 4.30474 3.52271 0.216603 -0.592982 0.875095
H 8.21464 1.43975 3.85916 -0.402192 -0.337886 1.055
H 8.75621 0.8097 1.38417 -0.049588 0.667909 -0.12179
H 9.59994 1.47782 0.12456 -0.006226 -0.479804 0.331545
H 0.12294 3.65759 2.14853 -0.34599 0.683686 -0.819099
H 1.06535 4.9959 0.71766 -0.99928 -0.496979 0.500849
H 2.0822 5.81667 11.78515 0.370252 -0.187863 -0.130787
H 11.5872 6.46241 2.91392 0.969088 0.265367 -0.055969
H 0.54126 7.58182 2.16289 -0.154515 -0.949676 0.720971
H 4.34618 5.75037 2.96857 -0.736584 -0.374417 0.228392
H 7.97403 4.23675 2.54596 -1.099698 -1.38096 -0.79477
H 6.16094 6.84908 3.16505 -1.804813 0.320514 0.289838
H 6.90059 5.85847 1.38444 -0.014942 -3.495123 -0.688852
H 10.68165 4.53793 1.99052 0.1767 -0.156225 -0.277493
H 10.90856 3.30294 0.00296 -0.404174 -0.646024 -0.78898
H 8.85885 4.96831 0.81593 0.656985 -0.304473 0.900454
H 9.54207 6.32161 3.42052 -0.173481 -0.61821 0.063842
H 2.00015 10.71162 0.94629 0.866984 0.790498 0.04792
H 2.72043 7.69967 2.83343 -0.525805 -0.294679 -0.11341
H 2.90971 9.95163 1.85944 0.843126 0.608116 -0.428937
H 4.12047 7.9678 3.17675 3.161068 -1.272356 0.884404
H 3.37538 10.58951 11.01671 -0.084121 0.586832 0.285182
H 6.51205 7.21578 0.79482 -0.305461 -0.558865 1.148752
H 5.03102 9.08689 0.61953 -0.147499 0.588734 0.653999
H 8.1423 8.13647 1.22471 0.363078 0.29423 0.236234
H 8.08308 11.41407 2.95888 -0.066306 -0.003845 0.351173
H 11.81852 11.02337 2.09134 -0.7991 -0.024993 0.036373
H 9.13575 7.75111 3.0918 0.390648 -0.087713 0.685737
H 8.73716 9.50538 1.8313 -0.373062 -0.462285 0.321122
H 11.23117 11.61768 0.70296 0.111544 -0.143061 0.574783
H 0.34363 9.30805 0.75111 -0.095429 -0.771307 -0.306212
H 1.39407 0.72872 3.92618 0.926345 1.048978 -1.472809
H 3.36868 2.99702 5.18543 0.140663 -0.32162 -0.227561
H 1.26835 3.96053 4.85896 -0.424065 0.135762 -0.051364
H 11.77519 3.223 5.05664 -0.10356 0.206211 0.254447
H 1.50864 0.8452 5.98613 0.858836 0.278246 0.102677
H 2.838 0.45424 6.67927 -0.054744 0.421719 0.091692
H 6.69194 3.5607 3.99541 -0.443613 -0.079308 0.032339
H 5.20312 2.0586 4.78094 -0.408638 -0.151185 -0.12157
H 7.13268 2.56451 5.05842 0.6498 -0.58309 0.262863
H 6.25136 11.0484 6.09787 0.161825 -0.736055 0.172891
H 9.18058 1.53979 5.13654 1.292718 -0.041516 0.564054
H 11.66571 1.05939 5.20189 -0.853006 1.047973 0.452264
H 11.27934 1.55245 6.6262 -0.090089 0.326878 1.142487
H 8.56706 3.51867 6.23529 -0.248701 0.740287 1.100559
H 8.50631 11.51401 7.35976 -0.194144 -0.052847 0.186048
H 7.43892 11.78379 5.49661 0.572554 0.324298 -0.105957
H 3.35269 7.15998 5.00334 -0.691011 -0.883836 0.330218
H 2.52623 5.82334 5.2769 0.283452 -0.507046 -0.351047
H 6.07858 6.75059 4.64545 -1.30015 0.274831 -0.413896
H 7.99751 6.0181 6.06399 -0.782051 -0.405705 0.339706
H 8.28765 7.21981 5.2535 0.37779 0.573665 -1.022239
H 4.91229 4.65226 6.80114 0.126882 0.42244 -2.155907
H 6.67852 7.8545 7.20706 0.889888 -1.166958 -2.93767
H 11.65331 5.33959 5.99403 -0.136282 0.053089 0.105177
H 10.25694 5.85269 6.44222 1.15189 -0.092425 0.180541
H 8.10628 3.63023 7.76701 0.153328 0.801584 -0.742286
H 10.088 7.16586 8.11713 -0.438253 0.268835 0.405764
H 2.55553 9.53752 4.42709 0.163641 0.012284 0.474718
H 1.7915 10.83735 4.92321 0.153006 0.088454 0.356618
H 3.96955 10.59575 5.9517 -0.325853 0.166594 -0.531548
H 4.72776 0.06523 5.68702 -0.504621 1.387922 -1.121258
H 4.27836 9.44249 7.51057 -0.44404 0.379717 0.579957
H 8.03373 10.33275 4.16324 -0.266673 0.335748 -0.041078
H 10.22978 10.68028 3.63061 -1.320705 0.153845 -0.032098
H 11.72956 10.98785 3.97828 -0.5362 -0.488871 0.077504
H 10.55993 9.18706 7.31396 -0.385378 -0.079824 0.527008
H 11.08443 10.6556 7.39476 -0.031702 -2.041516 -1.587368
H 0.4087 3.27465 8.75954 -2.600634 -2.407032 0.237888
H 1.42815 0.01199 8.1219 0.263863 2.551657 -1.374434
H 3.89057 2.7132 11.29481 -0.482626 0.093229 -0.172268
H 4.43875 1.06889 9.97729 0.015853 -1.742084 0.278881
H 5.03501 2.35543 9.50812 0.872688 0.399855 -0.286419
H 5.65762 4.07972 8.00597 -0.443886 0.164963 0.037251
H 7.15303 2.1258 9.48852 -0.147092 0.231793 -0.428079
H 7.68652 1.04656 10.73429 1.146372 0.137772 2.27049
H 10.16208 1.27108 8.4233 1.4922 -0.102868 -0.419239
H 11.001 1.98789 9.41876 0.397519 0.291008 1.191064
H 8.3112 0.12601 8.90592 0.33584 0.397746 -0.900104
H 1.15279 4.36191 9.5234 -0.089474 0.549999 1.60309
H 0.77701 6.52862 8.23272 -0.198998 -0.477544 -0.35079
H 3.64822 6.75711 10.02808 0.258845 -0.199931 -0.481745
H 0.63932 7.0879 9.64247 -0.102339 -0.030882 -0.219422
H 5.34808 4.46165 11.58743 0.303521 0.227274 0.362305
H 5.31955 5.8512 10.93032 1.25524 -0.663361 0.292494
H 4.55321 5.79282 9.07094 -0.40458 -0.535473 -0.656527
H 6.82485 3.63668 10.01678 0.171061 0.589305 -0.019709
H 5.68743 7.47474 8.37282 -1.117225 -1.602271 0.379494
H 9.9239 3.38152 10.61652 0.158715 -0.25721 0.637638
H 7.79693 5.25363 11.71799 -1.637251 -0.03635 -0.85182
H 8.91769 7.96067 8.94419 0.896946 -0.304538 -0.979993
H 10.66794 5.93369 11.00837 1.362316 1.697763 -0.403398
H 10.50918 7.22596 10.12392 1.546719 -0.569014 0.56477
H 2.09191 7.76411 11.8588 -0.524191 0.449508 0.182764
H 3.6593 7.77609 11.71489 0.166593 -0.246084 0.222315
H 3.83827 10.31269 9.60541 0.30103 -0.019259 -0.448508
H 2.34921 11.08045 9.18702 -1.649579 0.640003 -0.764664
H 4.07093 8.30587 8.42703 -0.423554 -0.551785 0.534707
H 5.82389 8.74045 11.23789 -0.068402 0.19419 -0.159743
H 6.73323 11.20037 9.88932 0.270266 -0.465926 0.090955
H 6.50194 9.77565 9.14615 0.473482 0.133147 0.417068
H 10.13778 10.86254 9.47298 0.31045 0.348403 -0.269023
H 11.83793 7.90758 11.84517 0.290533 0.231032 0.569293
H 11.5825 11.31937 9.78622 -0.254077 -0.410148 0.166187
O 3.0103 1.4595 2.57548 0.354197 0.30287 -1.479203
O 3.72101 3.27568 0.21106 0.094011 0.467509 0.742174
O 7.83538 1.18683 2.34077 -1.396816 -0.282614 0.222188
O 7.05855 3.79573 2.22867 1.209003 1.007267 0.623676
O 9.33363 0.63274 0.55999 0.789614 -0.681661 -1.207706
O 10.49276 2.75281 11.10982 0.262286 1.258295 0.387652
O 1.6489 4.94264 11.81757 0.809501 0.077748 -0.722411
O 0.58285 6.94544 2.95267 -0.793055 0.83438 -0.485093
O 3.46178 5.32542 2.78794 0.862201 0.748798 1.059645
O 5.41557 6.90283 3.88491 3.235037 -0.518958 -0.06914
O 11.57247 4.25122 1.47215 0.250647 -0.962776 0.603876
O 9.56323 4.73081 2.74659 -0.950899 1.208078 -0.34831
O 9.47724 7.21997 3.84656 -0.083809 0.622525 -0.646985
O 2.97147 10.69899 1.20001 -1.622078 -1.297536 0.252298
O 3.34422 8.41944 2.98523 -2.965934 1.682722 -0.757421
O 0.58131 8.33812 0.64851 -0.359803 0.818876 -0.366273
O 6.86916 6.74424 1.59759 0.055721 4.109973 0.35797
O 5.32024 8.33567 0.10698 0.343607 -0.043923 -0.847928
O 0.1102 11.14474 1.1399 0.633041 -0.307181 -0.870206
O 8.78541 8.86285 1.08519 -0.062111 -0.04856 0.01379
O 11.09925 10.29495 3.59198 2.338967 0.255857 0.442718
O 8.41282 10.5325 3.28819 0.188184 -0.055048 -0.447872
O 3.02136 3.90586 5.11456 -0.230518 0.004888 0.29612
O 0.2875 4.09719 4.78915 0.294091 -0.292973 0.168268
O 2.12079 1.11369 6.7674 -0.182216 -0.203757 -0.073704
O 4.40445 1.44615 4.85002 0.645469 0.609149 -0.013527
O 6.44817 3.22475 4.89505 -0.896414 0.742892 -0.442845
O 7.21139 10.92942 5.90264 0.123978 0.133778 -0.008709
O 8.26834 1.38987 4.9023 -0.664093 0.115846 -1.626506
O 11.0137 1.7282 5.72777 0.805705 -1.123518 -1.936936
O 2.65199 6.7294 5.54237 0.22334 1.752384 0.382137
O 7.56536 6.83892 5.76073 -0.070059 -0.477831 0.652064
O 4.80824 4.51568 7.71609 0.475409 -0.997129 2.389074
O 6.36619 8.02426 8.05019 0.700417 2.751489 2.689326
O 11.22364 6.05133 6.54937 -1.066872 0.058512 -0.59143
O 8.45576 4.15929 6.98556 0.138891 -0.998771 -0.275316
O 9.86696 7.95838 8.64975 -0.832467 -0.066757 0.345598
O 1.01384 0.27264 4.64658 -1.445315 -1.388065 1.166456
O 2.31798 10.01576 5.25332 -0.275228 -0.425738 -0.621881
O 4.64773 11.19943 6.29808 -0.1265 -1.415824 1.616558
O 11.08151 9.81431 6.79708 0.551021 1.720563 1.127502
O 1.04462 3.92329 8.70063 2.680798 1.939481 -1.653333
O 11.12686 1.5855 8.55983 -1.818068 -0.470592 -0.61427
O 4.19787 1.94487 9.72991 -0.715781 1.381325 -0.348669
O 7.29254 0.89484 9.90999 -1.073505 -0.478787 -1.976378
O 6.97915 3.20337 9.16819 -0.367722 -0.638921 -0.030629
O 8.99138 11.79915 8.15814 -0.201787 -0.133433 0.694284
O 2.85827 7.23553 11.58109 0.495602 0.209206 -0.476273
O 0.99608 7.2975 8.75885 0.657868 0.50544 -0.193575
O 4.4687 6.66131 9.47667 -0.254897 0.796382 0.802416
O 5.96232 5.1984 11.35434 -1.619162 0.136926 -0.588878
O 8.73607 5.27603 11.7865 1.522705 0.097447 -0.468802
O 11.22864 6.72166 10.6547 -3.153832 -0.937554 0.452873
O 3.55922 11.05383 10.1787 0.386617 -0.649661 0.430755
O 3.65917 9.15601 8.22103 0.917355 0.103841 -0.965139
O 1.49392 11.10174 8.61638 0.506713 -3.103894 2.125044
O 6.84281 10.1954 9.96814 -0.433311 -0.126973 -0.128073
O 10.80605 10.86645 10.18508 -0.107102 -0.109475 -0.199681
Na 1.5143 9.04253 7.30111 0.199629 0.292533 0.516577
Na 11.72168 8.18324 5.00425 -0.298103 -0.050649 -0.651922
Na 2.86484 3.01238 7.79828 0.180839 -0.139176 -0.056485
Na 8.95603 10.42247 11.4524 0.072063 0.477269 -0.294171
174
energy=-939.44857208 config_type=nep2xyz pbc="T T T" virial="1.01456 4.51157 1.76256 4.51157 -6.66731 -1.99056 1.76256 -1.99056 -8.73516" Lattice="11.92419529 0.0 0.0 0.0 11.92419529 0.0 0.0 0.0 11.92419529" volume=1695.4587984253917 Properties=species:S:1:pos:R:3:force:R:3
H 2.53239 1.94725 2.8314 0.64761 -0.378686 0.086673
H 4.00659 3.32672 3.105 -0.086804 0.81058 1.05412
H 2.03938 1.52499 1.41426 0.2129 -0.191119 -0.131461
H 4.37962 0.99223 4.03354 -0.19211 0.821938 -0.437859
H 5.56204 4.73822 3.91469 -1.775634 -0.794361 -0.845571
H 3.56711 4.36539 4.31336 -0.035402 -0.158063 -0.394154
H 3.27074 4.73075 6.72342 -0.512649 0.794165 -1.067938
H 5.70733 2.1353 9.38247 0.406984 0.548084 -0.295352
H 1.94584 3.73825 6.04693 -0.104819 0.687647 -0.359483
H 5.59206 1.61014 3.26766 0.183405 -0.025716 -0.197376
H 11.79686 2.63253 4.9895 -0.059512 0.865941 0.154875
H 4.46554 4.8941 0.54606 0.130517 -0.026357 -0.146628
H 5.08409 6.23444 0.64365 0.285155 0.849299 0.512302
H 4.58986 1.59517 10.12977 0.013844 -0.216348 0.546141
H 6.79487 5.54163 3.59175 0.80928 0.605544 -1.255206
H 8.1701 3.24971 3.11613 -0.754682 -0.631866 0.468493
H 8.98585 0.55636 0.60001 -0.12226 -0.165808 -0.407291
H 10.02504 2.77483 1.81565 1.339931 -0.284247 -1.180061
H 8.19968 4.13246 1.81146 0.222943 -0.661296 0.042517
H 10.72775 2.47269 3.92317 -0.095758 0.277477 0.04982
H 7.40195 0.67591 2.56141 0.238948 -0.364108 -1.001534
H 7.56377 1.11018 3.9723 -0.330144 0.563118 0.008132
H 10.17717 0.10327 3.08639 -1.189394 -0.006003 -0.672831
H 10.79051 0.26505 4.51369 0.227693 -0.37753 -0.108814
H 8.64704 3.15744 5.7397 -0.145015 0.636588 -0.199962
H 7.90579 2.2175 10.93391 -0.758355 0.789974 0.766707
H 7.55049 5.19432 5.56543 1.54861 -0.257986 0.03923
H 0.49599 6.46499 3.93829 0.022072 0.848415 -0.398614
H 2.3621 10.44147 4.44441 -0.062356 -0.46692 0.223806
H 3.52192 6.87551 5.41926 -0.94209 -2.094458 0.655747
H 2.23313 6.56883 1.46037 -0.862884 -0.879202 0.019447
H 3.80206 8.38146 2.06225 -0.117877 -0.186771 0.04836
H 3.49976 7.57721 3.38008 0.006945 0.005536 -0.523542
H 3.52503 10.92414 2.68748 0.373551 0.926365 -0.535263
H 2.90056 11.61157 0.75426 0.101867 -0.02631 -0.043668
H 4.49528 0.19928 2.12853 -0.913966 -1.601047 0.343685
H 3.26161 8.59707 5.57183 0.008455 -0.768576 -0.256088
H 5.81905 7.88135 4.70466 -1.920165 -0.594202 -0.673049
H 11.33053 8.84816 11.6214 -0.072548 0.555222 0.584891
H 1.688 11.75328 4.08105 0.201211 -0.113389 -0.556037
H 0.03196 6.47144 1.63995 0.340255 0.052351 -0.407813
H 6.11864 10.85457 5.31338 -1.383391 0.06886 0.5735
H 8.68107 10.93846 0.94412 -0.004285 0.811491 -0.296534
H 8.50638 6.96472 2.83312 -1.15412 -0.431594 -3.126925
H 8.02792 7.35618 4.2228 -0.645369 0.413575 0.427635
H 10.66007 7.39872 1.68566 0.740218 -0.716475 0.193835
H 5.82764 9.57096 0.54939 -0.338237 0.07543 0.238773
H 7.28732 7.79019 1.23499 -0.515729 2.075727 -0.296579
H 6.48811 10.04949 1.92167 -0.453116 -0.299863 -0.607043
H 10.66101 8.60728 3.76577 -0.542727 -0.688566 -0.503976
H 11.57654 9.79874 3.92495 -0.109755 -0.433439 0.651891
H 0.68875 8.90159 0.48383 0.433685 -0.19105 0.310576
H 1.07596 5.70529 5.17385 -0.236324 -0.425372 -1.479135
H 7.13529 9.8421 4.82051 -0.269271 1.222699 0.589275
H 9.83417 8.71714 5.64964 -0.796798 0.169572 1.065317
H 1.93712 2.20619 6.04824 0.373156 -0.553046 -0.114214
H 10.72267 2.79854 0.40146 0.025847 0.427278 -0.797598
H 3.53568 0.39671 6.19578 0.449956 -0.187716 0.246056
H 4.19864 1.7701 6.1254 1.757685 1.201867 1.166797
H 6.06648 0.64054 6.8475 -0.687939 -0.502265 0.207158
H 0.6824 6.12104 10.169 -0.367561 -0.340128 -0.500867
H 2.605 6.79957 10.22646 -0.477446 0.208619 -0.539709
H 2.83639 3.73654 8.88432 -0.666372 0.587367 0.790473
H 2.67311 2.51759 8.02093 -2.825079 -2.837237 -0.870825
H 0.33687 3.72248 7.3247 0.152777 0.521555 0.466874
H 0.55791 5.15432 8.08566 -0.167912 -0.46603 -0.395217
H 4.1012 6.38313 10.20677 0.467718 0.081641 -0.191616
H 0.35562 11.81754 9.10954 -0.753771 0.060096 1.003082
H 2.41909 0.24672 8.98276 -0.720926 -0.210858 -0.921778
H 1.53069 6.14009 0.09074 -0.523667 -0.273857 -0.217464
H 3.93382 11.73459 9.08505 -0.333541 -0.18945 -0.282077
H 11.37664 0.50774 6.86271 -0.455985 -0.156453 -0.731546
H 9.92696 0.08097 6.67595 -1.857715 -0.9189 1.048737
H 9.06292 1.65509 5.66153 -0.829793 1.117696 -0.330527
H 7.05392 1.69641 6.50615 -0.12827 0.697718 0.57545
H 9.23777 2.28342 10.27805 2.412283 1.729432 -0.616345
H 11.11079 1.24483 10.80374 -0.02254 -0.770562 0.002055
H 8.28224 4.57112 11.46722 -0.204334 0.212901 -0.256402
H 6.69843 4.1573 11.68755 0.238553 0.668724 -0.028138
H 11.32171 3.41864 9.42425 -0.235593 0.03623 0.542966
H 10.33698 4.08676 10.45222 -0.033069 -0.000651 0.008494
H 9.73676 5.67768 9.0884 -0.069168 -0.276049 -0.378516
H 10.46538 5.14728 7.73324 -0.37577 0.453418 0.904568
H 8.78258 5.32048 6.62018 0.117638 0.513811 1.395317
H 10.1622 5.91765 11.25091 -1.477969 -1.294569 -0.986623
H 3.82811 10.32447 6.70139 -0.410049 0.066905 -0.51726
H 2.3384 0.12499 11.20422 -0.119533 -0.341201 2.135231
H 2.02124 5.96371 6.88798 -0.471395 1.033106 0.418003
H 1.72604 9.19876 6.17395 1.439012 0.624466 -0.267549
H 3.98838 8.31266 10.83655 0.192337 -0.145843 -0.596888
H 2.14649 6.74149 8.31183 -0.284107 0.181533 0.032488
H 0.74953 8.36568 7.81889 0.837901 -1.636275 -0.18249
H 4.96615 10.38046 7.70346 0.32436 0.318307 0.260824
H 0.89433 10.95624 7.9547 -0.291279 1.068532 0.392354
H 3.75997 9.82996 11.14792 -0.403943 0.509451 0.046307
H 4.81385 7.47845 7.00944 0.860323 -0.333887 0.41073
H 5.82913 8.90485 8.43591 0.110572 -0.994054 -0.798254
H 7.40058 5.65466 8.84736 -0.528514 0.410073 0.753781
H 5.37039 9.4461 9.8117 -0.354856 0.504781 -0.779255
H 6.57981 8.13728 5.91935 0.16902 -0.259244 1.197276
H 7.61405 6.45257 0.5134 -0.231116 0.164779 1.086691
H 10.21637 11.90449 10.78572 0.23249 0.181215 -0.110129
H 11.29494 9.00017 7.63322 -0.08288 0.038081 -0.453484
H 8.8456 10.402 7.37999 0.707817 -0.950932 0.640604
H 9.3143 7.98189 6.94456 0.058831 -0.905148 0.316704
H 7.91663 11.08821 6.5889 -0.49225 0.657489 -0.275902
H 5.94432 6.84064 8.07155 -0.471924 -0.110584 0.309359
H 7.48162 6.46326 10.09178 0.917996 0.383546 0.936995
H 11.14239 8.95473 9.52683 1.20765 0.023322 -1.01676
H 10.36818 7.80874 10.23458 -0.078935 0.100362 -0.328746
H 7.79918 10.10452 10.21078 -1.441558 -1.069565 -0.279625
H 9.24492 10.02126 10.55951 0.946376 -0.942962 -0.143028
O 1.7714 1.93752 2.25237 -0.674654 0.466668 0.106061
O 3.81692 4.2705 3.36264 -0.138322 -0.632977 -0.289328
O 4.60151 1.54967 3.244 -0.217149 -0.376199 0.389337
O 10.85436 2.4497 1.27886 -1.332589 -0.022235 1.847673
O 1.33352 2.95537 6.06151 -0.355886 -0.273116 0.072051
O 11.06314 3.12471 4.56157 0.04436 -0.826966 -0.540821
O 5.22069 5.40109 0.20522 -1.020234 -0.853286 -0.302378
O 5.5451 1.75841 10.25534 -0.478939 -0.304302 -0.5908
O 6.2715 5.21364 4.29709 0.977543 0.385878 2.007819
O 8.7491 3.68733 2.50651 0.8763 1.166331 -0.434866
O 8.9512 11.81136 1.29323 0.00639 -0.615862 0.904242
O 7.16611 1.40667 3.13163 0.247694 -0.205401 0.823965
O 8.54169 5.05236 5.73924 -1.573811 -0.604076 -1.166255
O 10.99392 0.0788 3.56436 0.876734 0.085072 0.412945
O 8.32587 2.29543 5.42004 1.047733 -1.817205 0.727128
O 1.53133 5.931 1.11031 1.178409 0.809363 0.837386
O 2.13708 11.00253 3.65127 -0.356881 0.142911 0.787754
O 2.75481 5.20714 6.00441 0.602334 -1.173474 1.370345
O 3.84721 7.71 5.16495 1.590838 1.63823 -1.137412
O 3.36997 7.57268 2.3782 0.308422 0.304522 0.594379
O 2.63036 9.55601 5.9513 -1.944497 0.760317 0.299838
O 4.15583 11.17778 1.95341 0.385445 0.637651 -0.243972
O 6.66483 8.20111 4.97029 1.585559 0.686309 -0.610938
O 11.04579 6.55335 2.00617 -0.930205 0.435467 0.316418
O 8.7889 7.09643 3.6955 2.097224 0.279347 2.667059
O 7.38957 6.86948 1.38129 0.714304 -2.257032 -0.663304
O 11.28702 8.97621 4.38464 0.384996 0.816665 -0.047516
O 6.59845 9.48577 1.13474 0.719753 0.189287 0.29176
O 11.6812 9.10352 0.59222 -0.276767 0.062606 -0.416908
O 0.63689 5.58432 4.27743 0.263114 -0.005114 1.709488
O 7.03448 10.83292 5.07636 1.476994 -1.150777 -0.857131
O 3.54697 1.24455 5.7239 -2.064479 -1.187634 -1.036202
O 1.4264 6.48173 10.63139 -0.221003 0.307741 0.959407
O 3.24434 3.17577 8.24538 3.608144 2.385438 0.311555
O 3.56516 7.11227 9.8587 0.633748 -0.206875 0.419526
O 0.7782 11.91086 8.25877 0.735634 -1.102868 -1.329312
O 3.17051 0.1562 9.56841 0.939447 0.266207 1.15022
O 0.00637 4.31055 8.05382 0.49615 -0.091807 -0.457016
O 10.66791 0.3709 6.1756 2.186476 1.073955 -0.094459
O 6.34235 1.50146 7.18094 0.550232 -0.23281 -0.628534
O 8.52102 1.71277 10.41827 -1.716936 -2.33852 -0.039362
O 11.14553 0.25395 10.89415 -0.048509 0.819531 -0.153138
O 10.82833 3.21399 10.26117 0.056885 -0.25944 -0.224851
O 7.60283 4.10681 0.10278 0.47136 -0.69203 0.198005
O 9.50644 5.40742 10.65842 1.403885 1.491659 1.141581
O 9.73422 5.73543 8.07078 -0.058781 0.146695 -0.334779
O 2.10439 0.0305 0.27695 0.325695 0.313525 -1.77982
O 4.61372 10.89187 6.93492 -0.225141 0.228261 -0.214394
O 1.44781 6.63577 7.63365 0.888307 -1.047244 -0.555983
O 4.44289 9.16353 11.14624 0.459811 -0.307205 0.529732
O 0.21929 9.11406 8.07816 -0.830238 1.441915 0.352879
O 5.7058 7.53865 7.44566 -0.342291 0.710081 -0.86781
O 5.68229 9.74107 8.89356 0.572158 0.588497 2.086035
O 9.16321 8.75149 6.40254 1.114184 0.716644 -1.0176
O 8.43581 11.26889 7.41155 -0.346944 0.211326 -0.669595
O 6.82637 6.15438 9.48589 -0.034825 -1.157819 -1.881855
O 10.46778 8.77359 10.17349 -1.063631 -0.698046 1.22873
O 8.55905 10.6384 10.33067 0.229202 1.742143 0.349133
Na 1.17915 4.16229 2.63559 0.049185 0.03369 -0.324506
Na 0.08705 11.88803 1.41448 -0.15114 0.147355 -0.186468
Na 10.20907 5.30416 4.189 -0.238268 -0.105749 -0.411464
Na 7.19418 0.30076 9.15391 0.421399 -0.080919 -0.020174
174
energy=-941.47872487 config_type=nep2xyz pbc="T T T" virial="-13.92027 -1.3789 -3.8268 -1.3789 -22.22233 -7.87843 -3.8268 -7.87843 -16.11456" Lattice="11.772695541 0.0 0.0 0.0 11.772695541 0.0 0.0 0.0 11.772695541" volume=1631.6527529153686 Properties=species:S:1:pos:R:3:force:R:3
H 0.32401 3.16188 5.73269 0.095415 0.339932 0.768807
H 2.75002 3.65075 4.54759 0.204029 -0.093957 -0.236509
H 4.04499 3.61566 2.62953 0.033225 0.534405 -0.409641
H 4.13078 4.12231 5.08828 0.577437 -0.046584 0.154416
H 3.71583 3.02383 1.18784 -0.061916 0.292296 -0.001343
H 3.98001 5.36724 0.3491 0.531288 -0.681515 0.773084
H 3.44114 0.75763 0.44999 -0.239023 -0.388402 0.266855
H 0.81765 4.57899 4.91918 -0.136587 -0.864449 -0.590258
H 1.72053 4.90359 3.40841 -0.304908 0.455978 -0.708425
H 4.29953 11.46678 1.64091 0.661693 -0.151686 0.96439
H 2.36298 1.21354 3.59325 -0.288788 -0.386677 -0.014118
H 5.75921 3.38796 1.1244 -0.274226 -0.035942 0.127529
H 6.24039 1.29178 3.88458 0.975342 1.248255 0.083174
H 10.05156 2.90252 0.72594 0.904754 -0.664105 0.608262
H 9.74785 1.76457 1.80229 0.334275 0.277025 -0.171482
H 6.64601 2.37958 2.87531 0.479631 0.225135 -0.119696
H 7.74956 0.89178 0.93637 -0.500394 0.768753 0.157169
H 1.39861 4.94909 1.3348 0.484556 0.31143 0.48341
H 6.79872 5.00399 2.15214 0.83667 0.572375 1.42908
H 8.60205 1.44447 4.32569 -0.302625 0.217973 -0.388419
H 0.13766 4.62762 0.57434 -0.978925 0.157452 -0.380556
H 10.44603 10.42467 0.98465 1.100246 1.368612 -1.154345
H 7.73116 5.94003 3.14469 0.971423 0.605961 -0.648478
H 9.7829 4.59578 4.6789 -0.320366 0.228094 -0.163837
H 1.06067 6.30513 2.81604 -0.560519 -0.856443 -0.075582
H 4.87874 5.97057 5.30032 0.241235 0.301772 -0.05819
H 4.86854 10.71041 3.89968 0.797402 1.024801 -0.989397
H 2.22212 8.83129 11.67005 0.167771 0.048096 1.195198
H 1.29656 9.69879 1.85316 0.028411 0.148007 1.298301
H 5.75625 6.42495 3.67254 -1.313466 0.963338 -0.305463
H 5.5033 7.81579 4.34904 -0.826723 -0.577449 -0.53801
H 3.03735 9.87741 0.81433 0.095336 -0.846769 0.006341
H 1.62868 8.93257 4.06079 0.711123 0.56046 -0.160293
H 1.8929 7.7561 4.95203 0.574883 0.252512 0.421987
H 1.66014 11.67473 3.02471 -0.060653 -0.169706 -0.017464
H 4.83822 10.88935 11.43912 -1.301608 0.293038 1.219336
H 5.12376 7.55408 0.32065 -0.941191 -1.050494 -0.203442
H 11.42729 10.25155 11.47197 -0.708945 1.336075 1.029529
H 11.12068 7.16036 5.91926 0.110726 -0.599028 -0.652706
H 6.07513 9.82683 5.89102 0.603544 0.002414 -0.555058
H 0.0359 8.0422 2.94247 -0.162565 -0.203931 -0.119907
H 6.08146 10.74835 2.92751 1.180714 -0.713051 -0.517067
H 9.25838 10.05271 2.78223 -1.090278 -0.545329 -0.316288
H 10.0727 11.23103 3.19124 -0.065192 0.470307 0.315284
H 0.08618 10.15815 2.8132 -0.01361 -0.163994 -0.094024
H 7.9497 11.19818 1.43455 -0.118004 0.006673 -0.411272
H 10.00337 7.15388 2.69111 -0.264582 0.11128 -0.141104
H 7.31545 9.1249 3.97342 0.225256 0.624687 0.697453
H 8.67393 8.06269 2.47275 0.276428 -0.492931 0.113461
H 9.01123 6.62307 5.27448 -0.882563 -0.649942 -0.114395
H 11.10918 6.93198 4.32012 0.012352 -0.444767 0.120192
H 7.55833 8.12046 5.18071 -0.118073 -0.157107 0.242845
H 7.34405 9.29642 1.69497 -0.41196 -0.213695 -0.286144
H 8.44833 6.54235 0.61558 -1.558662 -0.538249 -1.579638
H 7.07605 7.02539 11.70874 1.003523 -0.969858 -0.147343
H 11.2816 7.50802 1.31004 0.456236 -0.049178 -0.930763
H 8.44983 10.12861 5.78385 -0.692311 -1.291611 -0.825697
H 2.1439 1.57609 11.58008 0.36496 -0.063671 0.500217
H 4.29529 5.33508 6.57838 -0.304885 -0.358669 0.652078
H 0.0573 2.06784 6.79797 -0.200094 0.610139 0.428063
H 1.20955 0.06902 6.54641 1.870623 -0.4791 -1.026599
H 5.6203 3.24863 7.09375 0.575824 -0.718553 -0.617804
H 3.83745 2.02372 10.64856 0.607869 0.189618 -0.17865
H 2.29486 4.04827 7.6381 0.181036 0.195058 -0.214415
H 3.27508 4.36979 8.77664 -0.070372 0.600673 -1.341573
H 11.74329 11.58592 7.29179 0.353311 0.845896 0.649186
H 4.64983 1.07766 9.78202 0.223838 0.413943 -0.182
H 1.5536 5.29894 10.86113 -0.248646 -0.223572 0.542523
H 11.7636 0.56492 11.20907 0.925501 1.024018 0.1896
H 0.9766 0.9314 10.06817 -0.411304 0.688928 0.773953
H 3.42953 6.02287 10.92576 0.338684 0.434485 -0.500722
H 6.23961 1.84838 7.08903 0.37379 -0.869606 0.616035
H 5.08835 3.64528 9.58401 0.20063 -0.441143 0.067288
H 5.4325 5.12945 9.97037 0.012266 -0.501319 -0.247386
H 1.56188 5.70215 9.38053 -0.152243 0.185495 -0.364924
H 7.11449 2.99821 0.37368 -0.602665 0.179803 0.898131
H 11.28592 4.83687 7.85555 0.366113 0.267215 -0.02024
H 9.19567 0.25078 5.06937 -0.128741 -0.468893 0.466994
H 10.20101 3.58554 5.627 1.291086 -0.981976 2.001538
H 7.12534 1.98578 10.05745 0.344055 0.519476 0.100598
H 7.24371 3.57253 9.93803 0.600672 -1.986712 0.970328
H 9.45733 2.96339 10.53608 0.188964 -0.388648 0.053984
H 7.1944 4.82629 7.88591 -0.599004 -0.206281 0.365073
H 11.02425 2.55907 10.89493 -1.001016 0.268815 -0.226336
H 8.37257 5.78449 8.31747 -0.04373 -0.889279 -0.359723
H 10.6584 5.71223 8.93522 -0.631009 0.436334 0.491396
H 2.52584 9.96434 5.64203 0.713265 0.56095 1.02322
H 3.72586 10.71264 6.43144 -0.541961 -0.320521 -0.367167
H 1.20402 9.10894 9.75428 0.755565 -0.308318 -1.067956
H 3.43961 8.41595 8.55842 0.680707 -0.413472 -0.033282
H 2.62961 9.48506 7.71506 0.135699 -0.493813 0.597805
H 1.10976 8.19115 7.5325 -0.289888 -0.361577 0.09549
H 6.10745 7.92203 8.44363 -0.734284 -0.617317 -0.675803
H 11.70395 7.17903 7.84386 0.17812 0.06277 -0.279165
H 5.70691 8.81981 11.53868 -0.394006 1.75574 -1.047119
H 8.1201 5.80424 6.2374 -0.2106 0.368477 0.047434
H 9.35481 10.81185 6.83444 0.664313 -0.143229 0.314526
H 8.83616 0.47281 9.4651 0.849183 -0.189607 0.389604
H 6.277 11.60024 8.33 0.842853 0.645852 0.550231
H 5.27272 9.25291 7.01713 -0.100243 0.303235 0.170949
H 0.14443 8.42512 10.72349 -0.072449 -0.578733 0.300274
H 11.21344 9.49395 7.70337 -0.119182 -0.317905 0.69095
H 9.43581 11.69286 10.78272 -0.221245 -0.265831 1.295794
H 10.5911 10.56363 8.90743 0.581618 -0.583377 -2.243614
H 7.34321 11.6346 7.31804 0.58498 1.020661 1.041969
H 5.2848 6.92597 7.43676 0.57699 -0.25831 -0.003508
H 6.31476 10.87201 11.22539 -0.8211 -0.169887 -0.733246
H 10.39738 7.02158 0.1831 0.219507 0.346326 -0.484935
H 8.63345 6.79861 10.19385 0.016974 -0.341758 -0.021875
H 8.81614 7.7945 8.96909 0.571542 -1.117225 0.495644
H 7.61669 9.50272 9.72199 0.502266 -0.461376 -1.428145
H 8.11358 10.12517 8.42397 0.142795 0.542306 -0.411335
O 3.72962 3.67214 4.3407 -1.031092 -0.373036 -0.136176
O 4.07829 3.82197 1.65527 -0.082704 -0.700888 0.093458
O 3.01733 1.72139 0.25602 -0.324923 0.709338 -0.367498
O 0.98521 3.7121 4.46881 0.315876 0.879465 -0.161742
O 5.12514 5.44522 6.09196 -0.064944 0.214531 -0.075754
O 5.35727 11.29383 3.24884 -1.678406 -0.195779 1.691806
O 3.91074 11.28754 0.79419 -1.144588 -0.383529 -0.904373
O 10.963 10.96207 0.28848 0.107796 -2.518013 -0.020134
O 1.53514 0.84875 3.2322 0.00742 0.813908 0.18168
O 6.67982 3.10048 1.27847 0.80586 -0.071266 -1.238478
O 10.38783 2.48601 1.63994 -0.568474 -0.235751 0.463391
O 6.83363 2.10807 3.79846 -1.095913 -1.64288 -0.110593
O 1.06856 4.43116 0.55886 0.15843 -0.552503 -0.386181
O 6.976 5.3583 3.07808 -1.982711 -1.233185 -0.572868
O 9.4828 3.74976 5.0438 -0.610008 0.73774 -1.736298
O 10.87478 6.51949 5.19681 -0.131525 0.674582 0.670194
O 9.40926 0.90917 4.38844 0.463802 0.183527 -0.620281
O 1.79343 5.60109 2.68387 0.354118 0.304026 0.766458
O 2.60631 8.91381 0.81543 -0.043648 1.275623 -0.84703
O 4.97697 7.10462 3.89012 2.327661 -0.673213 0.354153
O 2.35653 8.55536 4.62912 -1.334652 -0.783941 -0.512964
O 1.05353 9.95663 2.811 -0.025008 -0.207101 -1.255383
O 5.90868 8.09 0.32705 1.379213 -0.572477 1.021225
O 8.07633 0.04709 0.64866 0.192436 -0.881993 0.173378
O 11.52996 7.12396 2.75673 0.708357 1.083165 0.572038
O 10.19012 10.31415 2.91351 0.647939 0.15798 0.143175
O 7.27613 9.04546 4.99769 0.094061 -0.755321 -1.537333
O 7.6035 9.87476 2.41562 0.326777 -0.135361 0.729432
O 9.01043 7.13756 2.50564 -0.599095 0.340358 -0.195542
O 8.05133 6.32325 5.38364 1.334606 0.648479 0.333796
O 4.2742 5.98957 11.44892 -0.464944 0.146546 -0.064108
O 11.62283 3.03782 6.63247 0.287261 -0.739391 -0.571059
O 0.67224 0.52885 7.16104 -2.097957 -0.105505 0.74731
O 4.49484 2.03778 9.86889 -0.716904 -0.64861 0.539154
O 3.06383 4.61573 7.83333 -0.252063 -0.799643 1.02481
O 0.66619 1.2875 10.94388 -1.130674 -1.712699 -1.073507
O 2.02193 5.84624 10.21357 0.014106 0.103143 -0.105249
O 6.19064 2.6356 6.56089 -1.01721 1.691416 0.451624
O 8.12546 4.98395 7.7289 0.575894 1.070261 0.099998
O 5.6571 4.39991 9.34371 0.182382 0.886461 0.269103
O 7.67168 2.72912 10.39002 -1.149768 1.602857 -0.969075
O 10.23634 3.13043 11.10622 0.6807 0.442453 -0.487001
O 11.44611 5.64271 8.39474 0.34423 -0.933947 -0.46087
O 2.73807 10.6222 6.37728 0.010922 -0.569877 -0.653874
O 2.55424 8.7345 8.38728 -0.946585 1.163553 -0.706681
O 0.17118 7.98032 7.30357 0.138294 0.298789 0.087974
O 5.23047 7.65926 8.06783 0.352631 1.005375 0.567427
O 0.59078 9.24197 10.46555 -0.35446 0.83409 0.656697
O 7.84494 6.33892 11.56747 0.509194 1.654474 2.132033
O 7.141 0.31403 8.21181 -1.4611 -1.700973 -1.569758
O 5.43514 10.10859 6.55844 -0.680747 -0.154272 0.723997
O 5.47595 10.57705 10.76467 2.759208 -0.144356 -0.611421
O 10.79803 10.36207 7.91188 -0.982922 0.964415 1.350903
O 11.15904 7.61669 0.29166 -0.742335 -0.620763 0.748772
O 9.68266 0.2481 9.92722 -0.604776 0.305711 -1.869991
O 9.08917 6.87994 9.30917 -0.517928 1.195533 -0.46461
O 7.97264 9.26273 8.8134 -1.027342 -0.151842 1.990964
O 8.62808 10.95843 6.20627 0.238684 1.349613 0.828978
Na 0.97093 2.54141 1.80819 0.396654 -0.06849 -0.596614
Na 11.15841 2.12108 3.79897 -0.20464 0.267382 0.595083
Na 7.31506 3.90654 5.12852 -0.341952 0.090016 -0.241552
Na 3.0908 7.346 2.4582 0.584289 0.324977 -0.038122
174
energy=-937.10197667 config_type=nep2xyz pbc="T T T" virial="-13.94086 3.54974 -1.88241 3.54974 -16.83308 4.94663 -1.88241 4.94663 -4.29653" Lattice="12.072495461 0.0 0.0 0.0 12.072495461 0.0 0.0 0.0 12.072495461" volume=1759.5076214657172 Properties=species:S:1:pos:R:3:force:R:3
H 1.48201 1.35293 0.99864 1.745486 0.920488 -1.086048
H 3.43238 3.06056 1.19727 -0.924801 -0.340164 0.288495
H 5.35051 2.64325 5.6833 1.555666 0.677003 -0.717607
H 4.29843 3.37868 2.45355 -0.647658 -0.141639 2.800724
H 11.97934 3.93536 4.34606 -1.073369 -0.574161 0.114217
H 1.63148 4.45492 6.4661 -0.403346 -0.103146 -0.747331
H 0.14886 0.55231 5.2664 1.539896 -0.31502 1.508347
H 3.8727 1.228 0.62113 0.133802 -0.987809 0.47817
H 0.17533 5.93932 6.01154 1.360546 -0.301867 0.409997
H 6.10838 2.5062 0.87859 -0.019916 0.085422 -0.241036
H 3.14143 4.61584 4.04262 0.058506 0.522215 0.469128
H 3.3426 3.24974 4.8148 0.485508 0.236313 0.385586
H 1.67581 2.24725 11.74892 -0.936284 0.628089 -0.90301
H 11.35184 1.59671 4.49959 0.295947 -0.434656 -0.014242
H 0.5254 0.50235 3.15946 -0.378001 -0.162774 -0.888503
H 11.90618 0.68711 1.69757 1.810477 -0.766805 1.25881
H 7.67577 1.74522 2.06102 -0.454256 -0.68687 0.03846
H 10.39057 2.70897 1.05362 -0.462107 1.097606 0.75967
H 8.19778 5.37975 0.99297 0.079066 0.883926 1.972958
H 7.78746 1.99531 3.55697 -0.197193 0.146585 0.388881
H 10.80242 3.70291 5.31838 -0.360678 0.346339 1.133166
H 6.91939 4.56307 5.04435 0.754609 -2.743616 0.387548
H 7.15574 6.35442 2.83791 -1.249691 -0.447864 0.535552
H 11.49041 6.79192 1.74431 -0.567255 -0.173032 0.671665
H 8.20218 7.29139 2.41998 0.748796 1.245506 -0.311842
H 0.51002 6.43994 2.68415 -0.702602 -0.072889 0.587094
H 6.26386 0.37714 3.46552 0.963142 1.05811 -0.389323
H 4.49866 0.6199 1.84997 0.679264 0.742327 5.78777
H 2.55 6.87283 1.30833 0.084841 0.480542 1.272925
H 2.5207 7.81912 2.65578 0.263915 -1.161628 -0.791864
H 5.81676 8.8857 0.40819 -0.327429 -0.070973 0.42734
H 4.57478 8.8368 1.24973 -0.266944 -0.097631 0.138884
H 1.13678 10.75633 2.02329 -0.304605 -0.784947 -0.040853
H 2.64705 10.14485 3.15014 -0.4632 -0.062079 -1.270563
H 2.68198 9.72715 4.56933 -0.103064 -0.859135 0.953158
H 5.2235 7.36526 3.67999 -0.200772 1.817006 0.08129
H 0.69742 9.43876 2.69057 -0.925686 -0.161573 0.934504
H 3.79644 11.43625 11.83084 -0.643522 -0.850093 -0.799818
H 2.60428 7.28571 5.57405 -0.193469 -0.043132 0.091751
H 4.84461 6.25869 2.75697 -0.852764 -0.112315 -0.562672
H 5.60935 11.27091 2.8611 0.114987 -2.095508 -1.872726
H 5.39329 6.11724 5.5259 0.08787 0.233055 -0.681772
H 2.72755 7.14319 11.15078 0.928238 0.03584 -0.061446
H 11.78269 8.18459 3.7254 0.007153 -1.001323 -0.004138
H 9.26174 9.88955 5.48048 0.320025 2.121662 2.042478
H 10.49815 11.99769 5.88522 -0.046932 -0.983728 0.102013
H 8.78192 9.56423 4.07612 0.348351 -0.961758 0.576318
H 8.50774 7.6335 5.85484 0.08468 0.045473 -0.677341
H 10.68454 9.02516 4.42655 1.949402 0.058582 -0.13276
H 8.79989 9.79384 1.79082 0.466243 0.346167 -0.342121
H 7.35999 9.25685 1.93762 1.680148 -0.030489 1.310748
H 9.43051 0.1614 11.94561 0.943281 1.846702 0.828847
H 6.97343 11.05276 5.20437 -0.343917 -0.22435 1.591252
H 4.33994 2.6543 6.80678 -0.123513 -0.385428 0.172963
H 4.67881 4.08209 11.65413 -0.356585 -0.09678 0.901624
H 6.29266 1.28199 0.00087 0.339181 0.181348 0.12997
H 1.36169 1.14513 6.94055 0.11414 0.430939 1.246215
H 2.43943 5.55914 6.99255 0.001227 0.911259 0.26817
H 1.08668 2.99584 7.73398 -0.394117 1.845953 -0.746601
H 3.03103 2.48911 8.46321 0.486103 0.569387 -0.401653
H 3.57199 3.95916 8.30171 0.580601 0.07101 -0.015602
H 3.49646 6.45402 8.3229 0.225948 -0.00156 -0.248926
H 1.27808 5.33633 9.68015 -0.933085 0.402778 1.197778
H 4.39996 3.52761 10.17585 1.080469 1.37215 0.886236
H 1.68821 0.81766 9.12108 -0.525164 -1.471007 0.674725
H 0.59557 2.78521 9.67441 -0.089054 0.179247 0.220758
H 0.29822 4.15403 10.56929 0.415127 -1.098093 -0.309498
H 8.02985 3.62913 5.71611 0.075043 0.365184 0.504437
H 6.3768 1.01863 9.4982 -0.080758 1.104925 -0.355234
H 5.56766 1.90923 8.55653 -1.012244 0.480603 -0.522403
H 10.95093 2.26748 11.82173 1.651627 1.305538 -3.407087
H 7.79205 11.96316 5.99479 0.69266 0.836799 0.568662
H 9.44423 4.07071 7.51794 -0.182837 0.098876 0.667762
H 10.50253 0.68955 7.88921 0.075135 -0.183798 0.425129
H 8.94373 5.32106 6.67522 0.21705 -0.49487 0.412106
H 9.63684 2.65125 9.00698 0.905183 -2.562208 -0.610722
H 11.7629 1.42899 8.24678 1.682745 0.831812 -0.135367
H 10.12237 3.81213 9.81803 -1.258864 -0.504117 -1.212547
H 9.07848 5.3003 11.81196 0.037576 0.493216 0.45936
H 10.9306 6.45771 6.60762 -0.9849 0.566334 2.149166
H 4.62694 5.6076 6.73256 0.550412 -0.506869 0.311938
H 11.50318 6.46569 9.12721 -0.485109 0.73077 0.127787
H 0.71545 11.67583 9.49792 -0.074685 0.297031 -0.145176
H 3.12312 11.26766 10.36458 -0.32906 0.210894 0.060899
H 1.42429 11.58704 7.0106 -0.354936 1.742718 -1.070992
H 3.21358 8.36899 6.53063 -0.120071 -0.359087 -0.252771
H 0.23597 9.10597 6.18088 0.156255 -0.428753 -0.535813
H 4.42447 10.03056 7.45889 -0.881784 0.721427 0.105712
H 5.18775 11.4577 10.76341 1.412358 0.611065 -0.153503
H 1.34467 6.63196 11.34089 -1.608941 -1.568786 -1.045237
H 1.28642 7.44317 9.13794 0.389799 1.649884 0.152984
H 5.07883 8.33291 7.87546 1.134897 -0.433902 -0.34232
H 5.79287 7.75867 10.81178 0.836909 0.013157 -0.135589
H 2.48046 8.30891 8.61856 -0.353375 0.464418 0.667438
H 4.70639 8.2092 9.76954 -0.14773 -0.699441 1.754824
H 6.40098 11.19739 9.89647 0.569489 -0.056991 -0.030131
H 5.40724 11.16911 7.28502 -0.599509 0.464657 -0.383519
H 0.81521 9.0583 7.65486 -1.068508 0.551747 -0.518907
H 10.52694 10.13609 11.53008 0.721293 -1.224056 -1.093501
H 6.39314 5.79353 8.24622 0.546 -0.219802 -0.411342
H 10.96852 10.58588 6.53515 -1.259149 1.59122 0.5064
H 10.58082 8.6159 11.58789 0.05423 -0.673358 0.063167
H 8.8309 7.62317 7.28904 0.283519 -0.83235 0.174214
H 7.70512 8.84635 9.83256 0.151207 0.019864 0.298708
H 5.93742 5.63547 9.63023 -0.142213 -0.209311 0.597457
H 11.32638 8.05739 8.85529 -1.40048 -2.377109 -0.03542
H 10.27808 6.82452 10.80321 0.333519 -0.074915 -0.432067
H 7.52412 7.28473 9.91277 -0.109437 1.281387 1.034685
H 11.36712 5.81693 11.31826 -0.406144 0.868056 -0.289674
H 8.31009 11.59856 11.2586 -2.262281 0.051852 -1.078866
H 8.14005 10.71537 7.95441 0.179332 -0.441263 0.878919
H 9.1593 11.01247 9.06484 -0.287901 -0.50172 0.137579
O 2.16619 1.81133 0.36502 -0.530644 -1.076164 1.946693
O 4.25103 3.4231 1.53555 1.443056 0.538343 -3.244346
O 1.62237 5.39141 6.21011 0.829582 -0.84812 0.610358
O 2.98633 3.67469 4.02496 -0.37065 -0.834207 -0.800862
O 0.69253 0.35015 2.17376 -1.834469 0.936396 -0.848063
O 4.40982 0.46867 0.9842 -1.016577 -0.151262 -6.460699
O 11.09443 3.48379 4.43821 1.36174 0.307819 -0.999406
O 11.62613 0.64504 4.53612 -1.694435 1.117377 -1.458967
O 7.53791 1.30317 2.9287 0.840665 0.804798 -0.229848
O 10.66404 1.96119 0.55828 -0.892646 -2.700424 2.568731
O 11.59862 6.58501 2.70594 1.312562 0.066224 -1.466127
O 8.2233 5.03558 0.13202 -0.027911 -1.334506 -2.426741
O 7.34805 3.61449 5.0232 -1.276571 2.049064 -1.135059
O 8.09247 6.49788 2.93051 0.581647 -0.919981 0.084567
O 2.77704 6.92306 2.30978 -0.600605 0.681794 -0.610114
O 1.21467 9.75297 1.95288 0.969204 1.191462 -1.220153
O 2.89378 10.46996 4.00253 0.583388 0.825057 0.733574
O 5.25879 6.43531 3.59719 1.037515 -1.526563 0.24225
O 11.38496 6.31392 5.81589 -0.873714 -0.079477 -2.802742
O 2.03295 7.08931 11.80983 1.362971 1.790716 1.45222
O 5.48655 11.90199 3.51929 -1.397552 0.877818 2.317653
O 5.52875 8.90306 1.34855 0.831267 0.175047 -0.630582
O 5.49821 5.48046 6.22975 -0.741665 0.163228 0.888961
O 2.59183 8.23552 5.75249 0.476055 0.38285 0.217496
O 8.28956 9.24909 2.39173 -2.503291 -0.071464 -1.253697
O 9.22617 9.17666 4.88756 -1.213124 -1.204896 -2.497052
O 11.71739 8.9877 4.24266 -1.414403 0.8337 0.129095
O 8.66896 6.99245 6.56113 -0.329425 0.809657 0.455063
O 9.12135 11.39998 11.66235 1.380207 -1.766213 0.595063
O 4.56723 2.19955 5.9525 -1.563532 -0.494821 0.279278
O 6.7782 2.07212 0.31549 -0.26598 -0.053291 -0.003421
O 3.89461 3.00017 8.35521 -1.258884 0.054121 0.504368
O 3.341 5.58154 7.92497 -0.125847 -0.554454 -0.238984
O 4.91703 4.20381 10.74206 -0.49414 -1.180797 -1.760809
O 1.30773 2.19963 8.15968 0.433495 -1.781879 0.687835
O 0.26233 3.10297 10.54893 -0.396032 0.437042 0.474759
O 1.35779 0.32646 6.39981 0.342918 -2.362737 0.031282
O 9.23142 4.37086 6.62209 0.165716 0.362753 -0.755294
O 6.41499 1.87473 8.97605 1.313556 -1.013079 1.016328
O 10.91218 1.21236 8.61063 -2.080293 -0.860708 -0.214295
O 10.81741 7.15317 8.86385 1.577276 1.544709 0.029119
O 9.35072 3.50841 9.22938 0.79672 2.825348 2.004354
O 0.58049 5.6084 10.35324 1.037954 -0.256395 -1.966135
O 3.60347 10.79019 11.0678 0.577549 0.839715 1.232133
O 4.43653 11.02406 7.26128 1.027526 -1.01515 0.11203
O 4.84577 7.87109 10.74636 -1.446589 0.68602 -1.75694
O 1.63498 11.96448 9.54125 0.465309 1.112084 -0.560252
O 4.14661 8.32852 8.01825 -1.187977 0.631606 0.250328
O 1.59565 8.40799 9.09313 0.493684 -1.961943 -0.595183
O 6.13506 11.83358 10.57749 -1.584591 -1.296067 0.142966
O 10.19294 11.28642 6.50557 1.368505 -0.62938 -0.333612
O 7.23621 11.20934 6.16323 -0.608005 -0.563351 -1.96442
O 6.77039 5.63174 9.13131 -0.484321 0.474398 -0.213906
O 11.04123 9.339 11.1607 -0.468377 2.060556 0.940112
O 7.50451 8.13877 10.47569 0.425486 -1.461349 -1.307726
O 0.0984 9.46501 7.06652 0.732121 -0.018423 0.715174
O 10.6002 6.38481 11.60625 -0.300595 -0.639326 0.767688
O 8.36729 10.4671 8.89123 -0.146991 0.752243 -1.153035
Na 9.58409 5.49377 4.3295 0.547843 0.222203 0.065549
Na 3.36434 0.15061 5.33125 0.724359 -0.131671 0.093539
Na 7.27 3.65658 10.49827 -0.276111 -0.087991 -0.19487
Na 1.58302 9.52387 11.60328 -0.140913 -0.411976 -0.113258
174
energy=-939.50247265 config_type=nep2xyz pbc="T T T" virial="-8.56841 -2.52254 -1.36747 -2.52254 -18.39657 -3.90759 -1.36747 -3.90759 -14.97743" Lattice="11.827795029 0.0 0.0 0.0 11.827795029 0.0 0.0 0.0 11.827795029" volume=1654.6699097400626 Properties=species:S:1:pos:R:3:force:R:3
H 2.8223 2.1238 2.53068 0.911434 0.895011 -0.33522
H 1.02877 3.39923 0.42398 -0.114737 0.029329 1.04132
H 1.30469 1.95176 2.72365 0.009436 -0.050854 0.305311
H 3.05505 0.15546 2.12665 -0.27296 0.222145 -0.265821
H 4.67545 2.63284 2.97423 -0.003916 0.649023 -1.306935
H 3.78 2.41811 0.13341 0.305589 0.442368 2.869785
H 4.36504 3.87042 2.04302 0.276185 0.19131 0.069529
H 2.2861 2.00419 5.06427 -0.6176 0.205279 -0.761314
H 5.25351 2.31008 5.18604 -1.125166 -0.518627 1.965916
H 0.98798 5.43898 4.91516 0.096566 -0.027387 -0.585941
H 2.50209 5.46159 5.20779 0.010044 -0.150591 -0.044291
H 5.86209 3.69463 4.59907 0.336313 2.365999 0.629273
H 0.41788 3.5994 5.51105 -0.274445 -1.363535 -0.268159
H 1.34177 0.42604 1.17715 -0.453591 -0.393892 -0.249262
H 6.9948 3.83165 0.95227 -1.146691 0.068495 0.62443
H 11.40144 2.82683 3.45235 0.249404 0.027166 0.318267
H 9.85039 0.19224 3.25832 0.207682 -2.512232 -0.317592
H 10.10559 1.58161 2.7276 -0.433299 -0.572214 1.733613
H 8.43229 3.94381 0.69669 1.345118 0.022297 0.513063
H 11.20521 5.45465 2.33404 1.077171 0.642186 1.347799
H 10.82505 3.25755 2.0638 -0.061474 0.67377 -0.104185
H 10.12904 4.77245 0.72836 0.142683 0.03197 -0.150568
H 11.08357 1.52158 0.06716 2.24903 -1.004823 1.130272
H 10.64384 0.18444 5.41403 -0.145724 0.064749 -0.204576
H 6.88423 5.63066 2.90556 0.107907 -0.616337 0.275769
H 8.06341 4.64397 3.05096 0.489581 0.128958 -0.224288
H 10.89345 2.7197 5.67606 1.878284 0.505826 -1.272701
H 3.81267 10.75395 2.12699 0.765934 -1.130843 0.971641
H 4.41054 11.0347 4.67755 -0.289554 -0.606892 -0.774358
H 4.3215 6.12595 3.70617 0.493104 -0.330483 -0.527664
H 4.57962 6.54688 5.24334 0.991994 -0.259981 0.493075
H 0.79291 6.28677 2.29683 -0.450605 -0.236719 0.679668
H 1.23981 8.0245 1.23231 -0.839719 0.353338 0.192278
H 5.72493 6.62793 1.56788 0.508306 -0.011163 -0.08121
H 4.11302 6.3588 1.61123 0.319593 -0.928695 0.46347
H 2.25836 7.76102 2.41457 -0.2698 0.665949 0.684377
H 5.143 9.91006 3.84122 0.168776 -0.170937 0.116301
H 2.95936 9.12258 3.84156 0.586596 0.945149 0.329676
H 3.00387 7.66853 4.28487 1.346851 -1.502596 0.657089
H 1.37774 8.10171 5.71348 -0.541393 0.216431 0.397697
H 0.44143 11.31989 0.25746 0.437338 0.061954 -0.474376
H 7.90195 6.44932 5.56203 1.748504 -0.613136 0.172231
H 6.36573 7.96146 0.70038 -0.172225 0.078627 -0.069196
H 8.23952 7.53153 2.10642 -1.073691 0.452824 -0.343298
H 9.29116 6.40964 2.11451 0.169077 2.15983 0.761017
H 6.42492 8.23429 2.99595 -0.489977 -1.053218 -0.420289
H 8.43633 10.80013 1.51046 -0.012023 0.14413 -0.440036
H 7.21747 9.3998 3.09275 1.705166 1.802188 -0.751253
H 9.28705 9.97551 2.54233 -0.722012 0.238381 -0.062281
H 11.48197 10.51225 3.89706 -0.883889 -0.413066 -1.232381
H 11.32564 10.69228 2.29484 -0.026862 -0.527902 1.269771
H 6.88891 8.8749 5.27573 0.06663 0.060246 -1.111736
H 11.11831 9.16202 0.37458 -0.362768 -0.436845 -0.037053
H 10.35735 7.92892 1.08469 -0.001961 0.434012 0.233969
H 4.5877 2.14557 10.72771 -0.209538 0.07409 0.366132
H 3.31002 3.93649 7.34801 0.256183 1.128574 0.605807
H 3.24415 1.59596 6.11277 1.152548 -0.636103 0.329747
H 2.56327 5.21184 7.69582 0.837711 -0.183644 0.056871
H 2.55647 0.8985 10.29148 -0.069459 -0.859199 -0.742048
H 0.16363 3.49886 10.99549 0.323259 0.130224 0.093401
H 1.19751 1.46537 7.13859 -0.887173 -0.715262 0.206456
H 4.53206 5.12231 11.43675 0.587035 0.41246 0.757272
H 5.47617 4.95184 9.01647 0.84272 0.217256 -0.483169
H 2.14272 0.19732 8.92985 0.149444 -0.188674 0.851575
H 5.88276 1.74177 7.39374 -0.864612 -0.600542 -0.614445
H 0.01386 5.57972 10.56875 1.26813 0.944612 -0.933407
H 10.40665 2.67878 11.16967 -0.252683 1.071179 -0.171531
H 6.00087 5.86014 7.09569 -0.30035 0.236174 -0.02368
H 11.56803 1.4754 7.69713 -0.804562 0.608123 0.389836
H 8.82872 4.17003 6.02824 0.623536 -0.573477 0.124193
H 9.29548 2.89618 6.95078 -0.218734 0.443446 -0.116792
H 7.29926 2.20667 7.71395 -0.492397 -0.069704 0.453313
H 6.3167 1.62256 9.69009 0.15737 0.264919 0.141669
H 6.9387 2.4433 10.84362 0.349594 0.549024 0.598765
H 9.94774 4.88016 10.34029 0.565612 -0.76814 0.115926
H 9.81405 2.59975 9.33172 -0.101898 -0.201563 -0.889323
H 9.30099 1.14385 8.7107 0.437533 2.152282 -0.737172
H 7.42925 0.09626 11.60145 0.17181 0.327622 -0.134964
H 6.27037 3.9121 8.17224 0.122306 1.132235 0.275309
H 5.92753 0.30587 6.16165 1.46667 0.415181 -0.593117
H 7.43136 5.25424 10.0404 0.633266 1.192589 0.031758
H 8.11657 5.42471 11.3154 0.320983 -0.92624 2.678548
H 8.82995 0.82002 11.6157 0.457711 0.32059 0.008563
H 3.05162 7.90316 11.57678 -2.060337 -0.632311 3.347445
H 0.9111 6.85957 6.40655 0.11564 -0.386057 0.228763
H 4.51263 11.81442 6.84631 -0.216852 1.259997 -0.907996
H 4.52875 6.39343 10.50481 -0.312172 0.026909 0.337582
H 4.2469 7.60549 7.23769 -0.403438 -0.356607 -0.27064
H 0.72766 10.26226 9.75912 -0.856486 0.158453 1.032382
H 2.47227 8.87978 8.19804 0.907243 0.282028 -0.364253
H 1.0559 8.54496 8.37005 -0.002596 0.552072 0.533986
H 4.51589 8.97742 7.66936 0.9033 1.493602 0.4687
H 2.77057 8.40834 10.07826 -0.657332 -0.028983 0.10388
H 4.70729 8.73053 10.96232 0.756072 0.442157 0.229838
H 0.71739 6.87419 11.11409 0.051946 -0.171123 -0.613724
H 11.63916 11.70571 6.54665 -0.332067 -0.40363 -0.259494
H 10.06689 8.6493 7.27613 0.263448 -0.005651 -0.260549
H 8.12494 8.83506 6.28639 0.24178 -0.100735 -0.104621
H 9.88494 9.71648 6.11436 0.405591 -0.967435 0.425766
H 9.29184 6.5922 6.37681 -0.919937 -0.296137 -0.580782
H 6.38022 9.9763 7.40138 -0.204349 -0.207846 -0.736754
H 6.24368 9.66937 8.82399 -0.273081 -0.001097 0.331227
H 6.24605 8.89761 10.57991 0.473203 0.129155 0.07271
H 8.54151 11.37344 9.76213 -0.147139 -0.246 -0.725693
H 10.93967 7.42231 9.1935 -0.031241 0.209171 -0.887108
H 7.19265 11.05013 6.07122 0.410328 -0.682139 -0.278816
H 6.24325 7.34525 6.50613 -0.160664 -0.385403 -0.015641
H 7.87678 11.05456 8.29846 0.878608 0.784073 0.745853
H 11.39035 11.29452 10.02658 0.434375 -1.02702 0.522784
H 10.87582 8.87278 9.44851 -0.145757 0.334719 -0.830823
H 8.3707 8.77781 9.08619 -0.305084 -0.596693 0.545288
H 7.69008 7.45297 9.75684 0.581786 0.073953 0.206429
O 2.17925 1.64392 3.05244 -0.973329 -0.777964 -0.003464
O 4.37174 2.88555 2.04069 -0.014693 -0.277414 0.925243
O 0.00339 2.72733 5.2405 -1.869237 1.1262 1.117097
O 1.63704 5.15004 5.57191 -0.233459 0.334863 0.266686
O 5.62958 2.80606 4.49332 0.652281 -2.096312 -2.515817
O 4.82696 5.74855 1.93031 -1.697534 0.27631 -0.341932
O 0.43569 0.24065 0.87418 -0.221932 -0.098025 0.576962
O 9.61728 1.06177 3.47799 -0.220291 2.761152 -0.811664
O 7.62178 3.66831 0.25979 -0.146018 -0.290223 -0.749075
O 11.41982 2.60792 2.49866 0.065817 -0.040471 -0.318557
O 9.84396 4.76262 1.65881 0.191969 0.374261 0.289895
O 7.19892 4.85407 3.41711 -0.47959 0.412959 -0.119847
O 3.35169 11.29178 1.50011 -0.46812 1.061016 -0.619302
O 4.2728 10.34256 3.96645 0.357687 0.909774 0.572779
O 3.92851 6.30429 4.57886 -1.539744 -0.118485 -0.464394
O 0.15521 5.91843 2.95453 -1.309462 -0.572376 -1.612361
O 2.10466 7.6814 1.46091 0.767284 -0.86422 -1.116895
O 2.41112 8.36823 4.0558 -2.12239 0.494483 -0.605363
O 8.84971 6.10099 5.64316 -0.787409 0.602135 0.486523
O 11.02046 11.26203 5.89256 0.208957 0.088948 -0.06295
O 6.53126 7.33945 1.42291 0.576803 0.348931 0.520588
O 9.13964 7.44826 2.42922 1.530181 -3.362571 -0.737425
O 6.66411 8.89291 3.66674 -1.630334 -0.67562 0.978076
O 8.36836 10.25965 2.30511 0.672411 -0.209805 0.234142
O 10.97573 10.18111 3.08631 1.292763 1.170982 0.156259
O 11.13832 8.20864 0.55783 0.623521 -0.034387 -0.272216
O 3.65295 2.22197 11.06566 0.322901 -0.399971 -2.82692
O 2.49763 2.18493 5.98197 -0.359471 0.354209 0.899616
O 3.41322 4.759 7.91909 -1.555755 -1.214084 -0.880815
O 4.69551 0.697 6.15909 0.083445 -1.670979 1.413301
O 1.02488 3.11983 11.34499 -0.480919 0.039236 -0.77494
O 4.50979 5.42514 10.52595 -0.289271 -0.407796 -0.562566
O 0.50978 0.91527 7.65641 1.983375 0.312357 -0.664832
O 2.5701 0.02368 9.80047 -0.059211 1.217736 -0.008743
O 10.27437 1.79325 11.53599 -2.471562 -0.106872 -0.796843
O 9.16248 3.23519 6.02529 -0.594345 0.035961 0.190211
O 6.36158 2.3071 8.00484 1.381933 0.139106 -0.061028
O 6.28384 1.76219 10.66095 -0.759848 -0.901857 -0.652867
O 10.66584 4.23067 10.52996 -0.454538 0.851152 -0.113641
O 9.5564 2.1489 8.48147 -0.37829 -2.029771 1.098934
O 6.29815 4.89117 8.44792 -0.868121 -1.100761 0.310183
O 7.0973 0.16856 6.11533 -1.216909 0.773085 0.030429
O 0.68684 7.7992 6.36305 0.596276 0.029722 -0.998119
O 0.76563 6.29908 10.31798 -1.748551 -1.401835 1.357628
O 5.72195 6.50984 6.38498 0.847219 0.555384 0.567328
O 1.74412 9.11243 8.80331 -0.974936 -0.80337 -0.068716
O 3.40133 8.09194 10.75853 1.868136 0.396189 -3.381437
O 3.79223 8.45959 7.33915 -0.335883 -1.102245 -0.37091
O 5.8085 10.2235 8.15037 0.288128 -0.158498 0.547758
O 5.57503 9.21439 11.20608 -0.681127 0.174737 -0.06916
O 9.70751 8.7571 6.35889 -0.13793 1.238954 -0.426037
O 11.7887 10.46169 10.39821 0.324973 0.653709 -1.39026
O 8.71669 11.29613 8.77432 -0.566143 -0.080101 0.40662
O 10.76163 8.25248 8.68091 0.237025 -0.444686 2.300191
O 7.14023 8.92494 6.20854 -0.383363 0.005072 1.270222
O 7.99187 5.91896 10.54685 -1.094653 -0.009356 -3.322212
O 7.61392 8.41575 9.59099 -0.176245 0.587995 -0.600675
O 8.38252 11.78767 11.50685 -0.391268 -0.814923 0.107348
Na 7.72213 1.78636 4.67959 0.501055 -0.209322 -0.116826
Na 10.66236 7.31079 4.43569 -0.174496 0.272653 -0.356726
Na 2.5081 4.24426 10.28769 0.316672 0.376403 -0.572185
Na 4.21724 11.25224 11.23238 0.044542 -0.1968 -0.028153
174
energy=-940.78213423 config_type=nep2xyz pbc="T T T" virial="-8.41973 3.13044 -2.19042 3.13044 -10.83877 0.95014 -2.19042 0.95014 -10.70589" Lattice="11.421595573 0.0 0.0 0.0 11.421595573 0.0 0.0 0.0 11.421595573" volume=1489.979641884784 Properties=species:S:1:pos:R:3:force:R:3
H 2.7638 3.76796 3.11655 -0.036377 -0.181789 0.361624
H 4.54984 5.23905 2.62801 1.394204 -0.335545 -0.150574
H 2.01104 2.81904 2.19283 -1.68775 -1.012847 -0.072438
H 3.89354 1.81646 1.53513 -0.33071 0.535133 0.145586
H 1.36382 1.10552 5.26042 0.418327 0.633787 0.321824
H 0.80232 5.06708 4.3404 0.517485 -0.367583 0.1683
H 1.47187 2.63291 5.54549 -0.011313 0.128188 0.052005
H 5.39802 3.47003 4.16846 -0.286111 0.753358 -2.884004
H 2.9044 11.35965 0.77303 -0.610858 -0.277428 -0.89764
H 5.10512 2.83438 5.41616 -0.359892 -0.258459 0.92082
H 2.8591 5.00076 1.69941 0.047274 -0.942086 -0.293985
H 4.64281 0.46476 1.44697 -0.051646 0.518515 -0.507601
H 2.67149 5.8207 5.0808 -0.332908 -2.156497 -0.806899
H 0.3489 1.89685 1.18878 -0.092454 -0.919277 1.223749
H 6.16082 5.2333 2.73021 -0.80483 -0.455908 0.050444
H 11.22078 0.72761 2.18147 -0.469482 -0.707633 -0.408395
H 10.3854 2.64554 5.34834 -0.04875 0.032471 -0.895564
H 7.23096 2.83024 2.2283 0.14666 0.540918 -0.314914
H 8.17794 1.72515 2.76742 1.552034 0.01797 -0.005675
H 10.51511 3.81081 3.51274 -0.270846 -0.571704 0.070208
H 10.45906 2.28642 3.06873 0.333287 0.268568 -0.10547
H 8.3349 5.33474 2.79978 -0.617446 -0.020882 0.259968
H 8.50822 4.99774 4.29035 -0.399582 -0.099055 0.362194
H 9.50754 11.29934 5.09216 -0.666964 0.579176 0.10772
H 8.92121 5.44348 6.69295 -0.330799 -1.224359 -0.398779
H 11.02288 5.93573 4.11275 -0.315884 0.11061 -0.097348
H 9.24475 3.90614 6.80871 -0.648991 0.808823 -0.450896
H 3.21597 11.21816 4.0625 0.674826 1.481412 1.284468
H 1.81865 10.53881 3.76133 0.122669 -0.036942 0.113582
H 2.52318 6.13166 0.68184 0.343118 0.068872 0.368553
H 11.30043 10.23236 4.9401 -0.455781 0.386439 -0.010444
H 4.56642 7.47499 5.74316 -1.109985 0.12216 -1.186793
H 1.50968 9.61897 1.23542 0.78303 -0.102685 -0.131647
H 5.78285 7.63906 1.63673 1.112432 -0.442284 -1.972515
H 11.03777 9.88141 3.3884 -0.032461 0.470534 -0.242106
H 0.46779 8.56719 1.33532 -0.090313 -0.662821 0.447183
H 2.53934 8.07467 11.16895 0.399556 -1.149466 -0.493052
H 6.52865 0.27664 2.49809 0.056104 0.804564 -0.188105
H 6.09704 7.47294 3.17803 -1.393615 0.755165 -1.469837
H 10.73116 8.33013 4.33773 0.796225 0.098871 -0.304078
H 7.89806 11.00384 4.78161 1.040232 0.609347 -0.119644
H 6.15923 10.41651 3.96171 -0.130314 -0.269451 1.235384
H 6.36326 9.26185 4.97672 -0.073379 0.122959 0.431385
H 9.40573 11.05619 3.08835 -0.702617 0.384977 1.150937
H 6.37331 10.50149 1.572 0.119707 -0.494427 -0.341447
H 9.51416 10.85754 1.5742 0.43592 0.154306 -0.360181
H 9.85859 7.94627 2.43156 -0.271702 -0.09756 1.645003
H 9.31132 8.17861 1.02437 -0.821766 0.224461 -0.659458
H 6.81357 6.17701 4.76253 -0.198787 1.074545 0.651469
H 6.95768 6.93363 6.14918 -0.510662 0.205413 -1.01315
H 1.32043 3.55807 11.35469 -0.306535 -0.006357 -0.455907
H 3.67603 3.4309 10.57063 0.657206 -0.793165 0.143102
H 3.20106 4.37349 5.35381 -0.51089 -0.160683 0.235084
H 3.26155 4.63226 9.74593 -0.769053 -0.479896 0.996827
H 2.75737 4.02309 7.35506 -0.953625 -0.267158 -0.10315
H 1.07251 0.37844 10.96512 -0.154356 0.081109 0.006449
H 0.67393 4.68964 6.87176 0.070809 0.851976 -0.200099
H 0.21843 3.20595 7.04411 -0.228308 -0.235134 -0.173104
H 0.61627 0.9903 9.60559 -0.03108 -0.206264 0.097187
H 4.23257 4.3568 7.2894 0.442371 -0.277616 -0.040793
H 4.19688 1.16085 10.64666 -0.26792 -0.460853 -0.948801
H 5.03605 1.55704 9.41229 -0.784209 -0.287769 0.090897
H 0.47111 0.03575 7.29209 -0.391132 0.071684 -0.749489
H 8.62483 4.53416 0.59688 -0.212105 -1.634599 -0.405614
H 10.67882 1.32746 6.20883 -0.66285 -0.036601 0.051789
H 11.34209 3.06865 10.89654 -0.427416 -0.673822 -1.237993
H 11.26632 4.40563 8.66992 -1.732045 0.027323 0.273502
H 10.23772 0.74117 10.8735 0.363937 -0.018552 0.484095
H 10.49669 5.29005 9.69834 0.049554 0.060359 -0.091049
H 8.729 0.2913 10.8687 0.257325 0.44892 0.670597
H 7.88133 7.00632 9.10364 0.2254 0.118923 1.107699
H 6.68363 2.9364 10.0277 0.451133 -0.075916 0.324683
H 6.08576 3.67345 8.76072 -0.559555 -1.272874 0.344032
H 8.77158 2.37321 11.11595 -1.017271 1.287862 -0.858202
H 7.11791 2.08103 8.2541 0.030637 -0.421788 0.002742
H 8.99085 3.51487 10.05499 0.237103 0.437356 -0.499714
H 8.23219 0.9402 7.88923 -1.548097 0.721168 -0.717088
H 6.51394 5.4173 7.76053 -0.066762 -0.121311 0.228692
H 2.87201 10.39914 10.9079 0.042994 0.167044 0.244694
H 6.12046 0.28568 7.38491 -2.070128 -0.587772 -0.687738
H 5.0467 6.62281 11.04615 -0.157049 0.029537 -0.144217
H 2.43727 6.61701 7.74896 -0.680854 0.136413 -0.419901
H 3.97297 6.88319 7.87158 -0.583356 0.315914 0.563322
H 6.26523 4.33579 6.6754 -0.240338 0.112601 0.39626
H 2.94908 7.22808 9.83526 -0.200216 -0.137013 0.3478
H 1.37595 10.72558 8.2469 0.45583 0.205136 0.042851
H 5.45932 10.95261 6.11616 -0.712286 0.750731 2.811647
H 1.07341 9.20836 6.02429 0.83924 -0.66905 1.103587
H 1.54584 8.87658 8.105 0.594279 0.000266 0.04284
H 4.3799 10.71184 9.38501 -1.196506 -1.294297 0.548076
H 3.2606 9.55818 9.17757 -1.473899 -0.063259 -0.336044
H 0.80041 9.27507 9.3859 -0.634047 -0.133042 0.608428
H 3.19622 8.27278 5.77891 -0.042783 -1.141467 -0.584814
H 4.80518 9.06069 8.27732 0.147387 -1.675937 -1.022912
H 1.02294 7.4111 6.39544 0.174362 -0.530714 0.106718
H 0.99574 6.59039 10.85255 0.130918 0.176041 -0.471633
H 8.65294 5.97786 0.46251 0.449191 -0.125892 1.275766
H 7.10662 7.5047 11.19794 0.462249 0.743771 0.720637
H 6.27375 10.57989 9.92883 -0.050354 0.306229 0.251536
H 11.19585 7.47119 10.83817 -0.911624 2.591872 0.009431
H 10.01441 10.55318 6.69018 0.664095 1.065936 -0.300677
H 5.50362 5.56499 0.59976 0.010965 -0.782302 0.851235
H 9.50266 7.85635 4.98009 -0.517233 -0.740806 0.861245
H 8.42694 7.20894 7.56005 -0.043784 -1.133756 0.082958
H 5.85804 7.92741 8.21228 -0.015771 -0.234579 -0.552425
H 8.00949 9.53014 7.69724 -1.640709 -2.20018 -1.224749
H 9.46797 8.38245 7.12935 0.473423 0.502681 -0.321349
H 11.0647 6.71973 6.40826 -0.074439 -0.18277 0.19239
H 7.67281 10.55966 9.16357 0.264189 0.350442 0.365599
H 9.76538 9.3907 9.15767 -1.119664 1.553652 -0.366072
H 7.47788 8.97657 10.88966 -0.130224 1.688251 -1.03038
H 10.32699 8.10558 8.86455 0.447895 -1.343061 -0.704934
O 2.85963 3.19038 2.33732 1.660573 0.825703 0.257439
O 0.3713 3.5026 0.17428 1.054252 0.974117 1.680523
O 1.96665 1.80786 5.58641 -0.00403 -0.859889 -0.541329
O 5.73274 3.44845 5.0311 0.689556 -0.680683 2.034957
O 4.0932 1.10422 0.911 0.778907 -0.611773 0.899425
O 2.52071 4.82188 4.80245 1.035701 2.376398 0.191145
O 0.50513 1.36783 2.03354 0.568479 1.715938 -0.791221
O 0.01979 5.11573 3.77101 -0.499263 0.577438 -0.300703
O 10.48981 2.31874 6.24508 0.052031 -0.227521 0.673804
O 5.37724 4.74054 2.38356 -0.585027 0.568057 0.243285
O 8.64754 4.54649 6.32977 1.133978 0.375046 0.724194
O 9.92365 2.99627 3.46529 0.114044 0.182626 0.366764
O 8.85876 5.28448 1.14302 -0.022049 1.576714 -0.923528
O 7.28571 2.01768 2.72035 -1.723174 -0.786715 0.54245
O 7.81089 5.19578 3.63858 0.872439 0.155189 -0.6427
O 2.31146 10.8042 0.18668 -0.00769 0.233313 0.344611
O 5.417 7.76642 2.48054 0.141693 -0.138374 3.66172
O 2.77686 10.58464 3.5495 -0.750091 -1.827279 -1.479034
O 2.34963 5.80009 1.59864 -0.37747 0.968628 -0.195265
O 0.2312 9.75242 4.12934 0.796668 -0.179327 0.432121
O 3.71729 7.598 5.21002 0.496986 0.755925 1.762358
O 1.42901 8.67232 1.48805 -0.539964 0.480149 -0.225372
O 2.86489 7.19214 10.82978 -0.188089 0.92176 0.3986
O 8.67182 0.17168 4.50965 -0.469302 -0.808124 0.451548
O 6.31742 10.23846 4.95358 -0.005648 -0.310417 -2.117469
O 10.04147 10.8752 2.38707 0.200434 -0.216575 -0.841922
O 5.92896 10.96471 2.28554 -0.049949 0.058495 0.42126
O 6.44825 6.95148 5.29672 0.890688 -0.902816 0.267546
O 10.09998 7.9692 1.51465 1.219868 -0.231582 -1.016426
O 7.68058 8.27311 0.06256 -0.392992 -2.257214 0.477447
O 10.0396 7.66128 4.19756 -0.137721 -0.153501 -0.88972
O 5.18846 11.34217 7.08149 2.434035 0.226007 -1.799222
O 2.96522 4.05769 10.51035 0.075468 1.31011 -1.174362
O 3.58402 3.69103 6.98521 0.435074 0.079163 0.292775
O 0.37404 0.96311 10.55399 0.511005 -0.218273 -0.748726
O 0.86083 3.87217 7.36788 0.385004 0.083422 0.53946
O 1.29613 0.17262 7.79558 0.003153 -0.24248 1.001405
O 4.2165 1.01488 9.65038 0.870443 0.597942 0.730875
O 5.92564 4.64579 7.5433 0.784744 0.778057 -0.251156
O 9.40997 0.76504 0.00184 -1.337639 -0.377791 -1.034986
O 10.32508 4.57641 9.05742 1.448488 -0.328668 -0.079287
O 7.64001 6.72256 8.23603 -0.195864 0.558385 -1.597449
O 6.00471 2.81703 9.34336 0.372266 1.537475 -0.634736
O 7.48139 1.5191 7.52942 1.414198 -0.679495 0.18573
O 8.32002 3.22851 10.69571 1.066576 -1.755022 1.499689
O 10.62549 11.11593 6.12153 -0.520233 -0.877742 0.184443
O 3.182 6.49315 8.33651 0.877448 -0.586399 0.012832
O 1.59537 8.63613 6.64824 -0.267945 0.915891 -0.896765
O 4.06569 9.76244 9.65095 2.748579 2.030407 0.198412
O 1.71431 9.11873 9.12473 -0.395252 0.005958 -1.360525
O 5.06749 8.22613 7.71702 0.521392 1.287058 1.123359
O 7.18837 10.84256 10.10331 0.21024 -0.814401 -0.590527
O 5.84745 6.19043 11.38616 -0.03732 0.875069 -0.86088
O 0.02379 6.5848 10.78525 0.88272 -2.832636 0.133346
O 0.57676 6.43422 6.30109 -0.087712 0.037005 -0.027937
O 9.47152 7.51117 6.71414 -1.202739 0.036539 0.802925
O 8.45967 10.26826 8.00378 1.751679 1.98819 1.498309
O 10.4954 8.84294 9.43565 0.438242 -0.033605 0.932406
Na 7.78757 2.3043 5.29501 0.310544 -0.010331 -0.031236
Na 0.04535 5.3903 1.35992 -0.352018 0.276468 0.264432
Na 3.14908 8.24039 3.15043 -0.146437 0.150106 -0.287671
Na 3.16236 1.37899 7.64814 0.095886 -0.071913 -0.316757
174
energy=-939.669046 config_type=nep2xyz pbc="T T T" virial="-8.58547 7.09865 1.73775 7.09865 -23.66249 2.13144 1.73775 2.13144 -13.30949" Lattice="11.804395676 0.0 0.0 0.0 11.804395676 0.0 0.0 0.0 11.804395676" volume=1644.8688458613026 Properties=species:S:1:pos:R:3:force:R:3
H 0.13813 1.81208 2.26308 0.412825 0.358226 0.693231
H 4.48368 2.38915 0.52457 -0.064636 0.220458 -0.041473
H 1.21047 3.81879 2.50246 0.592138 0.495227 -0.302707
H 2.51003 0.93417 1.84085 0.394569 -1.12973 -2.518149
H 3.47622 2.02865 3.64688 0.007203 0.416102 0.090813
H 1.79779 1.73041 2.81475 0.166998 -0.526293 0.688155
H 3.59058 2.91137 1.6917 1.38988 0.906668 -1.076601
H 3.48585 2.45835 5.17222 0.156292 -0.069544 -0.479353
H 2.25445 4.90508 3.05461 0.188601 0.56521 0.457759
H 0.51729 11.47987 0.57692 -0.3477 0.077784 0.697713
H 5.31125 5.85895 4.39533 -0.254008 -0.483345 -0.3519
H 4.76225 4.38196 4.06801 -0.226611 -0.175331 -0.013812
H 5.38329 1.623 4.52097 0.211552 0.33485 -0.419528
H 7.18202 4.1569 4.48214 -0.428942 -0.007071 -0.544812
H 11.77222 2.43753 4.3247 -0.313153 0.735271 -0.740365
H 6.61355 5.63863 2.54934 -0.610619 -0.343195 0.724445
H 10.68582 3.55845 2.62609 -0.880004 1.370922 -1.009912
H 11.37596 1.30452 1.41469 -0.880239 -0.655871 -1.486327
H 7.68089 5.53787 1.5128 0.297509 -0.11603 -0.311864
H 6.18653 2.88583 1.70797 -0.992238 -0.006986 0.074092
H 7.60575 3.30304 1.18305 -0.248456 -0.121289 0.765068
H 9.56978 4.0806 1.46798 0.470873 -0.080811 0.692173
H 0.33842 3.0232 5.63195 1.153053 0.832225 1.194127
H 10.55087 4.68006 5.72365 0.008224 -0.086296 -0.18239
H 10.75334 6.09815 6.37887 -0.481683 -0.557001 -1.06602
H 9.45296 0.49218 1.38361 1.565639 0.349412 -0.381274
H 8.18117 1.3721 1.95934 0.285891 -1.210979 -0.411374
H 6.74531 1.22197 3.83766 -0.090427 0.301449 -0.22647
H 11.6523 0.87582 5.49482 -0.476148 -0.016964 -0.088194
H 8.60936 3.76775 3.90342 -0.994786 0.180013 1.065516
H 7.99331 1.17269 11.34105 0.730265 -0.412925 0.53578
H 4.90668 0.34888 0.30851 -0.846132 0.774242 -0.971541
H 4.58772 8.03299 3.60011 0.903941 0.375517 1.357664
H 2.67738 11.34677 4.72288 0.850242 0.476826 -0.292663
H 4.00473 10.00548 1.80788 0.02859 0.134105 0.28628
H 2.54353 9.96035 3.49156 0.25993 -0.997942 -0.983466
H 1.66663 6.89549 4.7073 -0.840496 -0.302632 1.178691
H 1.96072 7.84597 3.64999 -0.236721 1.7012 -1.084607
H 1.91355 10.14515 2.14028 0.622449 -0.563051 -0.722794
H 4.75952 8.66478 5.06238 -0.28994 -0.199982 0.279755
H 3.16547 7.53279 1.67409 -0.264729 0.071623 0.146884
H 3.24877 9.56716 6.23419 0.773252 -0.362746 0.758622
H 0.88548 5.45787 1.18842 0.488118 -0.126006 0.522901
H 5.60636 10.10314 1.66027 0.335901 -0.093363 0.239617
H 7.11862 8.06805 4.35061 -0.266132 0.217587 -0.55242
H 10.59583 11.75769 4.81093 -1.240015 -0.308904 -0.383876
H 7.82593 10.55974 1.80546 -0.588338 -0.849736 -0.302503
H 11.14229 6.99074 1.13409 -1.136081 2.218936 0.254222
H 7.69264 9.08984 2.31678 0.786247 -0.896326 1.443794
H 10.90751 8.35039 2.04142 -0.169541 -0.281538 -0.355871
H 8.78401 11.71044 3.7228 -0.035959 -0.097955 -0.394847
H 8.58791 10.33308 4.44393 0.428767 0.607921 -0.008841
H 11.17232 8.45183 5.34631 0.410425 -0.549759 0.403905
H 9.04863 10.11813 11.12456 0.304725 -0.537806 0.073833
H 8.22566 8.41864 5.24559 0.609679 -0.041069 0.670685
H 11.32473 9.50526 4.25493 -0.268611 -0.227824 0.085679
H 2.27742 4.1623 6.4223 -0.791506 0.03281 0.674891
H 0.9475 6.03377 6.31775 -0.36529 0.088598 0.060205
H 2.93619 0.99154 7.2108 0.222693 -0.056287 -0.470556
H 1.92091 11.16637 0.04545 1.964171 0.535047 -1.928114
H 3.52069 4.67682 11.79742 -0.200345 -0.906652 -0.442181
H 3.08141 5.43423 10.31554 -0.17144 -0.74805 1.680653
H 1.73389 4.5455 8.06788 -0.21844 -0.049194 -0.986805
H 3.81682 2.21295 7.32561 0.06173 -0.074032 -0.43794
H 1.76386 11.6878 9.01552 -0.077796 1.800854 0.62364
H 2.22931 2.79684 9.62737 -1.021442 -1.101015 -0.059033
H 2.90065 1.81874 10.44495 0.175143 -1.029485 0.523698
H 1.17172 4.92591 9.75931 0.738187 0.218967 -0.271084
H 5.32454 1.16152 10.77012 -1.085826 -0.298781 0.560866
H 3.62677 4.37822 8.69643 0.505396 -1.153162 0.154679
H 5.56692 2.41185 9.22495 -0.417255 1.043733 -0.200385
H 8.34723 3.23498 11.40633 0.121234 1.222183 0.662032
H 7.21248 5.16348 11.10854 -0.56397 1.147304 0.267942
H 8.0965 4.28428 6.47579 0.007475 -0.168108 -1.801296
H 8.48618 1.17111 6.3275 0.391079 -0.519323 1.400233
H 5.73507 5.68904 10.87426 -1.387647 -0.468444 0.013103
H 9.17201 1.64533 7.64053 -0.208356 -0.225399 -0.025958
H 10.97931 0.83686 11.08372 0.347228 -0.313485 -0.183836
H 6.94714 1.708 9.34018 1.313211 0.183789 0.39837
H 5.10837 4.46573 8.37332 -0.363758 -0.889056 -0.04328
H 8.93263 4.51499 7.65848 0.651842 0.280245 0.520374
H 11.64001 1.37679 9.73752 -0.460689 -0.089973 -0.060815
H 9.62351 4.69779 11.00489 -0.237361 0.052737 -0.260915
H 10.73814 3.41081 8.95523 -0.001399 -0.611103 -0.668969
H 11.48028 3.12686 7.62941 0.636167 0.44672 -0.618643
H 9.34005 1.36716 10.38631 0.873702 -0.662717 0.296595
H 1.25221 7.47054 6.8301 -1.32952 -0.989253 -1.123049
H 2.25739 6.58767 8.42878 0.151302 0.956126 0.30252
H 2.72902 10.52896 9.22164 0.327725 -0.378559 0.487648
H 3.61666 8.50928 7.40682 0.041406 0.552404 -1.111792
H 3.99483 9.69481 11.35095 0.534862 0.620708 1.444705
H 1.28756 11.09852 5.14522 0.301653 -1.012915 0.13653
H 3.73788 6.3887 0.71595 -0.066999 1.239457 0.139779
H 2.1128 7.92826 9.19427 -0.172996 -0.150881 -0.160369
H 5.57784 6.44745 6.91651 -0.487088 -0.013135 -1.351974
H 0.82032 7.38415 11.28 -0.283531 -0.101602 -0.574902
H 1.64435 8.60786 11.18707 0.330898 0.469623 -0.316765
H 4.41827 9.07711 10.05681 0.061019 -0.107319 0.265481
H 11.57333 5.48967 0.06193 -0.67249 -0.78348 -0.749991
H 9.85293 8.8879 0.00909 -0.33067 0.579062 -1.495106
H 6.38998 5.90992 8.0562 0.652706 0.121052 -0.030471
H 5.47781 9.52151 7.3512 -0.040019 0.180021 -0.214036
H 5.82273 7.80306 9.35719 -0.407393 -1.182252 -0.187368
H 10.76241 10.60991 6.75769 -0.017662 0.522505 -0.045886
H 9.93606 5.81488 9.95824 -0.723727 0.917217 -0.26503
H 9.64889 11.08886 7.73311 0.144063 0.21087 -0.377989
H 7.67193 7.08132 9.8987 -0.604694 -0.646543 0.323491
H 8.77636 8.10197 9.98819 0.467074 -0.019961 0.10462
H 9.20715 9.16078 7.00027 -0.11195 -0.059225 0.679568
H 8.41042 7.98837 7.71035 0.299303 -1.149284 1.326319
H 7.08289 9.60614 7.45572 -0.176314 -0.191305 -0.348865
H 6.39617 9.12176 9.14431 -0.912863 0.220525 1.129204
O 0.6393 2.45691 2.7729 -0.279372 -0.118693 0.659312
O 4.32198 3.21524 1.05665 -1.414735 -0.626639 1.205035
O 1.76882 4.64686 2.27912 -0.766405 -0.876296 -0.671831
O 3.79045 2.74322 4.28294 0.089263 -0.151463 0.341285
O 2.64034 1.02137 2.75367 -0.480582 1.19692 2.136954
O 5.50621 4.99856 3.97388 0.472643 0.642695 0.312728
O 11.36609 2.89085 5.11374 -0.650158 -1.048698 -0.334632
O 7.10586 2.7604 1.94027 1.115999 -0.051765 -0.285816
O 8.32745 4.05153 0.19344 0.294813 -0.757305 -1.248194
O 10.10869 4.32418 2.29057 0.25826 -1.144697 0.355597
O 10.19799 5.58477 5.73302 0.355412 0.526296 0.833925
O 10.9871 0.62522 0.83638 0.062982 -0.143612 -0.38636
O 6.26018 1.22347 4.66565 -0.309509 -0.507637 1.03512
O 8.07406 3.90006 4.73832 1.260524 -0.149112 -0.904674
O 4.7568 10.4357 1.34424 -0.255292 0.373986 -0.867763
O 2.23894 7.00938 3.96111 1.315342 -1.22773 -0.313566
O 2.57733 9.53541 2.57253 -0.981363 1.133997 1.625509
O 5.24752 8.27938 4.31863 -0.611237 -0.797887 -1.62833
O 0.6347 6.96447 6.15784 1.947359 0.698359 1.952068
O 3.96591 7.21114 1.25946 0.701161 -0.65767 -0.189381
O 4.01344 9.08736 6.6726 -1.277572 -0.296839 0.326502
O 2.18034 10.62972 5.11894 -1.088396 0.721353 0.004271
O 0.4235 6.01166 0.51345 -0.061126 0.990297 0.174196
O 7.37107 6.12787 2.21583 0.363905 0.365388 -0.517935
O 8.61989 0.45279 1.88173 -2.233583 0.619321 1.064892
O 11.4572 11.76356 5.22959 1.782199 -0.008823 0.873144
O 7.35546 9.67444 1.66361 -0.012174 1.784666 -1.00002
O 10.47775 7.84396 1.32653 1.276997 -1.741917 0.106554
O 8.97287 11.23904 4.55535 -0.465312 -0.460077 -0.095542
O 8.06046 8.3202 4.29893 -0.48398 -0.232868 -0.270697
O 10.84919 8.68652 4.47866 0.076745 0.640224 -0.655267
O 1.45722 4.25145 6.96274 0.711928 0.272615 0.011678
O 4.58734 1.06022 11.46002 1.691891 -1.185224 0.208387
O 3.55824 5.44891 11.21876 0.851834 0.982511 -0.643884
O 2.09314 1.83959 9.9099 0.819386 2.026802 -0.541108
O 2.00958 4.99735 9.24826 -0.615908 -0.399711 -0.474524
O 3.58086 1.50342 6.67956 -0.040235 0.125874 1.411848
O 4.40942 3.77888 8.49544 -0.2227 1.725743 -0.099874
O 6.01653 1.57559 9.18417 -0.826505 -1.209677 -0.325394
O 8.06743 4.20753 7.417 -0.990594 -0.086534 1.555362
O 10.95769 0.75458 10.04891 0.291436 -0.177198 0.907944
O 10.26221 4.98774 10.29867 0.899719 -1.123338 0.553838
O 10.88339 2.72084 8.24899 -0.668951 0.635809 1.259404
O 8.61212 0.91443 7.29172 -0.123424 0.688094 -1.39475
O 8.39551 1.48331 10.53106 -1.674664 0.994098 -0.916405
O 1.97077 10.82806 8.70146 -0.305996 -1.194329 -0.767618
O 1.34726 10.92919 0.72432 -1.909173 -0.418313 1.285403
O 2.38249 7.58068 8.31049 -0.045296 -0.796977 -0.090182
O 3.61376 9.35465 10.55718 -0.975565 0.03589 -1.466052
O 0.98793 8.13454 10.65658 0.087816 -0.069989 0.583584
O 6.62784 6.00185 10.94584 1.637215 -1.085915 0.192242
O 9.57098 9.32101 10.91146 0.422403 0.010236 1.482997
O 5.87323 6.68068 7.77869 0.244657 -0.240103 1.314692
O 10.29145 10.36537 7.57285 0.182975 -0.178741 0.091964
O 5.96775 8.57747 9.89455 1.057094 0.809846 -0.605861
O 8.55719 7.24129 9.57061 0.750872 0.478235 -0.717722
O 8.37065 8.64367 7.0305 -0.196161 1.071168 -1.695107
O 6.22866 9.99905 7.76499 0.562709 0.718761 -0.098436
Na 9.56851 6.214 3.56936 -0.26272 0.245384 0.023491
Na 6.1806 7.68392 0.7187 -0.084422 0.083768 -0.172555
Na 6.09636 0.49414 6.99572 0.184535 -0.027149 0.057751
Na 11.62811 10.18009 9.46544 -0.229226 -0.183457 0.392609
174
energy=-941.70406813 config_type=nep2xyz pbc="T T T" virial="-32.82758 2.974 -1.29168 2.974 -21.874 5.87172 -1.29168 5.87172 -17.44567" Lattice="11.932294846 0.0 0.0 0.0 11.932294846 0.0 0.0 0.0 11.932294846" volume=1698.9160866760087 Properties=species:S:1:pos:R:3:force:R:3
H 3.80464 1.81239 1.37776 -0.075791 -1.485829 -1.454079
H 4.00139 3.39435 1.06691 -0.151879 -0.679035 -0.302509
H 0.47288 1.93574 1.87428 0.123312 -0.032165 0.636646
H 2.47335 2.69165 2.93016 -1.388105 -0.360469 0.363322
H 4.803 3.05245 3.10966 0.134498 -0.201353 -0.728457
H 5.06836 4.07859 4.23415 0.146895 0.131945 0.163865
H 0.90168 4.22181 3.24623 -0.885121 -0.125669 0.366648
H 3.68 6.11279 1.61222 0.452992 -0.30823 -0.682783
H 5.24853 5.93139 1.29553 -2.205749 -0.578082 -1.016584
H 2.70879 11.63624 1.0427 -0.285091 -0.019766 -0.7246
H 0.61834 11.85955 1.89659 -0.138029 0.404938 -0.564503
H 1.81532 1.55678 3.76122 -0.613124 0.739906 0.065542
H 4.75397 2.15309 4.88376 -0.548141 -0.536447 0.727581
H 2.79427 3.67953 7.12443 -0.123371 1.890668 -1.372793
H 1.66382 4.96875 5.05802 -0.346063 0.057426 1.436155
H 3.5771 5.25019 5.37662 -0.072344 -0.0997 0.284275
H 10.37996 0.57099 2.29671 0.964054 0.310441 0.664545
H 10.59735 2.41049 1.06687 1.610123 -1.828705 0.251933
H 7.72496 0.37178 1.15983 1.116084 -1.804864 -0.850933
H 9.16211 2.67031 0.39332 1.400236 0.512824 1.557635
H 7.60842 5.43772 2.42603 -0.295458 -0.234791 0.465309
H 7.8299 5.86994 1.02858 0.028443 0.240399 -0.526844
H 9.19026 3.72424 2.67006 0.088462 -0.127337 -0.626695
H 0.18357 5.06686 1.33706 -0.208092 0.224111 -0.855035
H 11.47247 4.16736 0.31189 -0.291818 -0.27413 -0.264156
H 9.39461 4.46492 3.98672 0.044694 0.326268 0.690368
H 10.19513 0.02136 3.87017 1.103441 -0.287552 -0.127045
H 1.23394 5.67454 3.14098 -0.807808 0.16247 0.394589
H 3.31766 7.1466 3.51475 -0.042479 0.247071 0.474927
H 2.25756 7.56414 2.52041 -0.809216 2.089203 -1.533426
H 7.16885 7.8255 1.39757 -0.261144 0.270393 -0.122776
H 1.92262 9.8004 1.57411 -0.166409 -0.045033 -0.276635
H 1.49859 11.1199 2.98711 0.073298 0.34003 -0.35782
H 4.60056 8.9281 3.69014 0.0639 0.24602 -0.280056
H 4.50529 10.89087 1.80472 0.625057 -0.658146 -0.535068
H 3.11151 11.88804 4.45244 -1.325246 0.180671 -0.268144
H 2.02159 5.97761 6.18105 -0.567014 0.948394 0.494982
H 11.3629 10.22321 4.61849 -0.295037 0.843114 0.70007
H 4.69599 8.70298 5.24721 -0.090058 -0.602074 -0.74372
H 2.01232 11.21602 5.21229 -0.149046 -0.088313 -0.097182
H 10.42191 0.82311 11.57471 0.000963 -0.108987 0.214507
H 6.8281 8.51513 0.06844 -0.186423 -0.536829 -0.684432
H 9.61211 7.0974 11.70219 -0.589959 -1.302916 -0.069925
H 11.33308 7.63815 4.10122 0.610256 -1.510841 -2.955038
H 5.68052 11.28683 3.45446 -0.45997 -1.293921 -1.325929
H 5.58671 9.60223 1.75139 0.036386 0.591968 -0.314374
H 8.26011 9.85451 1.08297 -1.728307 -1.694772 0.091073
H 8.21748 7.82606 4.34163 0.327538 -0.249175 0.739615
H 9.10473 10.86738 1.88739 0.285867 0.405356 0.564527
H 10.265 9.36392 11.90838 -0.324652 -0.920218 -0.753449
H 10.13243 7.84188 5.12377 0.517227 0.231594 -0.612432
H 11.47793 8.77721 11.1454 -1.518565 -0.694892 -0.144849
H 9.19923 11.76355 11.5842 1.074157 0.317084 -0.538028
H 5.48325 0.39248 4.53362 0.591856 -0.35114 0.177953
H 9.48005 6.16555 5.88486 -0.107705 -1.043681 -0.101824
H 0.41243 7.99716 6.37397 -0.305989 -0.52273 0.090963
H 7.84715 10.76724 5.21209 -0.430105 -0.039694 -0.110447
H 8.39207 9.29403 5.64613 -0.278112 -0.093007 -0.012777
H 10.00682 10.44061 5.25164 0.207091 0.712238 0.521343
H 3.7828 11.82933 11.62406 -0.856036 -0.190952 1.304865
H 0.43678 1.65853 0.1631 0.827145 -0.005712 -0.137616
H 3.80137 3.05831 8.17787 -0.621152 0.024032 -0.767663
H 3.79382 1.69087 6.17228 1.199598 -0.285626 -1.308194
H 1.68059 3.59366 8.90629 0.322888 -0.220716 -0.284393
H 1.1889 0.94492 10.89826 0.377593 -0.594178 -0.538783
H 2.84942 2.69089 10.92768 -0.300582 -0.486833 0.295199
H 0.89223 3.20053 10.21481 0.597825 0.171526 -0.416892
H 5.63134 2.92542 11.07866 1.027711 -0.563134 0.368832
H 5.58954 3.52385 8.29812 0.22654 -0.071961 0.434089
H 5.9784 1.90913 8.34946 0.238555 0.508151 0.453204
H 3.64117 3.95275 10.50869 0.08224 -1.257977 1.025297
H 4.14713 5.53982 9.6328 -0.711475 1.256683 0.347228
H 6.8156 1.88475 6.47072 0.468213 0.218181 -0.141286
H 8.34076 1.50051 6.4564 -0.290337 0.366781 -0.084897
H 10.94828 0.83493 6.44656 0.216941 -0.573025 -0.617484
H 10.80846 2.07933 7.28914 0.169177 1.278688 0.42853
H 9.99901 4.73243 6.52724 -0.548231 0.988217 -0.917268
H 6.98826 0.93072 10.01965 -0.601578 0.602989 0.172861
H 7.06229 3.47327 10.67371 -0.554668 -1.084122 0.593615
H 6.8578 1.60999 0.68921 0.755684 -0.761613 1.146724
H 11.47707 3.97656 8.95191 -0.897292 0.074466 -0.87154
H 6.54766 5.03597 9.32255 0.393354 0.159668 -0.481891
H 8.00816 5.29493 10.08833 -0.953966 -1.045689 -1.143906
H 10.09982 5.71887 0.26515 -1.123418 0.310616 -0.655585
H 9.79045 4.0006 8.63662 0.9825 -0.092708 0.271526
H 10.8842 5.95997 8.41286 0.219725 0.777206 0.9267
H 2.10473 9.15605 6.47109 0.599925 0.423377 0.777153
H 3.60218 9.83346 6.78369 -0.891514 -0.351225 -0.558266
H 3.95983 6.07158 11.19948 -0.428866 -0.125074 0.242629
H 5.05963 5.87368 7.94253 0.091535 0.37791 -0.373452
H 5.85213 7.97998 9.97304 1.095339 -0.634325 0.586129
H 1.60368 9.49729 9.86972 -0.185222 -0.845951 0.550529
H 2.03275 10.97424 7.86759 0.063718 -0.651599 -0.363311
H 4.06741 8.10494 9.35758 -0.550241 -0.451014 0.175234
H 2.32182 11.61121 9.23823 1.216089 0.416396 0.632429
H 3.27301 8.99576 1.33682 -0.335317 0.270564 -0.031606
H 4.36505 10.41118 9.78705 0.349813 -2.008567 -0.293974
H 1.8273 8.84329 11.30373 0.463134 0.251624 0.70672
H 5.68625 10.0541 6.78814 0.386569 0.416824 -0.141322
H 4.88454 8.92171 8.22071 0.16901 0.049484 0.551338
H 4.82319 11.83975 9.42598 -0.807297 -0.855029 1.356226
H 4.85176 6.14682 5.07408 -0.067597 0.099676 0.157866
H 0.5852 7.52408 7.88508 -0.070386 -0.028995 -0.468316
H 6.17217 7.87086 6.66957 0.17921 -2.539189 -0.252771
H 7.38687 7.14618 6.03748 0.150446 -0.031019 -0.262184
H 8.4282 10.8028 7.5836 0.146984 0.473041 -0.463424
H 6.27465 6.54511 10.54579 -0.057439 0.102883 -0.025602
H 7.99563 7.75518 9.73385 -0.184335 0.20862 -0.204445
H 10.64938 7.33051 9.28145 -0.263642 -0.622001 -0.40049
H 7.95235 7.84095 8.1771 1.224985 0.241238 1.571201
H 7.55256 11.89949 8.9891 -1.765398 0.416085 -0.065673
H 8.76367 9.86158 8.64549 -0.397982 0.692202 0.995899
O 11.84238 1.34564 1.35302 -0.516075 -0.083331 -0.595693
O 3.51353 0.10018 0.65526 1.193305 0.177286 -0.312127
O 3.87924 2.68476 1.72427 -0.022937 2.112921 1.896601
O 5.43737 3.26372 3.82177 0.054028 -0.345873 0.44184
O 0.44232 5.09189 3.34206 1.851738 -0.217523 -0.874193
O 4.28779 5.78495 0.89448 2.330929 0.679984 2.428644
O 1.59365 2.45746 3.39888 2.10304 -0.200558 -0.673104
O 2.93878 2.97093 7.71063 0.269715 -1.965395 1.830607
O 1.88423 5.04222 6.03346 0.372291 -0.812135 -1.790442
O 4.53988 5.24122 5.24491 0.500925 0.1722 -0.167508
O 9.8049 0.32821 3.03963 -2.072206 0.119582 -0.562942
O 7.21022 1.07258 1.48046 -1.928359 2.768696 -0.760691
O 9.83205 2.9644 1.09663 -3.280414 1.485194 -1.579784
O 8.70562 4.14922 3.39443 -0.282644 -0.284209 -0.318008
O 7.13943 5.92091 1.72018 0.314083 0.220668 -0.048572
O 9.41774 5.17186 5.83647 0.443546 -0.110523 1.135923
O 2.53064 6.83165 3.0241 0.902475 -2.135469 1.018146
O 2.3077 8.96817 1.19704 0.493406 -0.730229 -0.113305
O 1.24383 11.10463 2.02655 0.170301 -0.29196 0.653062
O 4.51627 8.23085 4.35476 0.071879 0.188287 1.048959
O 2.12036 11.72068 4.36998 1.745842 -0.087877 0.938916
O 6.98808 8.71299 1.00026 0.117586 -0.192291 1.010389
O 4.92539 10.11721 2.26696 -0.62409 0.03671 0.368137
O 8.87582 10.55812 1.00249 1.574265 1.58695 -0.646635
O 11.13872 7.97014 4.92487 -1.095919 1.580397 3.463766
O 10.47384 8.62109 11.26793 1.912397 1.686818 0.875563
O 6.18038 11.8554 4.01307 0.448541 1.407173 1.639003
O 10.86267 10.92865 5.11226 0.125796 -1.301423 -0.707124
O 8.55748 7.78208 5.26234 0.30498 0.451102 -0.65761
O 4.36844 1.36035 5.40448 -0.720842 0.963798 0.501323
O 1.05946 1.84404 11.17795 -0.883045 0.547495 0.528934
O 1.09374 3.96228 9.5902 -1.225871 -0.211111 0.572606
O 3.76032 3.01428 10.9061 0.230824 2.033099 -1.177163
O 5.70579 2.68606 7.80986 -0.253054 0.071865 -0.525525
O 3.39164 5.88434 10.43159 0.475922 -0.597043 -1.222062
O 5.1367 5.44911 8.79377 0.529873 -1.540978 0.561806
O 7.66712 2.04767 6.00645 0.028552 -0.34895 -0.021513
O 10.63626 1.14599 7.29345 -0.418292 -0.734524 0.20017
O 6.60738 2.73864 11.23397 -0.61754 1.185227 -0.993378
O 7.48938 4.65063 9.49756 0.905183 1.049149 1.427881
O 11.90918 5.02647 0.35662 0.304999 0.206738 1.391702
O 10.70221 3.99782 8.264 -0.178318 0.021539 0.224589
O 6.68983 0.53404 9.18594 1.909368 -0.908034 -0.095398
O 2.58723 10.00286 6.63297 0.396383 0.305113 -0.446728
O 1.40941 8.70295 10.4466 -0.510294 0.646608 -1.041412
O 1.62619 11.23783 8.71882 -1.843565 -0.205484 0.21621
O 4.17028 11.31037 9.99723 0.467007 3.041243 -0.657598
O 4.76873 8.75438 9.27123 0.29831 0.287582 -0.853404
O 5.086 9.31085 6.78627 -0.331028 -0.730062 0.325792
O 1.06458 7.73681 7.05531 0.241349 0.167949 -0.158593
O 6.55651 6.87728 6.53709 -0.662104 2.610447 0.591484
O 8.32746 10.28804 5.90016 0.301354 -0.081811 -0.010069
O 6.60718 7.45254 10.52398 -1.230064 0.860108 -0.26402
O 9.26764 6.14482 11.81994 1.584001 0.907371 0.494394
O 11.28963 6.63791 9.02008 0.086936 -0.013791 -0.279909
O 8.54603 8.08073 8.97515 -0.72165 -0.257043 -2.082532
O 9.82021 0.34557 10.98889 -0.530745 -0.377647 0.186496
O 8.68673 10.86509 8.53032 0.528457 -1.510223 -0.548416
Na 7.623 1.78127 3.49792 -0.078101 0.109627 0.288823
Na 7.07936 4.5647 6.31005 0.014289 0.01928 0.082098
Na 10.9873 11.5383 8.95853 -0.160304 0.213268 0.014401
Na 1.1233 6.12641 10.50581 0.249702 -0.128906 -0.175623
174
energy=-939.55842286 config_type=nep2xyz pbc="T T T" virial="-26.01376 -0.29016 2.22326 -0.29016 -17.83226 4.69213 2.22326 4.69213 -10.53825" Lattice="11.893195152 0.0 0.0 0.0 11.893195152 0.0 0.0 0.0 11.893195152" volume=1682.2697492316954 Properties=species:S:1:pos:R:3:force:R:3
H 0.45343 0.46662 3.63167 0.21309 1.576297 0.223801
H 1.29248 3.30165 2.98779 -1.185421 -0.714258 1.943979
H 2.34854 4.61008 1.86268 -0.176798 -0.57896 0.159211
H 11.71742 3.37916 3.53114 -0.922736 0.521902 0.185855
H 3.54625 1.82791 2.5389 -0.359363 1.471242 0.017009
H 4.60722 0.78603 2.06305 -1.752757 0.014341 0.819245
H 3.23458 4.98727 4.43268 0.412423 0.389821 0.608118
H 4.3093 4.58459 2.87217 -2.186718 -0.600365 0.794764
H 0.85273 4.96874 1.30181 1.346287 -1.151223 -0.238248
H 5.25065 5.01328 2.5539 1.567861 0.355956 -0.810676
H 4.48372 3.15581 4.12337 0.330123 -0.80866 0.783516
H 4.25095 5.74343 5.41526 -0.132285 -0.11932 -0.020243
H 6.91563 2.17297 2.09674 0.401027 -0.440332 -0.103651
H 0.95768 3.03115 5.34754 0.887887 0.704962 1.046392
H 3.71197 1.43129 5.28114 -0.966785 -0.371034 0.317233
H 6.4391 0.54731 1.18144 0.70817 0.112837 -0.036173
H 8.42054 1.09217 2.9811 0.051405 -0.617231 0.117693
H 9.16998 1.21043 4.46018 0.254088 -0.891279 -1.033552
H 11.83432 2.73355 1.00562 -0.071171 0.179075 0.358099
H 8.36254 2.02092 0.45501 -0.716391 -1.095574 1.060864
H 8.33472 3.29539 11.59224 0.556999 0.065178 -0.492375
H 10.41918 2.42138 0.37219 -2.146964 0.685306 -0.287916
H 7.87169 5.06709 0.64468 0.07051 0.641212 1.577296
H 9.6109 4.90165 3.57944 -0.36235 -0.259988 -0.585598
H 7.61642 5.5629 2.67483 0.083334 -0.336644 -0.975972
H 10.66729 1.35085 6.16853 -0.503499 0.217915 -0.312375
H 10.63931 2.85541 5.68471 -1.122937 -0.715709 0.027474
H 10.64717 5.38065 4.52367 0.292216 -0.69524 0.143376
H 11.32479 0.40618 0.026 -0.390545 -1.138688 -0.088783
H 10.1044 5.88729 1.36137 0.433244 0.325666 -0.313785
H 11.55113 6.50287 1.64443 -0.75978 -0.166944 -0.652066
H 5.57185 6.93564 2.71083 0.035687 -1.746842 -0.793616
H 11.79419 11.10622 3.12202 -0.606319 -0.796889 0.174766
H 2.17182 8.42507 2.73472 0.516809 0.047828 -0.182917
H 3.75326 8.64168 2.44529 -0.325343 -0.315802 0.087356
H 1.28858 6.43037 3.28628 0.277053 -0.064944 -0.188856
H 0.1637 7.36157 3.57609 0.278702 -0.216549 -0.187059
H 3.71205 9.16258 5.75859 -0.32423 0.112471 -0.137869
H 2.35867 9.64672 6.2674 -0.346107 -0.029584 0.777016
H 2.46094 8.61708 0.71238 0.537992 -0.499306 -0.560098
H 5.73521 0.91767 4.49633 0.7724 -0.677355 0.246931
H 7.21082 0.27863 4.39839 -1.30695 -0.169717 0.395402
H 7.80096 5.59924 11.1252 0.206234 0.619168 -0.439736
H 6.04332 5.70254 4.26324 0.066623 0.564982 0.00154
H 7.43522 5.43399 5.97618 0.162846 -0.550705 0.109204
H 8.44987 6.80562 2.71536 0.827537 -0.857042 -0.678546
H 5.90308 8.18571 3.396 -0.021478 0.674258 -0.333105
H 5.5407 8.84872 0.93848 0.352024 -1.067143 1.071972
H 9.58268 11.25503 3.01637 0.397569 -0.209835 0.697445
H 10.30703 10.92708 1.70358 -0.066324 -1.174331 1.145811
H 9.61926 8.94533 3.16601 -1.086621 -0.895693 1.458916
H 6.23867 7.11098 5.05022 0.049053 0.135712 -0.02898
H 10.39603 7.51712 4.5727 0.120291 -0.530846 -0.276264
H 6.56503 9.59964 4.63612 0.058173 -0.301218 0.024319
H 0.01209 11.55319 5.6484 -0.402812 0.175395 0.709836
H 8.60365 8.53416 4.41809 -1.489082 0.710739 0.188475
H 2.42309 1.53911 6.20341 -0.03244 0.06118 -0.642183
H 5.39396 2.88867 5.45715 -0.364188 -0.131609 -0.13416
H 3.0233 6.12318 6.84619 -0.011247 0.05918 0.19487
H 2.14451 3.77245 7.76483 0.009918 -0.34223 -0.149945
H 5.02038 2.50618 9.79886 -0.65204 -2.220845 0.810838
H 2.61329 3.32183 9.17907 -0.130783 0.286506 -0.393964
H 0.96031 2.79507 11.05041 -0.327654 -0.440404 0.783875
H 2.31952 5.17798 11.47295 -0.014604 0.29557 -0.011513
H 4.71971 3.31302 7.60931 0.694526 -0.12861 -0.324092
H 4.24927 4.93676 10.04282 0.449643 -0.281857 0.122595
H 5.57155 0.80839 11.82418 -0.636087 0.806359 -0.935229
H 4.08633 1.16487 9.63413 1.646879 0.769978 0.53345
H 2.17087 3.95827 5.76788 -1.654512 -1.140733 1.256213
H 1.08161 3.96688 10.0843 -0.191201 -1.08839 -0.217418
H 3.07418 5.68427 8.34729 0.082308 -0.494628 -0.093799
H 3.68953 0.32908 7.026 0.477625 -1.525542 0.450006
H 8.64323 4.50757 5.63276 1.00973 -0.568745 -1.115249
H 7.24847 1.98699 7.11546 -0.358365 0.541394 -0.450904
H 8.7898 1.61821 7.00071 -1.289338 -0.104531 0.103183
H 10.92088 2.15713 9.71119 1.141061 1.541324 0.806429
H 5.88091 4.18383 7.07496 0.24673 -0.771927 0.171762
H 11.83233 4.47464 7.73033 0.181953 -0.096067 -0.179509
H 11.04185 0.90431 8.85002 -1.276329 0.874428 1.166517
H 8.63791 5.39901 9.19482 0.558298 -1.239667 -0.339167
H 10.71839 4.70758 8.75008 -1.060325 -0.053317 0.073654
H 8.41809 4.47001 8.01068 1.183342 0.171515 0.578114
H 5.84553 6.04826 7.35881 -0.280108 0.622007 -1.173647
H 5.79024 5.33197 8.69883 0.796655 1.471142 -0.181715
H 3.7152 10.80431 7.85024 -0.472101 -0.155743 -0.255334
H 3.0243 6.48816 10.92009 -0.817109 -0.146149 0.331457
H 2.97406 8.2248 8.42807 -0.122596 0.471186 -0.852579
H 0.25684 11.09153 0.43767 -0.260059 -0.392073 -0.253567
H 3.21694 10.99455 10.40855 -2.497008 -0.520514 0.466147
H 2.21161 9.98919 11.1259 0.574381 -0.732985 0.396479
H 2.5737 9.39565 9.32848 -0.256187 0.432356 -0.574685
H 0.78081 10.9404 9.61533 0.076868 0.038931 -0.562486
H 3.79202 8.68084 0.00916 0.473332 0.09513 -0.515394
H 6.03359 8.7572 7.74134 -0.250137 -0.528209 0.194869
H 6.84927 8.90858 6.34756 -0.475228 0.229401 0.19404
H 11.20556 7.15033 11.37314 -0.702144 0.282933 -0.964644
H 5.74446 4.71556 10.55095 0.451716 0.25924 0.913829
H 10.0635 7.17644 10.27373 1.520137 0.798258 0.479123
H 5.43562 10.12362 0.19989 0.070349 0.483879 -0.318258
H 11.44358 7.52258 5.6361 1.442421 1.742774 3.017024
H 9.23149 6.88966 6.91216 -0.375264 0.187147 1.240546
H 10.71275 8.24877 7.61807 -0.405804 0.365711 0.195903
H 11.76359 11.35671 7.30072 -0.575986 1.547428 -1.872866
H 8.22571 8.00845 7.31182 0.72823 -0.370951 1.025019
H 6.66625 11.59624 10.56442 -0.114689 -0.012832 0.318263
H 8.06798 7.50436 9.42104 -0.05121 -0.094802 -1.100482
H 11.79935 9.45571 7.7299 -0.335208 -1.924229 -0.22497
H 7.68468 7.99211 10.81903 0.555127 -1.248985 -0.475033
H 8.0517 11.12127 10.11171 0.791802 -0.716279 0.204039
H 10.32582 9.11278 10.57654 -0.349855 -0.005205 -0.203026
H 11.18571 10.57281 9.27431 -0.872444 -0.20894 0.651553
H 10.22476 10.61142 11.05381 -0.753852 -1.590361 -1.443487
O 3.42772 4.2924 3.20015 0.135289 -0.259268 -0.49841
O 1.61941 4.3039 1.23555 -1.253961 1.508469 0.100664
O 0.66921 2.98688 3.75605 1.825283 -0.0377 -2.289981
O 3.75498 0.91475 2.61593 1.895561 -1.875263 -1.02744
O 3.31311 5.44234 5.41879 -0.010977 -0.350179 -0.872877
O 6.01325 5.5564 2.77399 0.528704 -0.824815 0.44603
O 7.43958 1.40549 1.7882 0.091002 0.874728 0.569658
O 11.33474 2.21184 0.37491 2.337941 -1.102717 -0.165758
O 7.77233 4.78846 11.64223 -0.74478 -0.672704 -0.966247
O 8.51746 5.8783 2.31423 -0.798211 0.992378 1.522886
O 10.04213 2.07604 5.83216 1.409107 0.363412 0.319426
O 10.30092 4.5252 4.15376 0.048405 0.935293 0.33406
O 8.97815 0.5762 3.69911 -0.819162 1.703494 0.622467
O 8.73961 2.38918 11.53363 0.13341 0.877407 0.158524
O 0.801 7.13736 2.83461 -0.096819 0.051545 0.387396
O 10.94883 6.15247 0.91616 0.652168 -0.028593 1.168249
O 5.44766 7.89056 2.56082 -0.476776 2.612096 0.55689
O 0.65632 11.4365 3.64254 0.020582 -0.573147 -0.050938
O 2.83837 9.01877 2.31218 -0.10842 0.062667 0.644876
O 2.87405 9.56278 5.47248 0.724016 -0.285206 -0.647865
O 6.28866 0.1363 4.77866 0.74808 0.314524 -0.462946
O 11.28386 11.27626 0.03191 1.095729 2.512852 1.092749
O 10.18544 10.53715 2.63224 0.089205 0.860327 -1.978383
O 6.09389 6.14468 5.19942 -0.104068 -0.484718 0.545539
O 11.19408 6.98123 4.94083 -1.841774 -0.800066 -2.568462
O 6.80832 8.67487 4.83652 0.096218 0.525719 0.613942
O 9.22188 8.19242 3.7685 2.276267 0.445907 -1.912729
O 4.97085 2.45384 4.68285 -0.555194 1.031218 -0.560731
O 1.42083 3.36924 6.20204 1.065447 0.843949 -2.002263
O 5.64255 3.24225 7.23607 -0.862063 0.774947 0.096329
O 2.93023 0.89428 5.66591 0.896251 0.781189 0.16443
O 1.1688 2.97865 10.13962 0.14551 1.39852 -0.568473
O 2.87078 3.87247 8.40416 0.620178 -0.446914 0.233158
O 4.88495 1.53189 10.12905 -0.838456 1.742084 -1.402412
O 2.46734 5.71641 10.66535 0.718479 0.154324 -0.042268
O 5.13308 4.54754 9.83928 -1.140002 -0.704944 -0.093489
O 3.07825 6.46745 7.78013 -0.466333 0.751991 0.203566
O 7.89667 1.32979 7.37179 1.343393 -0.07227 0.126767
O 8.08634 4.76194 6.34697 -1.156841 0.878321 0.711028
O 10.39362 1.44985 9.40745 0.151311 -2.44503 -1.968159
O 11.59249 5.01762 8.49026 1.094493 0.26277 -0.185709
O 8.97501 4.51794 8.86315 -1.743534 0.895041 -0.300159
O 7.2482 11.52691 9.7963 -0.471363 0.571228 -0.361711
O 6.29006 6.07371 8.19708 -0.364732 -1.198131 0.914538
O 4.18682 11.63103 7.70311 0.199059 1.158258 -0.040957
O 2.86104 8.41162 11.70865 -0.982746 0.146622 0.379748
O 2.22439 10.75225 10.52926 2.15625 1.35974 -0.449131
O 2.61552 9.15102 8.37944 0.600806 -1.109759 0.825651
O 5.76096 0.10799 0.54009 -0.285813 -1.211288 0.564461
O 11.63612 8.49713 7.43482 0.645673 1.09405 0.13392
O 11.42543 11.87707 6.45191 1.246461 -1.563247 1.061241
O 10.98312 7.56678 10.47803 -0.815195 -1.351678 0.509745
O 5.35714 9.16296 0.05194 -0.019146 0.643998 -0.39227
O 6.81684 9.17086 7.38027 0.614276 -0.28388 -1.049874
O 8.05965 7.20412 10.32787 -0.428101 1.178443 1.548474
O 0.10574 10.93131 8.89464 0.341291 0.151892 -0.434751
O 9.81555 9.93793 10.37857 0.595375 1.451008 0.910652
O 8.98877 7.46163 7.69069 -0.192205 0.243222 -2.008208
Na 2.77339 10.89977 3.66944 0.338848 0.427908 0.109386
Na 0.8564 6.92495 8.86673 -0.148731 0.097776 -0.013386
Na 8.07875 1.94712 9.55327 0.301809 -0.267531 -0.342882
Na 6.60338 11.30885 7.57952 -0.189295 0.615122 -0.15252
174
energy=-940.845759 config_type=nep2xyz pbc="T T T" virial="-11.79381 4.88076 9.47329 4.88076 -13.6946 -0.35796 9.47329 -0.35796 -17.62052" Lattice="11.710095406 0.0 0.0 0.0 11.710095406 0.0 0.0 0.0 11.710095406" volume=1605.762458705419 Properties=species:S:1:pos:R:3:force:R:3
H 3.70056 2.73594 3.10713 1.579285 0.201452 -0.526118
H 1.95378 3.09582 1.32964 -0.933598 0.183707 0.053681
H 0.75273 3.90664 2.06023 0.168031 -0.58418 -0.713075
H 3.9378 2.7417 4.49454 0.672283 -0.228734 1.207056
H 2.77741 1.29667 1.23732 1.091539 0.287543 0.232265
H 0.61337 4.86174 4.29873 -1.876363 0.253122 -1.056915
H 2.69081 11.11488 3.37415 -0.079838 0.02569 -0.008047
H 1.36946 11.17735 2.56865 -0.537227 -0.671985 0.184168
H 5.24305 1.76861 1.18456 0.447301 0.259105 -0.029781
H 3.39845 2.34368 0.22445 0.001008 -0.28744 -0.839929
H 11.6297 2.89254 0.21121 -0.199202 -0.258318 -0.536683
H 10.71721 1.71669 11.519 -0.411767 -0.414878 0.331243
H 6.6205 4.62213 2.12119 -0.327375 -0.100065 -0.257639
H 10.4038 3.89093 3.07191 0.551839 0.612002 0.173413
H 9.85533 2.70589 3.78367 -0.451151 0.294216 -0.336059
H 10.79806 5.55842 5.17442 -0.547644 -0.477606 0.707498
H 7.77824 4.54592 3.10717 0.269859 0.058004 -0.015229
H 6.1943 3.44265 0.65299 -0.631489 1.088497 0.232688
H 6.54467 1.34261 0.40856 -0.092692 0.217852 0.585596
H 6.90312 4.57097 11.64925 -0.177451 0.557214 0.180643
H 10.35892 0.07406 4.922 0.168028 1.281542 0.397448
H 10.0624 1.32154 2.10809 0.136813 -1.191003 -0.665246
H 9.68496 4.30905 11.48897 -0.46921 0.286425 0.087427
H 10.92052 5.76222 6.71882 0.985866 0.433055 1.443406
H 10.73947 11.56008 2.11475 -0.226235 0.437953 -0.391448
H 0.20883 5.84909 2.8736 -0.103454 0.37226 -0.028763
H 4.19436 6.57567 2.04141 0.123565 -0.271391 0.464768
H 1.43818 7.30361 3.50891 -0.606685 0.427814 -1.319796
H 11.54571 7.07965 1.73677 0.177109 0.093809 -0.08071
H 0.37423 9.21395 2.73828 0.941564 -1.525591 0.530147
H 6.21816 7.98959 5.6849 -0.080325 1.015784 -0.176258
H 0.84991 10.14072 0.91249 -0.395038 0.02959 0.891103
H 3.55738 7.1483 3.35326 -0.034989 -0.13753 0.168109
H 4.08873 6.89358 11.66214 -0.57005 0.172668 0.07646
H 1.95918 6.61666 4.71211 0.561632 0.736589 0.100914
H 2.03592 9.92665 11.62861 -0.462936 -0.445655 -0.03497
H 7.33277 8.67371 3.81302 -0.149939 0.044409 -0.019467
H 5.99277 8.12304 3.09492 -0.071442 -0.207054 0.42917
H 4.61141 5.48783 0.22413 0.364564 -0.434993 0.512047
H 0.84008 8.53108 5.57566 0.427796 -0.633992 -0.500498
H 2.89968 9.17108 4.83062 -0.383426 -0.059276 0.307592
H 4.98094 10.19614 5.42234 -0.166324 -0.652587 0.59605
H 9.48361 5.27568 0.96282 -0.424062 0.08507 0.217265
H 10.87764 10.58172 4.00752 0.111144 0.064295 -0.582039
H 8.60187 11.36259 3.82871 1.686824 -0.355799 0.869871
H 7.12574 10.97551 4.03216 1.151099 0.576768 -1.041104
H 8.48805 6.72574 3.35989 -0.096679 -0.345496 -0.571775
H 9.75371 5.80929 3.36553 1.01542 -0.375992 0.57832
H 9.43223 7.61736 5.18359 -0.104045 -0.348249 0.293896
H 10.47652 9.32013 2.02773 -0.420298 0.087343 0.37075
H 9.63771 8.14435 2.54157 -0.073103 -2.388402 1.580764
H 9.78688 9.08679 5.22753 -0.659039 0.430079 -0.215442
H 3.83786 3.17118 6.70011 0.0392 -1.012903 -0.255391
H 2.98975 1.76714 6.69999 0.222972 0.236933 -0.296054
H 2.51469 4.62824 9.7004 0.214226 -0.241635 -0.095416
H 3.21947 5.03762 6.21894 -0.940569 -0.43579 -0.484821
H 1.402 5.55124 6.32763 0.39275 -1.033185 -1.006951
H 2.55396 1.86907 9.65503 -1.193533 -0.723614 -0.163609
H 4.04968 2.07914 9.75629 0.126822 0.316357 0.333253
H 6.28478 1.57641 8.48553 -0.802592 0.592409 1.860683
H 4.13694 5.15585 7.50682 0.12454 0.007071 -0.219244
H 6.48153 2.77735 9.58624 -0.329761 -0.557635 -0.416106
H 5.05988 1.39205 6.72116 0.441108 -0.521315 0.12422
H 11.68681 5.15869 8.37745 -0.45075 -0.197045 0.003143
H 0.23013 2.57888 7.31023 1.48089 0.726893 -1.451938
H 1.2343 3.41349 6.11545 -0.537128 -0.129537 0.922269
H 5.48429 5.64867 8.86278 -0.273554 1.349819 0.671593
H 1.54064 5.72618 9.1213 -0.0205 0.460266 -0.17646
H 1.26727 0.03876 10.19204 -0.238087 0.22974 -0.319452
H 0.30909 1.17381 9.82305 -1.092163 0.736994 0.377983
H 8.45475 5.18318 5.82806 -0.744436 -0.599103 0.563
H 7.37624 1.61698 6.21594 -0.115503 0.606988 -0.099965
H 7.56749 3.19997 5.91156 0.667119 -1.574954 -0.147743
H 9.46243 2.05848 5.80559 0.268869 -0.244256 -0.626564
H 7.17351 5.93473 6.12054 -0.815619 0.875496 0.355419
H 7.35422 4.80266 8.11412 -0.63769 -0.362021 1.853098
H 10.01511 2.19329 8.68761 0.787878 0.284237 -0.484838
H 11.09663 2.97424 9.38691 0.776754 0.65687 2.825459
H 7.10506 0.55488 10.31141 0.582166 0.503775 -0.233923
H 11.09978 2.14721 5.57227 -1.576978 -0.829641 -0.394275
H 7.62085 5.598 9.45297 -1.267474 -1.12175 -0.372576
H 1.20199 0.63304 5.6948 0.660041 -0.222843 0.455803
H 8.55113 11.09622 8.17606 0.030831 0.314938 -0.208206
H 4.06412 6.13954 9.38778 -1.045633 -0.17327 0.39088
H 0.14195 7.05049 9.92525 0.024799 -0.076728 -0.826072
H 1.44716 0.42277 7.17794 0.167516 -0.391646 -0.291549
H 5.87639 11.66581 6.66426 -0.047524 -0.175143 -0.020028
H 5.49573 7.40999 6.97069 0.506622 -0.363964 -1.251606
H 2.58746 10.49477 5.75719 -0.03146 -0.27189 -0.275195
H 4.3118 8.69188 10.68001 -0.292792 -0.141197 0.696367
H 3.03897 8.42861 9.82461 0.180806 0.137854 1.433842
H 2.63477 7.71459 7.9758 -0.117281 -1.033916 -0.296037
H 1.87177 9.00509 7.80407 -0.446007 0.319461 -0.416836
H 4.74163 10.44197 9.70861 -0.931547 1.030154 1.114975
H 3.75956 11.01269 10.99482 1.22127 -0.333146 -1.34123
H 5.47042 9.56158 6.81972 0.190726 0.945862 -1.20174
H 5.16577 8.42921 8.88578 0.310657 0.22472 -0.251487
H 0.40523 8.14555 11.02413 0.331915 1.079415 -0.063481
H 11.00348 7.41336 8.3016 -0.010206 -0.097869 0.232219
H 0.39107 9.99552 5.70863 -0.083492 -0.373777 0.573397
H 6.0778 11.4676 10.89428 -0.61532 -0.435776 0.489028
H 11.28305 8.83123 7.78526 -0.700323 -0.267164 0.426936
H 8.1294 8.81665 7.03586 -0.388022 0.141492 -0.747237
H 10.8103 10.15829 10.97918 -1.434337 1.052664 0.171199
H 9.241 8.82265 8.00752 -0.090247 0.166936 0.630298
H 9.01426 11.45815 9.52253 0.545092 -0.155122 1.063124
H 6.4787 9.20066 8.58821 1.409004 -0.018199 0.140095
H 8.75896 7.43272 9.71228 1.286802 0.432573 -0.403343
H 8.40566 6.44956 10.95696 0.446907 0.676609 -0.963644
H 9.71206 9.57339 10.27016 -0.814508 -0.973905 -0.897503
H 6.72345 8.23569 10.93757 0.552455 -0.273515 -0.515437
H 6.36503 7.83054 0.62691 -0.014662 0.118736 0.305166
O 4.48586 2.87265 3.70352 -2.093931 -0.25272 -0.24213
O 3.48393 1.99415 1.12884 -1.284872 -0.361576 0.556047
O 1.02144 3.43578 1.21771 0.857272 0.906416 1.109068
O 2.24957 11.57801 2.64078 0.792221 0.753505 -0.133746
O 11.46966 4.9887 3.66656 2.716357 0.132633 0.967408
O 6.2117 1.97967 1.11943 -0.376601 -0.818739 -0.392244
O 6.84117 4.31049 3.01751 -0.046076 -0.112838 0.95094
O 9.63507 3.30526 3.01703 -0.29014 -1.819391 0.296928
O 11.02324 2.56588 11.19097 0.358908 0.581662 0.355632
O 10.28163 5.58509 6.04444 -0.920847 0.107538 -2.444991
O 10.15112 0.45644 1.59924 0.14666 0.97788 0.939539
O 6.11086 4.48259 0.50298 0.666697 -1.47073 -0.739207
O 7.92753 2.27498 5.6996 -1.816402 1.297205 0.581644
O 9.08097 5.00353 0.12496 0.519177 -0.328587 -0.323567
O 4.34714 6.68724 3.01542 0.356514 0.366751 0.102942
O 0.62417 6.73588 2.1819 -0.192781 -0.55978 -0.087581
O 3.92211 6.11278 0.52033 0.398587 0.162146 -0.783588
O 2.02101 7.52958 4.25218 -0.019345 -1.154681 1.54546
O 0.04738 10.06622 2.53462 -0.433346 1.845935 -0.572891
O 1.07774 10.10881 11.67922 0.482945 0.121527 -1.012384
O 3.18279 10.05314 5.11281 0.794556 0.285601 -0.656522
O 6.9505 8.25649 3.02877 0.196485 -0.186842 -0.27286
O 10.26139 10.85134 4.72163 -0.155463 -1.285534 -0.103731
O 7.76223 11.42895 3.40157 -2.924369 -0.230106 0.310744
O 8.92257 5.96083 2.92572 -0.683671 1.10251 -0.104396
O 9.02068 8.48805 5.08614 0.480271 -0.345629 0.31605
O 9.55672 8.90012 2.0333 0.174506 2.380611 -2.187443
O 0.52493 9.1691 6.22024 -0.401074 0.711474 0.182975
O 3.84315 2.16815 6.44257 -0.502015 0.99249 0.17575
O 2.36151 5.58555 9.71443 0.001283 -0.60114 -0.116692
O 4.0717 4.6985 6.65048 0.872558 0.266257 0.533215
O 1.84261 5.02147 5.58917 -0.898556 1.337649 0.835146
O 3.19237 2.40221 10.1189 1.305973 0.765119 0.085749
O 1.07723 0.72247 9.51607 1.434751 -1.196099 -0.245699
O 6.0254 1.91514 9.44039 0.890573 0.203732 -1.701875
O 0.2487 6.07699 8.28939 0.387534 0.097527 -0.135634
O 0.94269 2.54499 6.54481 -1.243884 0.135061 0.557042
O 7.47986 5.02559 6.05093 2.085098 -0.266974 -0.281758
O 6.99282 0.02303 11.11444 0.04501 -0.062594 0.20658
O 10.83609 2.72732 8.53838 -1.741078 -1.132977 -2.628051
O 7.06255 4.79065 9.10021 1.519647 1.327829 -1.964049
O 10.21864 1.71911 5.2471 2.495276 0.975126 0.635714
O 8.80527 0.17415 8.69619 -0.418833 0.159916 -0.903149
O 0.15289 7.24683 10.86218 -0.175084 -1.16896 1.249123
O 5.94091 0.89191 6.91642 0.272798 0.525062 -0.060484
O 4.85969 6.45271 8.95228 1.503348 -0.83432 -0.994601
O 5.89509 7.18542 6.08373 -0.467199 -0.975712 1.397899
O 1.7531 0.09322 6.30533 -0.907494 0.511577 0.332275
O 5.7906 9.93874 5.93372 -0.256501 -0.061644 0.690721
O 2.70016 8.6481 8.13131 0.511857 0.394504 0.615483
O 3.37606 8.41964 10.79185 0.075137 0.312883 -1.664983
O 4.43014 11.22218 10.29128 -0.118888 -0.608233 0.072501
O 5.53232 9.31276 8.64494 -1.335406 -0.619064 0.013685
O 10.70343 8.36348 8.44931 0.677935 0.301337 -0.933752
O 8.28962 9.14046 7.92633 0.19417 -0.185859 0.048609
O 9.82354 10.34298 10.81105 2.422057 -0.153968 0.927384
O 8.0679 7.00348 10.18484 -1.20206 -1.265529 1.423859
O 6.15931 8.49327 11.66659 -0.49555 0.210814 0.283003
Na 5.54697 5.06841 4.87735 -0.451638 0.190886 -0.830282
Na 6.67078 2.07517 3.57473 0.297328 0.077229 -0.457033
Na 1.77406 5.77778 0.1633 -0.583141 0.461476 0.326349
Na 8.43755 10.61711 1.21356 -0.257775 0.000915 -0.304398
174
energy=-940.01298866 config_type=nep2xyz pbc="T T T" virial="-10.06868 -0.49164 2.74728 -0.49164 -8.30249 4.0964 2.74728 4.0964 4.49532" Lattice="11.747595787 0.0 0.0 0.0 11.747595787 0.0 0.0 0.0 11.747595787" volume=1621.2387837676308 Properties=species:S:1:pos:R:3:force:R:3
H 5.90054 2.11145 3.66009 -0.282895 -0.675704 -0.608037
H 1.63313 4.22265 0.90847 1.022932 1.260348 -0.366618
H 4.30767 0.92441 1.19007 0.605925 1.291505 -0.526476
H 5.55076 0.97313 4.70861 -0.843497 0.274443 -0.851717
H 6.35101 5.7956 1.01818 0.575556 -0.861619 -0.000287
H 2.10479 5.55926 2.71257 0.044277 0.021266 -1.640112
H 1.0993 1.89242 0.34878 -0.525869 0.667167 0.512754
H 2.47947 2.14149 0.89545 -0.795729 0.927049 0.50621
H 5.18436 2.29056 1.09848 0.224429 -0.132307 0.617156
H 1.4352 5.68096 0.35264 0.279113 -0.532126 0.063688
H 1.49781 5.22774 4.04033 0.378492 0.238599 0.055467
H 2.88207 0.83103 5.78399 -0.728717 0.145236 0.48983
H 10.60833 3.1348 4.43494 0.651587 0.213425 0.297611
H 7.20182 3.31024 1.6588 -0.403577 -0.09483 -0.839109
H 6.49673 11.34038 3.11241 -0.190105 0.716961 0.195035
H 7.22578 4.01741 2.98116 -0.777983 -0.250424 0.277498
H 10.10539 2.12796 3.22423 -0.359067 -0.280092 -0.096856
H 9.23136 0.52733 1.6693 -0.550745 0.153772 0.054066
H 8.5685 2.32096 2.53242 -0.602427 0.026105 -0.049211
H 10.8816 4.80062 3.36407 0.276652 0.171423 0.94904
H 10.3119 3.95439 2.16098 0.243537 0.552094 0.128363
H 10.26611 2.65583 10.63964 -0.151289 1.367059 -0.53098
H 8.58209 0.21005 0.30462 -0.072716 -0.483162 -0.155843
H 8.50853 5.30619 3.4756 0.901855 0.157809 -0.527632
H 0.38993 1.06789 6.731 0.627917 0.037727 0.249241
H 8.57939 1.69882 6.13325 -0.578764 -0.157455 -0.89126
H 7.58792 10.94173 2.02664 -0.906346 -0.502343 0.929264
H 11.00426 1.42646 5.71226 0.064237 0.116787 0.150544
H 8.73093 1.80276 4.57756 -0.329057 -0.430625 0.857701
H 10.88952 4.79732 10.48484 1.108352 1.09512 0.128788
H 3.47922 0.67352 4.44376 1.804408 -0.312832 -1.281617
H 5.28601 6.89711 1.35299 0.906356 0.031223 -0.932524
H 5.07255 10.63339 1.46206 0.839499 -0.185487 0.048834
H 3.97477 10.42745 0.34726 -0.305922 -0.916446 -2.674543
H 0.71658 8.04041 2.54249 -0.17624 -0.425101 -0.344132
H 1.12605 9.29145 3.25887 0.091404 -1.057599 0.413638
H 2.67673 10.61649 2.40661 -1.31463 0.284925 -0.737745
H 3.38832 10.22241 4.55346 -0.395542 0.19003 1.369089
H 4.86647 9.90867 4.12643 0.80757 0.176815 0.631857
H 4.04389 8.62286 1.4185 0.103666 0.570907 0.466285
H 0.12574 6.2442 5.61962 -0.122468 -0.489176 -0.096915
H 6.08294 7.85152 4.75013 -0.055493 -1.02101 0.536384
H 1.18495 10.44894 1.63683 1.076711 0.251705 0.623505
H 10.60772 11.44317 5.16281 0.24193 -0.505448 -0.266258
H 10.1402 11.22189 3.73927 -0.826677 0.385834 -0.725582
H 6.28902 6.2683 4.50153 -0.093971 0.551129 -0.039593
H 10.88567 6.62067 0.09041 0.319771 -0.710339 -0.642927
H 7.46926 7.76902 1.10994 -0.025928 0.290204 0.303067
H 10.54284 6.35578 1.58678 -0.049452 -0.78806 0.240555
H 8.03286 7.29798 4.04384 -0.205686 -0.733672 0.187442
H 8.56129 8.42294 3.25141 -0.265123 0.422111 -1.083203
H 8.97124 7.90774 0.85515 -0.405761 0.212372 0.478094
H 7.11693 9.86679 11.47439 1.677471 -0.366668 2.070481
H 10.45447 9.82277 1.50819 0.473388 0.524019 -0.874588
H 7.41727 9.90364 4.8324 -0.453551 -0.222939 0.189897
H 10.90424 8.60888 0.83333 -0.271503 -2.897416 -0.296303
H 6.29756 10.75252 5.59551 0.007447 -0.695161 -0.054905
H 0.93504 4.2604 5.83286 0.714477 -0.014029 0.11338
H 4.17894 5.9364 5.83616 1.056753 0.283588 -0.359993
H 1.68613 3.80822 7.15167 0.430141 0.134567 -1.07128
H 3.79426 1.78092 10.43828 -1.255647 -1.506681 -0.368697
H 5.03708 4.26271 9.57078 -0.686847 0.147541 0.343057
H 3.43579 5.02929 10.83202 -0.271759 0.094416 1.113663
H 1.14692 2.67351 9.49394 0.511229 0.735416 -0.480125
H 0.78255 4.21034 9.40599 0.990928 -0.776891 -0.07517
H 2.8502 4.27524 9.64108 -0.494624 -0.352003 -0.256298
H 5.12468 2.84186 7.91042 -0.068695 0.239922 0.374428
H 5.18531 3.65656 6.00333 -0.701575 0.073106 -0.235803
H 2.88903 5.4 6.29842 -0.413764 0.202999 0.36766
H 11.52263 0.37431 10.93597 0.739683 -2.652525 -1.267824
H 4.90876 1.74717 6.81626 0.009275 0.127097 -0.225237
H 2.78861 1.88737 7.63871 0.523703 0.715055 -0.172799
H 2.5191 0.54017 8.20513 -0.030638 -0.068627 0.086031
H 6.32829 4.25389 8.80091 0.278527 0.20268 -0.068382
H 10.49616 4.75479 5.5194 0.395821 0.386109 -0.200837
H 6.00422 4.02435 4.7069 -1.846443 0.878873 0.794592
H 8.34627 4.13588 0.02056 -0.145718 0.013679 -0.268018
H 8.21386 1.28464 9.83467 -0.30216 0.127186 -0.258484
H 10.54521 1.08492 0.06207 -0.068361 -0.041127 0.241865
H 9.57674 3.54211 9.53243 -0.886899 -0.107824 -1.729828
H 8.83367 3.58358 6.84369 0.016967 0.454477 0.214485
H 6.97846 3.75197 11.19388 -0.967169 -0.741766 -1.820636
H 8.01015 5.13989 5.1329 0.891712 -0.198993 0.899694
H 7.66944 5.13429 6.65094 -0.159632 0.215437 0.960153
H 9.65039 2.47888 7.62954 0.432593 -0.213498 -0.293365
H 6.41131 0.60073 6.22451 1.357076 0.576903 0.361637
H 3.34237 7.44589 0.85857 0.003827 -0.237906 0.442408
H 1.49098 6.99293 5.88245 0.412069 -0.005279 0.179499
H 3.50526 0.26634 10.45312 0.477483 -1.09212 0.356247
H 1.81653 9.39746 6.24803 -1.364294 0.544468 0.298167
H 3.31357 9.61313 6.59192 0.158615 -0.227966 0.449129
H 1.86593 9.88143 10.7913 -0.70654 0.569192 0.213434
H 3.37464 6.45431 9.13136 -0.204994 -0.673498 -0.095443
H 2.93712 9.06834 10.26631 1.119469 -1.294782 -1.656131
H 3.22139 7.43866 7.87419 0.318189 -0.405529 1.428295
H 1.26355 7.80865 8.79698 -0.656412 -0.009338 0.121454
H 4.82842 7.60469 9.51289 0.066649 -0.231852 0.505205
H 5.03765 11.01541 7.22912 -0.907928 -0.128268 0.32957
H 0.05631 9.56764 9.92775 -0.072198 -0.50126 -1.38501
H 5.86038 6.99738 10.70159 -0.645727 0.250665 -0.133194
H 7.59288 11.59798 10.037 0.111181 0.111547 0.183228
H 6.31496 9.02401 10.48432 -0.039893 0.355383 -0.167562
H 11.59351 6.10019 9.7616 -0.133824 0.373774 -0.062071
H 10.92916 10.72898 7.10223 0.237661 -0.356933 -0.459597
H 0.05099 9.93182 11.34674 -0.460145 0.371489 0.828054
H 6.0167 5.79595 7.18877 -1.7298 0.502065 -1.850993
H 5.31293 9.60443 7.46784 0.105917 -0.825234 0.195498
H 0.20029 7.87143 7.70933 -0.276623 -0.157385 0.378838
H 8.7219 6.91868 6.97294 0.351462 -0.130885 -0.069924
H 6.35323 6.38812 8.55732 -0.277271 0.895607 0.844184
H 10.17181 9.53069 7.66948 1.100082 -0.336146 -1.378314
H 8.09243 8.01828 7.77739 0.398873 0.106586 -0.085119
O 5.28478 1.34929 3.78521 0.554998 0.032917 1.146323
O 2.648 0.84978 4.83785 -1.278316 0.531215 0.195682
O 2.36774 5.40244 3.61241 -0.744771 -0.480864 1.326423
O 6.07439 6.67016 0.75732 -1.157943 0.72933 0.584282
O 1.52184 2.44522 1.0556 1.478471 -1.537168 -0.715672
O 4.3801 1.85512 0.80195 -1.000778 -1.222701 0.162958
O 2.11882 5.12058 0.78009 -1.290399 -0.726209 0.134973
O 10.66361 2.19213 4.22052 1.41262 -0.177399 1.591563
O 6.80526 3.15095 2.52516 0.690451 0.332508 0.568093
O 9.45605 2.01754 2.30677 -0.063324 -0.155511 -1.911299
O 8.8694 11.50633 1.12949 0.583926 0.43984 0.113749
O 11.29298 4.90797 4.97216 -0.038556 -0.362271 0.267128
O 7.57688 5.21465 3.64139 -0.530444 0.330302 0.93021
O 6.88218 10.57795 2.67735 0.756113 0.053631 -1.320565
O 8.13662 1.44681 5.28459 0.594993 0.345444 0.195482
O 4.14892 10.70281 1.21305 -0.010448 1.136971 2.585167
O 5.74916 6.94154 4.98213 0.127618 0.858503 -0.567347
O 1.01394 8.29693 3.41916 0.015067 1.726931 -0.149025
O 3.82784 7.70903 1.66243 -0.459644 -0.107045 -0.510578
O 3.95869 9.99208 3.84158 -0.21295 -0.604124 -1.7804
O 0.54388 7.06242 6.01384 -0.539628 0.583173 0.215284
O 1.69534 10.88321 2.36796 0.018916 -0.487332 -0.004968
O 10.7179 4.82534 2.39633 -0.503285 -0.559299 -0.945722
O 10.52903 7.02802 0.88467 -0.096051 0.782974 0.051987
O 8.2248 8.37483 1.30067 0.266805 -0.518882 -0.604266
O 8.46985 8.14368 4.16401 0.868385 0.158465 0.454327
O 10.72652 10.85313 4.38399 0.527119 -0.034734 0.630633
O 11.18592 9.49526 0.93043 -0.171828 2.546301 1.846468
O 6.64077 9.82817 5.41721 -0.197947 0.356235 -0.097425
O 1.876 4.05082 6.19926 -1.576608 -0.271998 0.631132
O 3.11838 1.07672 10.15856 0.61736 2.383411 0.036315
O 1.46381 3.52783 9.10774 -1.538738 0.041317 0.566566
O 3.55802 4.89111 9.89809 0.424259 0.48982 -0.508061
O 4.62435 2.6886 7.08641 0.199377 -0.810605 0.375234
O 11.26053 1.23056 11.17287 -0.677974 2.510157 1.046628
O 5.81691 3.71062 9.42391 0.783987 -0.993178 0.046033
O 2.27455 1.10045 7.45368 -0.441335 -0.677207 0.011682
O 5.13417 4.25771 5.19339 2.370564 -0.869078 -0.97186
O 11.19782 0.93946 6.56813 -0.744728 0.150903 -0.400493
O 9.93654 3.58436 10.40179 0.827705 -1.333874 1.899185
O 8.84134 2.99842 7.63904 0.065026 -0.374914 0.542721
O 7.38791 4.21388 0.14948 1.204227 0.785216 1.547768
O 8.46008 5.09793 6.11322 -0.315973 -0.134778 -2.205252
O 5.50247 0.3431 6.21372 -1.014662 0.03435 -0.072585
O 3.4077 6.24336 6.31757 -0.708841 -0.459529 -0.028674
O 2.66663 9.01037 6.14455 1.167018 -0.198419 -0.328046
O 2.75215 9.55579 11.04003 0.451206 0.467633 1.321343
O 3.27315 7.38729 8.88557 -0.37101 1.125004 -1.429442
O 4.5957 10.19849 7.70728 0.490202 0.938559 -0.841978
O 0.40079 10.2545 10.49747 -0.087445 0.717238 -0.274692
O 5.74896 7.51294 9.86753 0.736377 -0.134568 -0.28322
O 6.52276 9.9449 10.77124 -1.463138 0.319282 -1.830263
O 8.31153 0.4577 10.31029 -0.064123 -0.28275 0.069837
O 0.28317 7.90186 8.69143 1.134407 -0.275805 0.148951
O 11.63366 5.534 10.55306 -0.853348 -1.001336 -0.290029
O 10.85679 9.75679 6.96989 -1.227091 0.865523 1.560819
O 6.58535 5.71372 7.91634 1.52896 -0.924712 0.872875
O 8.9663 7.71965 7.47151 -0.658264 -0.05681 0.116649
Na 3.26005 3.30502 4.14629 0.460945 -0.052639 0.54818
Na 0.83733 1.15962 3.14372 -0.087592 -0.193604 0.337838
Na 3.19982 7.56925 4.16283 0.224346 0.173635 0.100778
Na 10.75732 8.52322 4.99376 -0.1768 0.073942 0.276463
174
energy=-940.30369085 config_type=nep2xyz pbc="T T T" virial="-19.09007 0.83936 1.8844 0.83936 -12.74495 -2.5237 1.8844 -2.5237 -15.64505" Lattice="11.784694672 0.0 0.0 0.0 11.784694672 0.0 0.0 0.0 11.784694672" volume=1636.6469473610277 Properties=species:S:1:pos:R:3:force:R:3
H 3.9296 4.11409 3.73295 0.770282 -0.16003 -0.647545
H 4.02094 2.17793 3.24298 -0.070889 0.063272 0.75082
H 1.74033 0.9047 5.02924 0.049916 -0.668114 0.055036
H 4.04788 1.35557 2.0333 -0.899204 0.243643 -0.321057
H 0.37399 0.80729 4.25247 0.527391 -0.776362 0.411523
H 3.81924 5.557 3.41882 1.292996 -0.945711 -1.254385
H 0.81252 1.47291 0.5789 0.74336 0.157294 -0.650926
H 6.20669 6.58105 2.84932 -0.010516 0.084445 0.646307
H 11.4412 1.61136 1.51577 0.114451 -0.563682 0.607018
H 5.93751 5.96187 4.28832 0.434799 0.425244 -0.20515
H 11.48167 4.82389 3.8687 -0.138091 -0.492131 -0.391186
H 0.11432 11.03403 1.14955 -0.121454 0.122613 0.728748
H 10.6635 2.68163 3.55506 0.987505 1.013439 0.66591
H 9.32383 2.06249 3.44761 0.471378 -0.303358 -0.185108
H 11.30796 5.10988 5.29479 -0.26646 -0.175557 0.740888
H 6.01129 2.51414 0.78059 0.085455 -0.635776 -1.745434
H 5.48603 3.68475 1.67425 0.348893 -0.345231 0.180129
H 7.25056 2.94858 2.87978 0.356899 -0.463752 0.778889
H 8.53781 5.12373 1.20519 0.519886 -0.506431 -0.312698
H 7.39491 2.08277 4.2013 -0.42296 -1.310459 0.733411
H 9.37071 11.27199 0.45141 -1.420587 0.794045 0.054369
H 10.00506 11.58995 3.74553 0.42083 -0.105663 0.025352
H 5.69718 3.31471 5.22683 -0.579671 0.635427 -0.031986
H 5.59732 1.86707 5.16164 0.714506 -1.641559 -0.08565
H 0.89864 5.75501 2.0012 0.24088 1.021098 -0.19459
H 3.77314 9.77052 0.40175 -0.245451 -0.157692 -0.332493
H 1.47414 7.47983 0.56108 0.230269 -0.062156 0.654014
H 2.57159 8.18218 1.33213 -0.682186 -0.687207 0.311858
H 4.40253 9.5818 4.22049 -0.688527 0.495272 0.143664
H 2.97975 9.57823 4.90678 0.408648 0.550445 -0.872892
H 3.61573 7.80952 4.15001 0.750479 1.557707 -0.499423
H 5.58818 10.90043 2.49614 1.408809 0.154407 -0.08195
H 11.51833 7.64279 3.76171 -1.096636 -0.448925 -0.425932
H 5.7269 8.21065 4.6513 0.575037 -0.95926 0.047655
H 0.59059 8.77216 2.97522 -0.379455 -0.775592 0.099397
H 2.3137 10.28804 0.07704 0.762639 -0.104498 0.323616
H 11.58532 4.75061 1.51211 0.199022 0.067085 -0.303452
H 6.68816 11.74343 4.32866 0.569049 0.587984 0.527978
H 11.18711 9.66737 1.02939 0.903182 -0.048953 0.471623
H 7.15051 0.29841 5.82482 -0.260871 -0.28285 1.024201
H 7.55835 8.30343 2.92032 0.179897 -0.713819 -0.158738
H 7.62286 6.26328 1.33397 -1.261033 1.61703 -0.716976
H 9.3116 7.81619 3.23675 0.209349 -0.773804 0.489375
H 9.4267 8.01258 4.70383 -0.133949 -0.723757 0.332467
H 7.69352 9.69673 2.53675 0.563712 0.372462 -0.453624
H 10.78656 10.26315 3.27453 -0.915024 1.168805 0.778804
H 8.15363 8.89907 0.4453 -0.032448 -0.522551 -0.567409
H 6.65018 0.14607 1.96334 0.168187 -0.971632 0.286549
H 9.1806 9.83993 5.05891 0.050148 1.010233 -0.840739
H 7.89556 9.06896 5.61779 0.213236 0.266236 -0.297015
H 10.13291 8.2859 11.18756 1.511468 -0.266234 0.715366
H 4.17982 1.6996 11.43714 0.884752 0.233255 -0.22061
H 2.92178 0.89517 11.23903 0.035614 0.880262 1.117082
H 1.68244 3.88563 10.29627 -0.153353 -0.299135 -0.09769
H 2.12847 2.0853 6.51767 1.221683 -0.06589 -0.512608
H 3.65439 1.81837 5.66472 -1.33759 0.875463 0.800719
H 3.59294 4.23639 8.86029 -0.088374 -0.161165 0.169995
H 2.57738 5.23554 8.38042 -0.490531 1.516894 -0.59742
H 0.72161 3.56953 6.99194 -0.337249 1.61589 -0.820303
H 1.31782 2.94526 8.19702 0.859825 0.536275 1.13252
H 4.12839 5.29567 10.74228 -0.011387 -0.17155 0.158373
H 0.28586 3.37733 10.88653 0.572729 0.469546 0.311722
H 5.6231 3.47174 9.67319 -0.431873 1.29265 -0.231029
H 6.06627 5.04904 9.55238 -0.974493 -0.860694 -0.487085
H 5.81705 0.61588 10.4894 -0.379196 0.565803 -0.357662
H 3.53779 0.17891 7.69252 -0.498185 -0.169934 -0.17895
H 5.50375 5.22086 6.74568 0.234954 -0.308471 0.26519
H 6.82503 1.85531 10.57663 0.500903 0.18863 0.226544
H 9.22583 5.14577 7.56434 -0.182261 0.292959 -0.112467
H 0.00652 0.70879 7.3007 0.671162 0.261484 0.354394
H 7.03194 4.87771 6.43419 1.236513 -0.455861 0.981876
H 10.31061 4.63691 10.8351 0.169849 0.439029 0.287491
H 9.73692 3.35486 11.36357 0.737556 0.454629 0.524135
H 9.88257 1.39167 7.83674 0.258176 -0.309205 -0.378771
H 8.8662 2.1352 9.66002 -0.151246 0.272336 0.60247
H 8.29811 1.41327 7.88189 1.163493 0.844097 -0.346231
H 8.85534 1.3254 10.98303 -0.014121 -1.095112 0.740237
H 8.95736 3.76148 7.01059 -0.314577 0.235036 0.006702
H 7.08258 6.19352 8.06237 0.064535 -0.226072 -1.350164
H 6.65415 7.35688 8.93386 -1.211371 1.645587 -0.255195
H 5.32403 6.2813 0.81206 -0.613831 -0.514213 -0.09761
H 5.87784 7.61949 0.38995 0.031158 -0.236406 0.836708
H 5.58909 9.10852 5.92689 -0.519609 -0.375783 1.80099
H 2.27399 11.39009 9.53561 -1.170253 -0.490531 0.767617
H 0.77179 11.14492 10.22429 -1.3822 -0.103189 -0.910939
H 2.28832 7.19656 4.2361 -1.507263 0.172461 -0.143473
H 3.11874 5.99695 11.72231 0.411624 0.264043 -0.039353
H 4.30747 11.13483 8.72801 0.287166 -0.2154 0.668746
H 1.19548 6.37671 7.12504 0.127348 0.205791 -0.102161
H 1.58378 8.71633 10.07463 -0.354228 0.381134 0.380885
H 2.13503 8.45936 6.77574 0.27806 -0.450955 0.476689
H 2.60521 9.92266 7.1595 0.12818 0.031619 0.142527
H 3.98806 8.86603 10.38786 -0.021477 -0.434129 0.372206
H 5.21119 9.78883 10.64388 -0.04597 0.277446 -0.317287
H 2.07809 7.59288 9.21929 0.496002 -0.397326 0.007153
H 3.03412 6.46421 6.83098 -0.744069 0.705691 1.084364
H 5.36515 9.29819 8.41329 -0.032225 0.384052 0.268314
H 8.88406 6.31383 9.77462 1.330175 -0.119227 -0.465674
H 4.5689 7.98873 8.15956 0.436531 0.290215 -0.337037
H 11.02158 11.3536 8.37245 0.436129 0.759771 -0.383263
H 11.48744 6.84264 6.84883 -0.021949 0.193459 0.259431
H 8.34508 11.0211 11.21188 -0.774733 -0.261655 -0.883795
H 6.3176 0.0363 8.32386 -1.413678 0.149069 1.011845
H 11.03837 9.21617 10.47127 0.782345 -0.242499 0.560999
H 10.48027 6.67335 9.76838 -1.139021 -0.639564 -0.345543
H 8.21337 8.94249 10.6246 -0.310338 0.670483 -0.055133
H 7.55838 11.18486 7.89443 -0.805977 0.734217 -0.364286
H 10.846 9.42266 8.31057 0.922305 -0.456346 0.544633
H 9.76441 10.39235 9.51374 1.361643 0.325953 0.079445
H 9.94445 8.82927 7.38117 -1.689498 -0.390992 -1.132089
H 7.64502 9.37317 8.89015 0.2498 0.216993 -0.007014
H 6.60026 10.73355 9.64651 -1.535562 0.436737 0.226086
O 4.32163 4.70205 3.04548 -2.361409 1.467626 1.785221
O 3.39946 1.68784 2.68969 0.953769 -0.325613 -0.118072
O 0.43684 1.04498 1.34795 -0.570597 0.360232 -0.111716
O 1.09283 0.24461 4.63799 -1.037239 0.665 -0.922021
O 5.03807 2.62564 5.02847 -0.029393 0.883462 -0.002632
O 6.44205 6.65209 3.80759 -0.647686 0.005817 -0.235537
O 3.20853 6.97345 4.26451 0.461298 -2.236046 0.431363
O 1.25826 3.39899 11.03791 -0.244003 0.043795 -0.173655
O 10.29475 1.84033 3.32971 -1.251378 -0.728883 -0.492255
O 10.94708 4.493 4.61816 0.516062 0.601569 -0.480354
O 6.03232 2.87302 1.65447 -0.333821 0.83966 1.467452
O 7.80787 2.77922 3.70496 0.260191 1.98797 -1.807439
O 7.98683 5.57019 1.84804 1.405691 -1.742618 0.857398
O 8.44674 11.58696 0.19954 2.336102 -0.685357 0.616799
O 0.57497 4.86213 2.08854 -0.20555 -0.928534 0.305858
O 2.91077 10.00253 0.82037 -0.500665 0.359586 0.099082
O 3.44268 9.76583 4.01631 -0.013255 -0.429547 0.99071
O 1.97713 7.37667 1.40898 0.125901 0.618528 -1.420658
O 5.81099 9.10142 5.0138 0.656754 0.86983 -1.640972
O 7.02508 0.6614 4.94462 -0.700286 -0.406809 -1.429974
O 0.42881 8.29037 3.80943 1.428345 1.269107 0.684122
O 8.17629 8.8507 2.40731 -1.08675 0.534145 0.277762
O 9.54799 7.28544 4.04159 0.456366 0.450544 -0.843381
O 6.56741 11.0997 2.49414 -1.770924 0.769783 -0.140289
O 10.27774 10.70276 4.03483 0.462187 -0.791772 -0.724789
O 11.68109 10.23824 1.68993 -0.716338 -0.508257 -1.243427
O 11.14279 8.44872 11.18897 -2.526351 0.770128 -0.897517
O 3.34186 1.54443 0.09735 -0.698763 -1.153052 -1.169501
O 2.75651 1.51795 5.97179 0.111869 -0.175699 0.489921
O 2.629 4.35395 8.77073 0.37436 -1.241616 0.637757
O 1.69405 11.30053 10.37297 2.409517 0.330159 0.076541
O 5.89533 1.65172 10.76703 -0.355653 -0.515799 0.095888
O 3.88134 5.3874 11.68267 -0.236282 0.152854 -0.161472
O 5.31846 4.38847 9.37993 1.452542 -0.482334 0.745691
O 6.23922 5.30601 6.12978 -1.684893 0.554049 -0.978224
O 0.72938 2.76904 7.47945 -0.361503 -1.985314 -0.503254
O 10.44378 4.04183 11.6107 -1.363504 -0.782517 -0.858014
O 8.59169 2.17194 10.6331 0.321158 1.123468 -1.547983
O 9.11525 2.01591 7.89852 -1.671712 -0.626687 0.544405
O 11.02764 0.179 7.50583 -1.156298 -1.000052 0.183079
O 8.67527 4.70265 6.88929 0.626587 -0.836243 0.264657
O 7.09095 6.53011 8.94297 1.114337 -1.675254 1.736461
O 5.90116 6.97343 1.14624 0.144928 1.065189 -1.02948
O 0.33669 6.14886 6.63363 -0.819383 -0.673365 -0.639332
O 3.41851 11.18227 8.26271 0.127979 0.519365 -0.23422
O 4.76604 8.95113 10.97357 0.044268 0.076008 0.118241
O 2.16711 9.38581 6.47488 -0.282066 0.288413 -0.675814
O 2.17127 7.95908 10.12406 0.170439 -0.04012 -0.497998
O 2.51224 6.77719 7.62421 1.375964 -0.360657 -0.922275
O 5.41308 8.45521 7.94005 -0.608614 -0.360183 -0.054397
O 5.59216 11.11008 9.75804 1.282526 -0.41631 -0.013272
O 8.19642 8.36119 11.404 0.380118 -0.249928 0.644623
O 8.86069 9.1826 5.67942 -0.61637 -0.746938 1.233652
O 6.85778 0.0641 7.53252 2.506551 -0.719455 -0.706133
O 9.79892 5.98119 9.53073 -0.107363 0.63192 0.701043
O 10.83116 8.65845 7.64429 0.951576 0.658361 0.440078
O 10.77983 10.47063 9.55633 -1.320034 -0.267591 -0.153532
O 7.9293 10.20782 9.30092 0.48397 -0.544853 0.011198
Na 2.71816 3.85196 0.99473 -0.37456 -0.661695 0.28175
Na 8.68562 4.86965 3.98518 0.081991 0.803167 0.243298
Na 2.25002 11.26504 2.71484 -0.093007 0.131107 0.079814
Na 11.69981 9.89693 5.74161 0.33264 0.285165 0.139864
