189
energy=-1065.68680844 config_type=nep2xyz pbc="T T T" virial="1.3258739192649847 -1.4965348465660828 -1.5336992058130898 -1.4965348465660828 -0.6570582553519858 -4.19472920899649 -1.5336992058130898 -4.19472920899649 -21.896793020399464" Lattice="12.4 0.0 0.0 0.0 12.4 0.0 0.0 0.0 12.4" volume=1906.6240000000003 Properties=species:S:1:pos:R:3:force:R:3
H 8.41229 2.40742 11.2435 1.024955 0.046352 0.001836
H 11.2701 10.7385 1.52564 -0.749944 0.926192 0.065439
H 9.51387 3.96956 2.43663 -1.373097 -0.674289 -0.646976
H 9.21606 2.68711 0.1497 0.416807 0.205866 0.168367
H 1.24303 10.528 3.08304 0.035813 -0.109221 0.435008
H 5.87588 8.91353 3.32018 -0.49066 -0.063766 -0.591138
H 10.1324 12.37877 5.10305 -0.404606 -0.328005 -1.288886
H 7.23429 6.55224 12.2853 1.99214 0.782483 -0.639762
H 6.12752 8.34456 5.24678 0.179583 -0.551425 -0.109842
H 6.51474 9.10686 9.16496 0.079216 0.148044 0.525286
H 11.7278 12.0697 5.39875 0.846738 -0.942614 -1.265791
H 0.527 4.0967 6.72118 0.850086 1.366237 1.547308
H 2.39101 2.2137 9.00018 -0.255913 -0.681853 0.161132
H 9.88049 0.0222 1.09951 0.519294 0.12637 0.489335
H 3.48559 10.7857 11.4409 -0.796706 -0.834857 0.46598
H 1.72485 5.25178 6.97772 -0.954101 -0.636501 0.389533
H 3.7352 5.66951 5.92978 -0.85204 0.120804 0.228946
H 9.3005 9.58151 4.79923 0.370805 -0.777525 -1.138263
H 10.2935 8.47993 2.34505 -0.442917 0.530021 0.44831
H 10.5318 5.47435 10.9705 -0.115208 -0.38673 -0.630956
H 7.64812 1.01244 4.06301 0.320965 -1.054673 -0.328927
H 8.68661 5.64524 6.44257 0.18275 -0.180777 -0.969084
H 4.78457 4.2051 7.05336 0.341775 -0.466961 1.804456
H 11.5452 9.5831 12.203 0.026549 -0.281493 -0.197823
H 7.24424 9.08903 10.61 -0.078802 0.211987 0.231459
H 7.87488 5.6738 7.68331 -0.684631 0.14893 0.254358
H 12.2947 9.64557 1.64506 -0.336011 -0.461627 0.327768
H 5.72522 5.2742 5.68308 -0.856582 -0.235709 -0.57325
H 11.3395 0.61701 1.70279 -1.184757 -0.54174 -0.614468
H 10.0752 0.82277 11.2062 -0.405595 -0.284799 -0.341862
H 6.11184 5.36871 3.17791 0.394401 0.85033 -0.283296
H 9.7514 4.15219 10.7873 -0.338608 -1.888787 0.940266
H 7.49694 2.469 4.09386 0.06073 0.348634 -0.007149
H 3.90652 3.62016 8.2192 -0.654987 -0.306167 0.513616
H 10.646 11.8009 11.4668 -0.38512 -0.001011 -0.607056
H 7.75897 7.04995 9.52555 0.413195 0.409087 0.048616
H 6.03806 3.63696 5.51606 -0.087617 -0.527296 -0.498652
H 1.4899 4.41198 12.3338 1.018883 -0.148551 -1.102886
H 10.5591 5.68978 6.47531 0.181433 0.230449 0.339912
H 6.19806 2.12529 2.60602 0.847782 -0.313906 0.213686
H 6.28522 9.63075 1.24875 0.287258 -0.289884 -0.275797
H 6.12261 6.05202 9.91208 0.687035 -0.800575 -0.400402
H 8.70312 2.51096 2.39981 0.283913 0.352579 0.625354
H 12.175 7.4084 11.5523 -0.035368 0.410893 0.067846
H 4.04142 3.85793 4.13776 0.611763 1.034376 0.871544
H 8.50538 5.71337 10.1082 -0.418418 0.71408 -1.316222
H 7.06148 10.3188 2.36975 0.197025 0.173506 -0.156977
H 1.13832 0.16493 9.25068 -0.022053 0.423212 0.28642
H 8.07815 0.17021 1.9581 -0.161915 -1.168387 -1.445846
H 0.34657 9.60427 11.2264 1.018948 0.238659 0.066138
H 9.97443 6.63742 12.3303 -0.072628 0.629599 0.555498
H 1.62991 8.99503 3.16977 0.121388 0.288981 -0.428127
H 8.19416 11.2399 5.19424 0.005603 -0.675195 -0.782732
H 7.05651 7.38322 6.16676 -0.48128 0.923842 -0.156087
H 11.9763 5.70618 7.69867 0.098563 0.159646 0.125607
H 11.0141 2.95148 2.07489 0.835237 -0.019614 -0.287125
H 1.95096 2.54925 3.85266 1.078028 0.238593 0.172135
H 11.1059 12.39014 9.18005 1.686165 -0.038019 -1.888177
H 3.05694 6.29685 1.09239 0.313422 -0.770087 -0.103593
H 1.57468 4.93423 1.36719 -0.465605 0.415928 -0.848063
H 9.256 5.45064 3.8683 0.146812 0.38084 0.056657
H 2.68592 4.09166 10.5532 -0.324039 0.393022 -0.151188
H 0.06178 3.57792 1.58122 0.161061 0.906394 -0.726646
H 7.41958 12.1374 0.52065 1.106613 0.221104 1.227339
H 2.9943 8.87231 12.1453 1.835732 -2.484131 0.261016
H 8.02568 9.23645 5.72902 0.919661 0.814788 -0.207669
H 11.2381 9.00066 9.41031 -0.70031 0.078905 -0.614539
H 4.01112 6.95953 11.5989 -0.38631 0.289772 0.71859
H 0.01552 2.46305 5.23484 0.438325 0.002795 -0.041724
H 6.54229 1.31131 10.7286 0.622825 1.048659 -0.554419
H 4.78803 7.19492 8.86036 0.027584 0.077613 -0.511491
H 5.92567 4.50792 12.2707 -0.515398 -0.072427 0.024246
H 3.25424 12.0189 10.4946 0.674191 -0.599994 0.517347
H 3.78065 7.92496 3.70281 2.115424 0.416515 0.127848
H 6.64123 6.12974 1.31983 -0.20887 0.033567 -0.563803
H 6.01763 7.3319 3.3004 -0.195069 -0.310894 0.117821
H 2.90816 6.42818 2.5697 -0.518162 -0.607725 0.145204
H 3.83519 4.50569 11.3982 0.285738 0.012818 0.799745
H 6.15271 2.72517 10.857 0.962555 0.050276 -0.870497
H 2.707 7.20733 4.57715 0.138329 -0.454848 0.972825
H 8.96437 11.7148 9.88996 -0.46006 -0.880194 -1.217072
H 2.36715 9.89047 0.69328 -0.173098 -0.590842 -0.854274
H 7.87808 5.78878 2.97953 0.233246 0.044058 -0.081892
H 4.79233 2.72014 2.5267 -0.704463 0.090405 0.154758
H 5.28143 12.3073 11.8593 -1.063199 -0.732038 -0.522568
H 3.2516 6.81685 6.91917 0.031734 -0.252372 -0.103608
H 5.67359 0.89735 0.57619 -0.304816 0.707853 0.590889
H 12.3636 2.85556 11.2246 -0.899127 0.780353 -0.669627
H 8.53621 8.77063 0.07841 -0.605616 0.591092 -0.140814
H 10.6851 4.57324 5.44609 1.04942 -1.715761 -0.33438
H 11.4707 0.39076 7.6289 -0.29748 0.434992 -0.339682
H 4.78015 10.7174 9.47523 -0.292949 -0.260188 -0.667363
H 9.45645 7.39555 3.04061 -0.279966 -0.65848 0.313015
H 5.96135 11.5152 7.66906 0.113974 -0.078905 0.2702
H 4.68488 5.40212 9.5248 0.620469 -0.591283 -0.31751
H 11.1264 2.3268 6.05164 -0.786342 -0.769378 0.195141
H 7.33275 12.2919 5.75517 -0.672443 -0.017905 -0.749056
H 5.29614 3.24249 0.56515 0.175468 -0.078954 0.097757
H 8.17435 10.3047 0.28151 0.461974 0.380695 0.429035
H 3.27022 4.28602 2.79787 0.527781 -0.16268 0.475614
H 1.47225 1.17167 10.4781 -0.061856 -0.636352 -0.912704
H 5.18197 7.96274 7.50179 1.523947 0.109288 -1.074827
H 1.54733 11.4036 5.44029 0.087592 -0.440155 0.191728
H 5.01954 7.09934 0.23705 0.11837 0.002869 0.553429
H 0.55654 2.22316 0.01725 0.01066 -0.172736 1.629223
H 1.7103 3.5104 8.42843 -0.291505 0.539993 -0.329501
H 1.0036 0.0984 4.58006 0.355781 0.653746 -0.561738
H 0.58726 2.12515 3.43989 -0.389171 0.060584 -0.636818
H 7.42882 12.0987 7.85716 -0.189411 -0.614704 0.690557
H 11.0595 8.08274 8.16021 -0.182278 -0.200226 0.180648
H 0.05953 6.12369 0.10272 -0.339532 0.132256 -0.550099
H 4.44316 9.56661 8.3863 0.427706 0.407036 0.294257
H 9.08092 6.71902 1.25381 0.201633 0.202551 -1.72257
H 7.98546 10.5517 9.37749 -0.327187 -1.182582 0.271921
H 10.7751 5.61824 8.66235 -0.157758 0.478123 -0.382083
H 7.43253 3.83195 5.95639 0.510745 -0.029195 -0.00386
O 7.75112 5.62706 6.70593 0.143947 0.1125 0.54369
O 10.7549 8.92061 8.54556 0.767181 0.011924 0.698135
O 10.7963 12.2326 1.42761 0.734876 1.279619 0.158085
O 11.7795 6.65671 12.0055 -0.145176 -1.033627 0.269891
O 11.349 9.78983 1.38657 0.91675 -1.276477 -0.367205
O 2.45841 3.17259 8.94245 0.440457 0.138948 0.346672
O 1.2782 1.89685 4.08843 -0.829357 -0.287316 0.169694
O 2.7926 5.71876 1.86257 0.836415 1.346985 0.544681
O 0.94409 4.73168 7.42724 -0.133019 -0.628055 -2.171835
O 4.82232 3.89406 8.06811 0.718335 0.6674 -2.414558
O 0.89618 11.5496 4.7469 -0.346393 0.394348 0.211328
O 5.2963 3.74891 12.129 0.732882 0.291523 -0.547351
O 2.91415 4.76948 11.2285 -0.220344 -0.597011 -0.701562
O 6.68318 8.31352 6.0788 0.604286 -0.663372 0.215693
O 8.82885 9.89543 5.56316 -1.206534 -0.966281 1.3723
O 6.79857 2.18207 10.2694 -1.330159 -0.557283 1.640284
O 6.49683 6.15045 0.28464 -2.054644 -0.923313 1.416559
O 6.64898 6.12846 2.84383 -0.652464 -1.357045 0.004562
O 10.0969 12.3036 10.8229 1.044489 0.724015 0.95151
O 9.11025 6.96131 0.26913 -0.05795 -0.335523 1.304296
O 2.42704 9.60149 12.1437 -1.756268 2.900936 0.960392
O 0.65614 2.2723 11.4836 0.733958 -0.710348 -0.915493
O 2.87186 7.65235 3.74683 -2.187683 -0.076183 -0.952997
O 4.46649 7.74446 8.06957 -1.692216 0.03673 0.91023
O 8.19687 11.948 1.16481 -1.286665 1.568634 0.212467
O 1.86098 0.62066 9.73066 0.167763 0.097333 0.650827
O 9.35961 2.504 11.5942 -1.460551 -0.172259 -0.252458
O 5.16596 6.14695 9.90533 -1.204987 1.101887 0.74982
O 7.60874 11.9654 4.8585 0.044251 1.046923 1.371206
O 6.92767 3.09627 5.56282 -0.00672 0.390756 0.488504
O 9.56274 8.35326 2.99231 0.49052 0.57688 -0.317161
O 8.97173 5.61228 2.95336 0.641718 -0.401669 0.172338
O 3.96209 11.46 10.951 0.112202 1.53691 -1.225838
O 1.2908 9.70705 2.57499 0.500117 -0.246889 -0.18723
O 5.47399 2.27358 1.99107 -0.285099 -0.141051 -0.614107
O 10.2483 5.38405 5.59376 -1.398457 1.346257 -0.201355
O 9.38429 3.07439 1.97058 0.976286 0.835685 -0.400006
O 11.0889 6.13038 7.87778 0.417896 -0.544983 0.782596
O 6.54552 12.2873 7.49133 0.13083 0.347067 -0.619458
O 7.87824 6.09341 9.40308 -0.103949 -0.544748 0.899723
O 7.35426 8.96716 9.65036 -0.279093 -0.468195 -0.643261
O 4.98928 10.3774 8.56209 -0.140329 -0.143833 0.479205
O 4.07194 7.36614 0.10741 0.184732 -0.564357 -1.592212
O 3.55147 3.53306 3.38323 -1.167237 -0.570589 -1.331767
O 9.97466 4.9475 10.3362 1.163643 2.045058 -0.038226
O 2.89509 6.17537 6.25943 0.876408 -0.090152 -0.190787
O 0.9098 4.66692 0.6443 -0.828659 0.165372 1.775736
O 6.1922 9.97496 2.14146 -0.108095 0.647569 0.227589
O 5.45813 8.09977 3.67395 -0.050555 0.474634 1.126951
O 11.8841 2.87775 5.93876 0.596441 0.876709 -0.195157
O 11.7951 12.3224 8.39353 -1.248971 -0.738895 2.534081
O 7.7418 1.76057 3.43478 -0.57599 0.445155 0.457417
O 11.8168 9.41005 11.2488 -0.763164 -0.070049 -0.196253
O 10.8866 0.0181 5.66603 -0.796633 1.08097 2.56587
O 7.89452 9.50396 12.244 0.204405 -1.464567 -0.227666
O 5.92204 0.57438 12.1062 1.198384 -0.401556 0.239716
O 8.54505 11.2658 9.07231 1.105334 2.029157 0.147502
O 4.98442 4.6745 5.41151 0.486928 0.709118 0.9663
O 12.018 2.86848 2.05709 -0.903109 -1.700503 0.971662
N 2.63813 1.07401 1.06196 0.10418 -0.478937 0.4138
N 12.1711 5.9263 3.53132 0.508917 0.259631 -0.578684
N 12.0115 8.60779 4.861 0.228588 0.392049 0.95894
N 8.808 1.86598 7.78308 -1.729702 -0.125638 -0.374128
N 4.94774 1.27663 5.16663 -0.706256 0.150238 0.732173
N 12.2822 9.01214 5.85998 -0.22692 -0.316881 -0.814991
N 9.85397 1.95919 8.08667 1.632002 0.399911 0.500739
N 0.28029 6.64819 2.85978 -0.577941 -0.432017 0.390217
N 4.37364 1.5158 6.08738 0.38621 -0.339509 -0.868279
N 2.8322 0.24356 1.76989 -0.11691 0.449641 -0.398015
N 4.0582 10.5915 4.44828 -2.238705 -0.760196 3.161244
N 3.39636 10.3688 5.33939 2.458435 0.761821 -3.074639
Na 6.35439 1.98164 8.04309 -0.450667 0.772113 -0.087981
Na 10.0259 10.5996 7.31706 0.195797 -0.044739 0.467306
189
energy=-1065.57895011 config_type=nep2xyz pbc="T T T" virial="-3.700525342467845 -1.1347565290930555 -1.8925500713569579 -1.1347565290930555 -5.3102668971725056 0.2248663888349173 -1.8925500713569579 0.2248663888349173 -12.155684825911585" Lattice="12.4 0.0 0.0 0.0 12.4 0.0 0.0 0.0 12.4" volume=1906.6240000000003 Properties=species:S:1:pos:R:3:force:R:3
H 8.45986 2.07327 11.7634 -1.029854 0.680318 -0.622722
H 11.1326 10.4321 1.89834 -0.81008 -0.147168 -0.058367
H 9.22256 3.35994 1.87265 -0.157732 -0.77913 0.22407
H 9.24036 1.75745 0.68946 -0.343754 0.008799 -0.941558
H 1.67726 10.6948 2.92574 0.541903 -1.855145 -0.995753
H 5.84679 9.03062 3.08739 0.26313 0.042438 -0.821707
H 10.5093 0.0866 5.2664 0.273281 0.303205 -0.431859
H 7.06092 5.96752 0.132 2.330975 -0.666528 -0.878515
H 6.00155 8.94639 5.14996 0.825179 -0.377187 0.826114
H 8.23281 8.95932 9.5087 -0.18012 -0.178532 0.245379
H 12.1432 12.3578 5.16474 -1.769597 -0.321996 1.011834
H 0.1415 4.12213 6.84243 -0.572677 -0.333728 -0.28894
H 1.7501 2.60099 9.11444 -0.261901 -1.396149 0.502461
H 10.2994 0.33543 1.5617 -0.011904 -0.200578 0.305946
H 3.08342 11.3451 11.0186 -0.487198 -0.074633 0.137278
H 1.1001 5.31758 6.78218 0.499061 0.300455 0.343434
H 3.34392 5.39741 5.84608 -1.13015 0.032679 0.824041
H 9.13323 9.49526 4.56316 -0.786968 0.354811 0.680777
H 10.0168 8.60747 2.73418 -0.278102 -0.225094 0.015601
H 10.2442 5.00817 10.3483 -0.577925 -0.060692 -1.509551
H 7.91926 1.23892 4.31308 -0.818366 0.289846 0.130069
H 8.58642 6.5939 7.12946 0.261619 0.493545 -0.126393
H 4.55756 4.17864 7.15048 -0.422856 0.157043 -0.758642
H 12.3352 9.09924 10.9471 0.104471 -0.179628 -0.564211
H 9.60072 8.47644 9.33934 2.602498 0.057258 -1.689762
H 7.11131 6.63076 7.51262 -0.384889 -0.145577 0.427601
H 12.34924 9.63535 2.00225 1.036959 -0.762293 -0.054678
H 4.87849 5.53985 5.32615 -0.009264 -1.195678 -0.294398
H 9.28433 11.5435 1.447 0.327877 0.29192 0.02921
H 9.55858 0.26944 11.196 -0.234501 0.047594 -0.00801
H 5.67378 4.93831 3.34003 0.382418 1.275243 -0.681147
H 10.1567 3.61673 9.72931 0.033867 -0.756122 -0.291672
H 6.98547 2.45924 4.84362 0.414338 -0.831695 -0.604426
H 3.39207 3.75038 8.21324 0.86213 0.284365 -0.057276
H 9.11541 11.2464 11.4007 -1.073941 -0.84931 1.138653
H 8.28444 6.77177 10.572 -0.7452 -0.382183 -0.107679
H 6.26615 3.9817 5.86266 -0.428421 0.027043 0.281136
H 1.26548 4.77185 12.1675 -0.825665 0.262451 0.830776
H 9.5085 5.06336 6.51801 0.039451 -0.761882 -0.734291
H 5.9131 2.09493 2.77173 -0.651297 -0.054186 -1.080851
H 6.85459 7.81997 0.81549 -0.233941 -0.185936 0.076074
H 6.42902 6.11868 9.65491 -0.163634 -0.633819 -0.764708
H 8.50604 2.33378 2.85811 0.821177 0.089711 -0.439201
H 10.867 7.02115 11.288 -0.353456 -0.955641 0.267805
H 3.70321 3.93139 4.12464 0.200171 0.595715 -0.477421
H 8.28757 5.28815 10.3279 0.953564 -1.723299 -0.758479
H 7.87661 8.3711 1.88067 0.118513 0.256137 0.097962
H 0.71349 0.44783 9.49753 -0.262744 -0.655925 -0.321162
H 7.58462 10.0032 0.55001 0.434666 1.184485 -0.136527
H 1.39988 9.49724 11.1076 0.083737 -0.399434 -0.664411
H 9.75974 5.58092 0.63155 0.276596 0.075459 0.145168
H 1.99565 9.10533 2.70161 0.550076 -0.99075 1.143727
H 9.02816 11.6711 5.02548 -0.649555 0.017028 -0.077232
H 6.94998 8.18828 6.26052 0.501114 -0.024589 -0.305366
H 11.4397 5.82763 7.36744 -0.837905 -0.330458 0.131972
H 11.0746 3.09806 1.98922 3.38764 -0.842942 -0.118675
H 1.76578 2.88023 3.78415 0.816191 -0.134016 0.217523
H 0.10395 10.7918 9.62552 0.542763 -1.125377 0.372771
H 3.34467 6.13568 1.2245 -0.732717 0.443217 0.644879
H 0.87281 5.46782 1.03861 0.822815 1.269625 1.534286
H 8.50536 5.69944 4.65382 0.208446 0.096064 -0.916682
H 2.73609 4.74186 10.5046 -0.422282 -0.453691 -1.001591
H 0.07634 3.53796 1.22501 -0.20102 0.350193 0.174738
H 7.09649 11.4379 0.12948 -0.527725 0.671169 -0.362786
H 3.30429 9.12209 11.8917 -1.555055 0.879137 0.486178
H 8.00556 9.9641 5.65813 0.490871 -0.715855 -0.398649
H 12.0827 8.32064 8.50234 0.751288 0.193404 0.621121
H 3.47973 6.95248 11.0869 0.007925 -0.154422 0.191938
H 12.0719 3.02379 4.69073 -1.257337 -0.893494 0.828049
H 6.41686 1.82182 10.9912 0.349389 0.025904 -0.099781
H 4.73356 7.36303 8.56303 0.074401 0.611048 -1.105838
H 5.56874 4.85225 0.11458 -0.175865 -0.216578 -0.361001
H 2.72783 0.3499 10.2001 0.552332 -1.409249 1.113568
H 3.79193 7.85668 4.07461 -0.030167 0.368303 -0.196503
H 6.17197 6.07045 1.66574 0.252931 -0.920595 -0.631516
H 5.75407 7.50902 3.44376 0.248619 -0.894312 -0.264513
H 2.86427 6.66224 2.66681 0.086916 0.59303 0.192225
H 3.47913 4.648 11.7781 2.189998 -1.09907 1.25597
H 6.09038 3.29782 11.1325 0.727403 -0.229507 -0.063092
H 2.52441 7.07037 4.66334 0.57777 1.18249 -0.965071
H 9.11122 11.159 9.36378 -1.030612 -0.222987 -2.168344
H 2.41792 9.99084 0.60327 0.206986 -0.440827 -0.943968
H 7.45346 5.9533 3.45903 -0.114362 -0.08642 0.010313
H 4.46312 2.61301 2.37028 0.817732 -0.51491 -0.214757
H 4.94087 0.25416 11.6703 -0.188771 -0.402326 -0.62751
H 2.88115 6.63624 6.86436 -0.116159 -0.161067 -0.05919
H 5.64095 0.69633 0.50899 0.114963 0.644886 0.757977
H 12.0419 3.13121 11.1893 -0.365532 0.006348 0.449331
H 9.89469 9.01537 11.5309 1.428536 -0.396921 0.111244
H 9.90014 3.93355 5.49344 0.096307 -0.373557 0.04786
H 11.2871 11.5744 10.1944 0.244583 0.018616 -0.620182
H 5.32496 9.70417 8.91263 1.473026 0.376813 -0.760025
H 8.96305 7.57164 3.35638 -0.286877 -2.862504 1.097802
H 4.86117 0.20699 9.40003 -0.570309 -0.340066 0.426742
H 5.40465 5.23588 8.68597 -0.371985 -0.445183 0.195687
H 11.3266 1.93164 5.58964 -0.105884 0.780869 -0.444423
H 9.27589 12.1411 3.61364 0.152104 0.987229 0.5701
H 5.2604 3.42054 0.61773 -0.096756 -0.452682 -0.05175
H 10.9045 9.05014 0.4235 0.320971 -0.371992 -1.434676
H 3.22973 4.51611 2.6567 -0.127144 -0.874367 1.149715
H 0.60742 1.44933 10.5225 -1.012769 0.881352 1.221896
H 5.00613 8.20908 7.26669 0.582442 -0.083163 -0.522465
H 1.80175 12.3626 5.01943 0.337339 -0.913791 0.080772
H 4.72681 7.20901 12.0015 1.291513 -0.764198 0.299244
H 10.8552 2.09441 11.4677 -0.71666 0.123382 0.811813
H 1.23927 3.90939 8.47888 -0.166858 0.55731 -0.359807
H 1.26842 0.65868 3.86277 0.13754 -1.34387 -0.041011
H 0.53777 2.44399 3.07489 -0.384521 -0.263502 0.220055
H 5.77077 11.6922 8.56772 0.136487 0.55683 0.197804
H 10.9572 7.64156 7.70082 -0.107644 0.611443 0.809264
H 11.729 5.78456 11.7174 -0.9697 -0.130783 0.084257
H 6.07549 9.77347 7.55916 0.201657 -0.226093 -0.597632
H 9.24285 5.38614 2.18294 -0.143112 0.407889 -0.709183
H 7.88452 10.6312 8.26954 1.670654 0.731529 0.892966
H 10.3097 5.32517 8.27661 -0.405886 -0.797633 1.537814
H 7.69023 3.67758 6.3958 1.772657 0.748414 -0.340174
O 7.76479 7.07357 6.94199 0.101968 -0.782519 0.300209
O 11.2198 8.49952 8.14016 -0.810768 -0.236527 -1.05931
O 10.0672 11.8842 1.96701 -0.680417 -0.394147 -0.415594
O 10.8107 6.01489 11.3833 1.234432 1.226284 0.396171
O 11.4033 9.48362 1.84914 -0.285018 1.043678 0.496031
O 2.02329 3.47219 8.83366 0.312 0.976704 0.172745
O 1.02968 2.25448 3.94293 0.018778 0.452227 -0.733468
O 2.60718 6.14292 1.87767 0.481924 -1.213042 -1.217714
O 0.34971 4.93088 7.32118 0.334823 -0.068586 -0.353196
O 4.37844 3.96347 8.0815 -0.062381 -0.377424 0.753737
O 1.41715 12.0686 4.17578 -0.407171 2.189566 0.150857
O 5.12435 3.9756 12.2199 -0.174853 0.735869 0.536314
O 2.65347 4.92679 11.4369 -1.669366 0.986548 -0.682951
O 6.54541 9.04694 6.00249 -1.331562 0.870391 -0.549978
O 8.95396 10.0638 5.37134 0.384435 0.014131 -0.239872
O 6.76245 2.69162 10.6782 -0.666243 -0.167087 0.054581
O 6.24371 6.15301 0.52941 -2.84084 1.153197 1.988253
O 6.0375 5.80486 3.01155 -0.453826 -0.25052 0.080487
O 9.6652 11.765 10.8294 1.14911 0.391286 -1.208458
O 9.18417 5.09185 1.23931 -0.263589 -0.669798 0.703976
O 2.57609 9.84191 12.0234 1.692509 -0.284515 0.793671
O 11.4784 2.438 10.8272 0.872034 0.206917 -1.047495
O 2.84191 7.69944 3.91251 -0.717995 -1.350898 1.536125
O 4.3594 8.07102 7.95181 -0.962473 -0.737608 1.283199
O 7.90569 10.9423 0.26907 0.666631 -1.994149 0.335002
O 1.2559 1.15104 9.90743 1.395425 -0.20264 -1.207763
O 9.20115 1.57179 12.0883 1.120524 -0.049397 1.634097
O 5.90096 6.06326 8.79759 0.469753 0.994822 0.446561
O 9.09627 0.13414 4.52221 0.176908 -1.10494 -0.973369
O 6.79749 3.36069 6.39694 -1.581437 -0.800347 0.048751
O 9.1042 8.44626 3.05546 0.853419 3.403882 -0.872318
O 8.42608 6.09898 3.74547 0.18903 -0.434602 0.669354
O 3.44438 12.0979 10.5244 0.125659 1.548102 -0.651416
O 1.77893 9.90947 2.25431 -1.067946 2.913796 0.360003
O 5.2801 2.162 1.9827 -0.093081 0.47188 1.305719
O 9.12618 4.42613 5.84161 0.195087 1.012589 0.794057
O 9.30542 2.42234 2.24084 -0.968162 1.156523 -0.218394
O 10.4835 6.02562 7.64263 0.646695 1.040198 -2.045057
O 5.62044 0.23889 8.81532 0.485029 0.354501 -0.591368
O 7.71856 5.95313 10.6683 -0.194887 2.244792 0.839563
O 8.89265 8.3797 9.92648 -2.383669 0.070599 1.554962
O 6.16969 10.0569 8.48272 -1.461809 -0.308521 1.135455
O 3.91001 7.56908 11.6891 -0.85749 0.905263 -0.308328
O 3.30828 3.68732 3.23304 -0.180255 0.507607 -0.603985
O 9.82689 4.49697 9.5304 0.503194 0.68504 1.923152
O 2.4765 5.98672 6.25688 1.108864 -0.06221 -0.897542
O 0.45757 4.91581 0.40397 0.479935 -1.288325 -2.603863
O 7.09917 8.61098 1.33038 0.100808 0.271477 -0.321025
O 5.45718 8.40254 3.68932 -0.61905 0.282956 0.978085
O 11.2092 2.8359 5.19475 1.156572 0.159293 0.045276
O 11.982 11.5805 9.48367 -0.874145 0.732445 -0.035103
O 7.19123 1.88433 4.04747 0.447954 0.490213 0.329041
O 0.76006 9.16304 10.4062 -0.683323 0.360032 0.553161
O 11.3317 12.3536 5.79479 2.096938 0.029426 -0.699472
O 10.8337 8.81171 11.8229 -1.625842 0.333226 0.853603
O 5.83988 0.38432 12.0228 -0.180717 -0.166807 -0.05053
O 8.85271 10.8956 8.37489 -0.436749 -0.35125 1.372047
O 4.47989 4.63706 5.44156 0.308569 1.493421 0.123222
O 12.1152 2.89174 1.87527 -3.386455 0.279912 0.040046
N 1.41765 0.0095 0.44883 0.050671 0.031385 -0.351659
N 11.5122 6.39828 4.29583 -0.282858 -0.096098 -1.784973
N 1.76184 10.5836 7.8743 -0.840107 -0.527354 -0.18945
N 9.78087 1.93575 8.0555 0.367766 0.439252 0.416445
N 3.51174 1.55007 6.3612 -1.05304 0.188618 0.532144
N 2.71214 11.1328 7.92739 0.877755 0.431387 -0.102718
N 9.24756 1.10906 7.56211 -0.428494 -0.284857 -0.50866
N 11.296 6.35024 3.20119 0.555652 0.053501 1.85423
N 4.43045 1.33896 5.79914 1.007899 -0.235988 -0.630321
N 1.02671 0.244 1.45266 -0.190939 0.081371 0.177379
N 5.89183 11.5167 3.33765 -1.633521 1.348133 3.257095
N 6.35651 11.1404 2.43358 1.270867 -1.066212 -2.761474
Na 6.08356 2.50442 8.41297 0.06264 -0.348977 0.128313
Na 10.6358 10.4882 6.99592 -0.086439 0.041779 0.468419
189
energy=-1064.92053663 config_type=nep2xyz pbc="T T T" virial="-7.084707373420099 -0.5083413173084866 -0.7293163371156193 -0.5083413173084866 -9.706978389069878 2.568934269525831 -0.7293163371156193 2.568934269525831 -27.02021470318284" Lattice="12.4 0.0 0.0 0.0 12.4 0.0 0.0 0.0 12.4" volume=1906.6240000000003 Properties=species:S:1:pos:R:3:force:R:3
H 11.8937 1.36781 1.48225 -0.722279 -0.069352 0.062001
H 11.5338 11.9622 2.35554 -0.005747 -0.466686 0.997808
H 7.58485 4.5729 10.5171 0.308594 0.177483 0.599211
H 0.41767 2.5335 1.67521 0.074299 0.163192 -0.564526
H 11.7784 1.32793 4.01163 -0.541169 0.130067 -0.842917
H 5.38677 10.8844 5.07448 0.245701 0.726234 -0.423076
H 9.30415 2.30192 4.14185 -0.390346 -0.456236 -0.257187
H 5.75856 9.15399 11.0255 0.395666 -0.627967 1.264792
H 6.37684 6.33995 3.8152 -0.852804 0.96741 0.649471
H 8.20739 11.1829 8.24753 0.168665 0.347363 1.258953
H 10.3589 4.10559 3.44663 -0.064269 -0.514556 0.432632
H 1.04671 5.25331 5.37404 -0.122511 -0.679071 -0.212604
H 1.64345 1.84185 4.92318 0.50049 0.34375 -0.480534
H 12.0251 4.97511 2.13245 -0.132215 -0.377634 -0.086307
H 2.00225 11.3895 11.953 0.539875 0.324296 -0.425082
H 2.57492 4.92069 5.53887 -1.053321 -0.622169 -0.314036
H 3.60206 6.0961 5.99692 0.472292 -0.620215 1.342712
H 9.09851 7.74417 5.61951 -0.217415 0.337351 0.615233
H 8.11627 10.6189 2.98176 -0.25627 -0.072146 -0.350111
H 0.68801 4.50346 10.9734 0.80034 0.438482 0.470969
H 7.41264 2.32469 2.8503 1.562136 -0.633505 -0.017772
H 7.03011 1.40174 10.106 0.211996 0.580345 -1.410487
H 4.98253 2.63965 6.39906 -0.332951 -0.294899 -0.249827
H 11.8879 9.1598 9.12449 -0.555992 1.160261 -1.628326
H 8.84331 10.3989 9.38716 -0.507418 0.783934 0.280707
H 6.94706 2.68248 9.08424 -0.202905 -0.307968 0.577407
H 0.5046 11.1998 2.58048 1.978592 0.21549 -0.83293
H 6.24757 2.78203 1.81079 0.774903 -0.249544 0.885045
H 11.0978 4.37787 1.03004 -0.060899 -0.109617 0.058666
H 7.85364 11.8377 10.8031 -0.800967 0.592653 1.252942
H 6.97863 5.94605 0.03708 0.554178 -0.600445 0.096015
H 0.59823 3.10676 10.3165 -0.495034 0.36352 0.385357
H 5.75531 3.38299 4.29952 -0.164143 0.977302 0.975364
H 3.70962 1.80767 6.03154 -0.107058 0.337031 -0.294438
H 7.30656 12.1654 12.3589 0.283617 -1.087927 1.397367
H 8.59119 7.43232 10.0025 -0.027152 1.065739 1.082286
H 6.5369 4.28982 5.35226 -0.298762 -0.497788 -0.253486
H 2.46087 5.28837 0.08492 1.871744 -0.783122 1.334404
H 8.09014 5.19262 6.40423 -0.072261 0.776674 0.941688
H 5.70201 0.86151 5.5391 0.304727 -0.75957 -1.502074
H 6.85009 10.153 0.76698 -0.704474 -0.308466 -0.225253
H 3.44879 5.41478 2.10151 0.154474 0.176538 -0.11253
H 8.88221 4.57779 11.5506 -0.730667 0.426027 -0.237205
H 3.93955 5.15254 8.39158 0.507172 -0.01726 1.761904
H 2.8311 2.38842 2.52387 0.799872 -0.897095 -0.863668
H 7.87028 8.51963 11.1375 1.15641 -0.789332 -1.195504
H 6.20634 11.0832 1.92334 -0.724882 0.056597 -0.527235
H 1.45341 0.91766 10.8955 0.715477 -0.509652 -0.470491
H 10.168 0.72007 1.29003 0.252557 0.365299 0.809174
H 0.87253 8.43471 9.56627 -1.808093 0.399447 0.127679
H 11.3312 4.68182 11.301 -0.67972 0.040639 0.101554
H 0.02008 12.3989 4.55166 -0.238992 2.227662 -0.254146
H 6.86497 10.3839 7.20975 0.29965 0.215251 -0.234558
H 8.48476 6.74976 3.2867 0.145752 1.597055 1.169631
H 11.9961 6.59835 9.25127 -0.597916 -0.196722 -1.566436
H 11.3429 10.3985 4.30919 -0.206479 -0.172002 0.492865
H 4.18377 7.06329 3.72918 -0.487883 -0.900728 -0.726936
H 11.0657 0.36419 6.04275 -0.423283 -0.402289 0.3699
H 1.01533 5.88123 0.48056 -0.16819 0.075697 1.343284
H 4.67625 4.98164 0.26471 0.753545 0.643909 0.203596
H 8.91647 4.53587 5.33769 1.367982 -0.416799 -1.38434
H 2.72773 2.70749 11.2023 0.086866 -0.185713 -0.915345
H 10.0233 10.6392 5.06338 0.904397 -0.63064 0.036346
H 9.59738 1.28508 2.97994 -0.400628 -0.031816 0.400624
H 3.16903 6.42175 10.0492 0.195723 0.894622 -0.351905
H 9.75918 8.41893 6.93838 -0.881887 -0.218059 -0.465642
H 9.9239 5.94825 8.88364 -0.79619 0.531504 -0.744474
H 6.34345 8.14264 12.2212 -0.452134 -0.279392 -0.111766
H 11.6385 6.40168 5.52019 -0.011485 -0.374811 1.043481
H 5.5117 0.50507 11.3883 0.244649 0.105051 0.018056
H 5.90875 4.82124 9.15334 1.224181 -0.37108 -0.00385
H 6.92613 3.35778 11.8953 -1.02447 0.104929 0.44075
H 3.32133 12.0696 11.3255 -1.650079 -0.507705 -0.636311
H 11.6267 9.49805 2.49196 -0.216511 -0.312677 -0.713841
H 6.45894 6.45212 1.51832 0.49669 -0.08351 -1.307469
H 6.12594 9.56815 5.42731 -1.629787 1.012319 -0.258687
H 0.04041 7.17027 2.30716 0.243697 -1.354316 0.110313
H 3.72917 3.74846 11.6571 0.103856 0.622434 1.016794
H 4.31805 1.55142 11.2895 -0.026126 0.522257 -0.268662
H 11.1649 8.32967 1.36039 0.496415 0.836489 0.907813
H 7.86213 2.43478 6.27627 0.058436 0.766865 -0.974039
H 2.17743 6.88205 11.0583 -0.645418 -0.201796 1.070052
H 9.59741 7.86826 3.1078 0.375291 0.157988 0.272306
H 6.2342 1.35989 4.13108 -0.171006 -2.537224 0.967756
H 1.53035 0.31475 1.37549 -0.558342 1.432459 -0.046967
H 4.49797 4.91531 5.97005 0.571213 -0.889003 -0.133934
H 2.82202 11.999 1.81086 0.069898 -0.105945 0.020056
H 11.1027 9.79131 6.75799 0.2697 0.238182 0.211692
H 11.6166 7.86482 11.4871 1.609998 0.551233 -1.186429
H 11.7861 5.64295 7.06265 0.234743 0.923998 -1.374724
H 9.71104 0.8197 6.50706 -0.4835 0.653334 0.601147
H 3.86706 9.94876 11.007 0.177166 0.86035 -0.069656
H 8.55491 9.60319 4.07343 -0.182863 -0.214654 -0.269273
H 4.92753 10.3395 9.09503 0.238106 0.103493 -0.537639
H 2.71689 5.34306 3.53201 0.094715 0.195863 -0.157037
H 10.942 4.22433 4.85815 -0.388211 -0.291447 0.12278
H 8.01883 9.46623 6.80235 0.697899 -0.967162 -0.21905
H 5.29933 2.81493 12.1685 2.079663 0.695418 -0.137906
H 10.1679 7.99932 11.6682 -1.058875 -0.09109 -0.252934
H 3.54608 3.00159 1.34228 0.62621 1.300857 -0.775505
H 0.955 1.71913 12.0787 0.101915 0.876606 -0.183694
H 7.53086 4.9665 8.70759 -0.577111 0.048671 0.290828
H 4.53961 0.78747 1.90891 -0.111781 -0.817008 -0.046716
H 1.38033 6.42282 2.63881 -0.120569 -0.636426 -0.349383
H 10.6343 10.6221 7.91848 -0.442697 1.144418 0.250228
H 2.25496 3.24465 4.89038 -0.800099 1.516703 0.179727
H 5.10309 12.3837 3.06717 -0.332547 -0.300766 -0.387268
H 4.57286 8.35138 4.44792 0.746962 -0.468469 0.145301
H 4.68516 10.2269 7.58312 0.855276 0.759242 0.354457
H 9.02962 6.88864 7.86626 0.137402 -0.729624 0.617852
H 3.94147 4.42405 9.9383 0.372485 1.095559 -1.59615
H 3.5466 8.72619 10.3339 -0.268775 -1.636799 -0.674879
H 10.6559 6.04467 11.9074 0.177884 -0.50701 -0.140824
H 7.93372 1.85577 7.61815 -0.066751 -1.040695 0.242633
H 12.0653 5.08678 9.20921 -0.333085 -0.186326 -0.69132
H 6.85092 5.08584 3.13293 -0.038035 -1.372314 -0.221139
O 6.96187 1.69069 9.13333 0.09635 0.028553 1.366304
O 8.99653 6.24409 8.63237 0.185999 -0.152433 -0.00017
O 11.4971 4.16458 1.89866 -0.273433 0.066751 0.403941
O 4.27815 5.23961 9.35488 -0.870968 -1.57844 -0.554604
O 12.0123 11.2062 2.8764 -2.129864 0.198268 0.272412
O 2.47863 2.3392 4.72991 0.268507 -2.921285 0.041616
O 4.86549 7.41995 4.30814 -0.10743 1.046609 0.80788
O 1.63582 5.66429 12.1947 -1.830517 0.551226 -2.591555
O 1.77497 4.72045 4.95046 0.681066 1.401283 0.537432
O 4.50822 1.80033 6.60146 0.57118 -0.06902 0.353133
O 4.75079 12.2372 2.1544 0.016411 1.183078 0.75724
O 6.27972 2.73966 12.3586 -0.973298 -0.485066 0.433641
O 3.59057 3.13293 10.898 -0.204544 -0.003812 0.215741
O 7.04551 6.00805 3.22312 0.323007 -0.128647 -0.811926
O 8.92701 7.98758 6.58005 1.290566 0.032593 -0.370281
O 4.64584 0.69676 10.9862 0.013461 -1.227881 -0.319654
O 6.40045 9.02964 11.7901 0.350244 0.483359 -0.664682
O 6.49381 6.61648 0.53334 -0.850671 0.745884 0.975577
O 7.38714 0.04359 11.4651 0.249804 0.558003 -2.850774
O 10.5567 5.05857 11.7815 0.01565 -0.145123 0.170534
O 2.67422 7.24274 10.3215 0.377009 -0.163288 -0.921255
O 10.9746 9.75345 7.7455 0.08507 -0.984579 -0.76075
O 11.4494 8.5407 2.30565 -0.453436 -0.663023 -0.674234
O 6.85078 4.38934 9.14041 -0.727543 0.615151 -0.751127
O 10.6375 0.99243 2.11243 -0.203617 -1.291731 -1.175452
O 1.39555 1.84501 11.164 -0.904037 -0.297904 0.738869
O 0.37331 1.7208 1.13769 0.897053 0.130065 0.144442
O 3.15962 5.95578 2.89955 -0.298494 -0.590589 0.019696
O 7.71622 10.3708 6.7 -1.324811 1.037617 0.750032
O 5.6317 3.91104 5.16083 0.435216 -0.530934 -0.899217
O 8.34819 10.536 3.92341 0.187776 0.055719 0.212526
O 8.91008 7.57367 3.72871 0.144747 -1.035428 -0.643345
O 2.41139 11.6309 11.0855 1.070526 0.226203 1.115549
O 12.3413 1.00799 4.70979 0.729592 -2.402113 1.032747
O 6.10847 0.46212 4.68066 -0.624441 3.173635 0.183658
O 8.08219 4.47474 5.78788 -1.365769 -0.343492 0.816233
O 7.88877 4.67542 11.4653 0.438794 -0.450898 0.090976
O 11.6985 5.84151 8.64687 0.821619 0.297753 2.179284
O 5.25905 10.7211 8.22679 -1.009515 -0.580914 -0.255029
O 8.73302 8.18983 10.659 -0.869735 0.044528 0.052286
O 8.40555 11.2763 9.23211 0.630333 -1.428663 -1.138433
O 4.21871 9.42051 10.2744 0.131366 0.780044 0.663337
O 0.47175 6.23345 2.29529 0.129479 2.734012 0.294879
O 3.33046 2.13429 1.68898 -0.99291 -0.269565 1.75459
O 0.13996 3.99609 10.3597 0.272457 -0.398714 -0.570968
O 3.76052 5.24565 6.51735 -0.252971 2.068564 -0.998609
O 3.88537 4.62504 0.65677 -0.999248 -0.594268 -0.02492
O 7.00489 10.7831 1.48346 1.570652 0.371478 0.384525
O 5.21084 9.99302 5.36645 1.173297 -1.466686 0.324236
O 11.9622 5.64126 6.04452 -0.27493 -0.176281 0.111727
O 10.2721 0.04126 6.54264 0.865895 0.114162 -0.736178
O 8.85891 1.52962 3.71552 0.359936 0.483346 0.226359
O 12.2762 8.52853 9.69999 2.746797 -2.326057 1.804047
O 10.1498 3.85918 4.39911 1.171876 0.99717 -0.740205
O 10.9552 7.61598 12.1067 -0.859266 0.016464 1.250712
O 1.8992 11.8514 1.53267 0.551053 -1.372627 0.173962
O 7.96304 1.57554 6.6801 0.166966 0.350459 0.735724
O 6.55042 2.72292 2.777 -2.075158 0.904323 -0.542011
O 10.8517 10.0995 5.1191 -0.344278 0.454844 -0.56431
N 11.3513 11.1241 11.1178 -0.134353 -0.098384 -1.575081
N 2.78181 8.67081 2.23244 -0.780512 -0.827004 2.340061
N 5.37519 7.96816 7.38536 -1.666525 1.388668 -1.078203
N 10.3042 2.32446 9.09139 -0.349145 -2.352384 3.602464
N 1.7661 0.40487 8.22807 -0.324643 -0.063942 -0.058205
N 6.07571 7.30525 7.89176 1.716047 -1.642523 1.18514
N 10.2272 1.70861 10.0411 0.33012 2.326273 -3.575988
N 3.07445 9.11643 1.28331 0.769827 1.010962 -2.44373
N 0.68554 0.17338 8.16671 0.424863 0.10189 0.05771
N 11.436 11.2096 12.2067 0.107114 0.106871 1.455525
N 2.37878 8.86995 7.18732 -0.51744 1.008245 -0.306591
N 1.94835 9.85861 6.91475 0.466364 -1.048052 0.238193
Na 5.15142 0.63075 8.46881 -0.310549 -0.075219 0.200807
Na 8.23485 12.2662 5.29562 -0.198747 -0.106392 -0.391432
189
energy=-1065.7096894 config_type=nep2xyz pbc="T T T" virial="-5.355630501863376 3.1187121218641223 0.5726381578501387 3.1187121218641223 -4.461389139194036 -2.9393283398310177 0.5726381578501387 -2.9393283398310177 0.2739190589649729" Lattice="12.4 0.0 0.0 0.0 12.4 0.0 0.0 0.0 12.4" volume=1906.6240000000003 Properties=species:S:1:pos:R:3:force:R:3
H 9.62571 2.42727 11.6079 0.164999 -0.379381 0.367996
H 12.1283 12.0897 2.62228 0.037935 2.008191 -0.886858
H 8.92833 5.44083 1.93653 0.093781 -0.636596 -0.335956
H 9.51311 3.92829 12.0445 0.118864 -0.572094 -0.562053
H 2.52391 10.1085 1.50012 2.388856 1.886097 -0.207109
H 5.29295 8.641 2.6281 -0.01477 0.500646 0.393574
H 8.41797 1.22719 4.82284 -0.259187 0.417378 -0.227045
H 9.41088 7.44214 0.298 -0.787908 1.189826 1.384948
H 4.13216 7.4513 5.74285 -0.67775 1.042009 -0.012589
H 6.74942 10.6978 10.4386 -0.360641 -0.211375 0.09056
H 10.1962 1.49291 3.59976 0.004118 0.06592 0.275677
H 12.2952 4.37664 5.92214 -1.120489 -0.472666 -0.472642
H 1.72999 3.63367 9.03893 0.783576 -0.76809 0.564547
H 10.6067 1.00316 1.73715 -0.693543 -0.429309 -1.005073
H 4.7409 11.6187 12.0313 -0.19161 -0.317252 1.076182
H 1.26919 4.80698 5.45386 0.706083 0.106042 -0.326712
H 5.74073 4.1278 7.18755 -0.094802 0.742554 0.752438
H 8.21998 8.74377 5.81126 0.057657 0.578606 1.74998
H 11.1384 10.3745 1.93451 -0.890162 -0.302881 0.155043
H 0.0004 4.82079 9.83092 -0.599948 -0.115975 0.082401
H 6.8171 0.87947 4.472 1.431171 0.428963 1.452507
H 8.18822 3.29291 10.341 0.167731 -0.568689 -0.020654
H 4.5086 1.68652 8.49616 -0.82615 1.023866 0.554491
H 10.9761 10.3475 10.2412 -0.775287 0.429334 -0.348892
H 7.66991 9.51403 9.78645 -0.368712 -0.214967 0.011147
H 7.05548 4.08329 9.82735 -0.702251 0.531943 -0.082616
H 0.62001 10.7577 2.38071 0.469181 0.196288 -0.273573
H 4.7792 5.41502 4.80616 0.50802 0.344856 0.780802
H 11.4957 2.18967 2.04887 0.468272 -0.969589 0.591967
H 9.69966 0.14582 12.1907 -0.53201 1.159068 0.244839
H 6.6904 5.71524 3.36343 0.688623 0.379089 -0.700031
H 10.8933 4.23507 10.1734 1.182757 1.90124 0.230446
H 6.93655 2.35313 5.88092 0.18477 0.940082 -0.251489
H 4.82797 0.56624 7.58448 0.373544 0.120141 0.16196
H 8.54684 1.05046 0.45011 -0.187885 0.013392 0.107699
H 7.25518 7.02341 9.53043 0.214814 1.223081 0.547673
H 7.56868 3.85571 6.1095 0.497987 0.120086 0.13116
H 2.8616 2.73386 11.8978 0.023159 0.237831 0.313376
H 9.45354 5.31329 6.71466 0.604705 0.396833 0.969977
H 5.68181 2.7774 2.80464 0.460469 -0.509462 0.29593
H 7.46603 10.1699 0.82819 -0.730381 -0.208631 -0.12586
H 4.75871 7.95521 11.6916 -0.122212 -0.982052 -0.000912
H 10.0398 5.68134 0.85668 0.239759 -0.202028 -0.24658
H 1.98286 5.74651 10.2833 -0.28349 -0.41941 -0.859573
H 1.9853 1.14975 2.77063 0.027859 -0.183458 0.199084
H 8.63093 7.73287 9.01181 -2.073793 1.073837 1.479539
H 8.4876 10.4063 1.90044 -0.765335 1.183743 -0.211322
H 2.20631 12.1453 9.10064 0.086573 -0.521074 0.238956
H 7.03588 12.3014 0.83886 -0.417773 1.467845 0.25817
H 12.2453 9.61864 10.2071 0.727177 -0.011086 -0.368289
H 11.216 6.14628 11.3242 0.279743 -0.338868 0.091961
H 1.94648 8.8493 2.07055 -0.0869 -0.319597 -0.269708
H 5.39961 11.0775 6.49387 0.027571 -0.653126 -0.103817
H 5.71187 7.07064 5.87706 0.069674 -0.280358 -0.414775
H 12.0038 5.99551 7.04243 0.17401 -0.32845 -0.206505
H 0.12023 4.52279 1.79208 -0.0012 -0.002268 -0.23577
H 3.2088 4.49207 4.32261 -0.916496 -0.825712 -0.71208
H 11.1994 11.4714 4.52164 -0.173481 -0.367492 0.422456
H 1.56585 5.56281 12.3923 -0.054389 0.5436 -1.43062
H 2.24478 3.83614 0.5536 1.232053 -1.083611 -0.092275
H 7.76393 6.31551 5.9095 -0.459162 0.496767 -0.659017
H 2.45464 1.81792 9.52298 -1.093267 -1.039483 -0.3873
H 11.0275 4.35217 2.2397 -0.15723 0.151453 -0.451238
H 6.38601 1.01834 1.68564 -0.239966 0.411602 1.054147
H 1.39479 8.2078 11.2388 -0.025498 0.331181 -0.685178
H 9.20305 9.02185 7.03977 0.337352 -0.458073 0.508993
H 10.8673 8.89383 8.61247 -0.057648 -0.037376 0.2664
H 6.96605 8.39955 11.7023 -0.879107 0.348261 0.677579
H 11.2226 3.99497 4.05156 0.069044 0.096624 0.260713
H 5.70351 1.89743 11.9841 0.984231 -0.146328 1.767843
H 5.48931 5.99589 10.6666 0.835813 -0.288573 -0.354309
H 4.80953 4.48266 2.49384 0.119344 -0.054301 0.036102
H 5.33222 0.06364 10.9116 0.026158 0.223018 0.119283
H 3.78977 7.07989 2.4681 0.954396 0.317731 -0.118092
H 8.32972 7.33792 1.45098 -0.24294 -0.005039 0.458565
H 6.23507 7.24617 2.534 -0.480337 0.140043 0.033487
H 1.91251 5.86587 1.44917 0.161606 -0.657949 -0.211052
H 3.78724 2.04559 10.1541 1.037041 0.201597 0.885027
H 6.0853 2.40913 10.5491 0.514812 0.151855 0.315459
H 2.59183 6.44467 3.26566 -0.371104 -1.047934 1.809179
H 9.62477 12.3978 8.75167 1.70423 -0.31899 0.475232
H 1.45673 9.32053 12.2554 -0.264134 0.46699 -0.562455
H 7.22263 6.8809 4.45823 0.410715 -0.047429 0.516279
H 4.72378 1.72059 3.07929 -1.467423 -0.834356 0.185456
H 3.55357 12.2481 1.72591 -0.05443 -0.417652 -0.196474
H 4.95147 5.56215 7.28124 0.932156 -1.654181 0.95856
H 4.43948 11.0742 2.20784 -0.028083 -0.019991 -0.585258
H 11.6739 11.1533 8.36871 0.073032 1.022309 -0.373344
H 8.7158 10.7476 11.1539 0.721682 -0.387514 0.035875
H 9.5728 4.46967 5.49989 0.992459 -0.487681 -0.956314
H 10.3938 0.23876 5.04824 -0.271273 1.236842 -0.217503
H 3.64791 10.9079 10.1628 0.956759 0.042752 1.126317
H 9.93222 9.29678 1.45284 0.130616 -1.496858 0.168299
H 3.01658 11.2925 6.44103 1.590796 -0.471669 0.673521
H 4.63458 6.81994 0.31945 -0.01523 -0.136597 0.320107
H 10.294 2.68718 4.73374 0.353287 0.484231 0.126947
H 6.72759 10.1813 6.55363 0.003999 -0.697989 0.410453
H 4.42232 3.56493 1.28918 0.107901 0.439787 -0.243069
H 9.98982 10.5268 12.2736 -0.923221 0.529028 -1.182229
H 2.78983 1.85612 1.70148 0.064103 1.020231 -1.296335
H 0.95342 0.38822 8.40948 0.501567 0.053708 0.162167
H 5.87968 5.35085 9.26089 -0.356118 -0.046311 -0.453793
H 6.39805 10.2106 2.96148 -0.302422 0.400062 0.222502
H 6.02949 8.39067 0.63003 0.256371 0.18393 -0.026811
H 11.5089 11.9615 6.99183 -0.256929 -0.337442 -1.080184
H 1.11068 4.53992 7.98693 0.003093 0.384608 -0.383462
H 5.65973 10.1502 4.38823 0.310371 0.412208 0.009808
H 1.71441 4.12821 3.56447 0.020547 -0.999709 -0.867483
H 3.54871 10.7227 7.77177 -0.25556 -0.282498 1.067673
H 10.5725 7.4444 7.96012 0.37055 0.1261 0.014182
H 2.95676 6.51707 11.2162 -0.253775 0.336955 0.114256
H 2.24037 10.027 10.132 1.744272 1.302868 -0.501865
H 11.7522 6.79025 0.31463 0.470989 0.004821 -0.09874
H 8.23283 11.5279 9.19664 1.169756 0.996571 -0.583287
H 11.4215 5.45013 8.43392 -0.311972 0.607334 -0.123286
H 5.47786 3.92279 4.94819 -1.030353 1.266973 -0.659562
O 7.38209 3.17568 9.77582 0.711653 -0.171723 0.002746
O 10.1954 8.34333 8.16307 -0.305376 -0.390095 -0.165603
O 11.3867 1.20776 2.25611 0.331987 1.643325 0.018743
O 1.99239 6.38808 10.9948 0.363623 0.340304 0.542794
O 12.2912 11.1922 2.8423 -0.222552 -2.27814 1.082325
O 1.30552 4.47851 8.94675 -0.222135 0.624166 -0.334705
O 2.21812 4.64632 4.16765 1.078384 1.570055 1.208087
O 1.45895 5.18373 0.86798 -0.210882 0.233388 1.660327
O 0.65862 4.89296 6.20361 0.241071 0.306008 1.133728
O 5.26087 1.25649 8.12736 0.478507 -1.345896 -0.979458
O 5.52346 10.1893 3.41758 0.052383 -0.258901 -0.363737
O 5.18117 4.02517 1.72079 -0.227759 -0.256629 -0.019064
O 2.89698 2.3944 10.155 -0.064772 0.974846 0.16064
O 4.74255 6.74441 5.85343 0.480899 -0.912609 0.305635
O 8.37081 9.31847 6.63286 -0.68163 0.063269 -2.149186
O 5.41811 1.95142 11.0978 -1.375218 -0.366815 -2.268588
O 8.90504 7.98046 1.01058 0.937755 -1.085245 -1.814346
O 7.25101 6.48389 3.09549 -0.823605 -0.398008 -0.356167
O 9.48794 1.06019 0.17975 0.632214 -1.298045 -0.354368
O 10.988 6.49533 12.2226 -0.671908 0.504548 -0.182874
O 1.24895 9.18592 11.282 0.282229 -1.070856 0.703803
O 11.6122 12.0599 7.93534 0.262828 -0.466928 1.410218
O 2.85673 6.80892 2.44804 -0.643417 1.073405 -1.672039
O 6.25166 5.65787 10.1207 -0.354353 0.530043 0.499145
O 6.82327 0.89605 0.84419 0.730169 -1.750427 -0.865442
O 1.89068 0.56575 8.68415 -0.918829 0.087205 -0.658011
O 9.66074 3.34009 11.2542 -0.248378 1.113001 0.262187
O 4.38869 7.02745 11.81 0.158615 0.707989 -0.434091
O 6.2029 10.7824 6.02128 0.519734 0.867193 -0.731369
O 6.78591 3.28409 6.25636 -0.722984 -1.071687 -0.250846
O 10.2337 10.1962 1.5423 0.59636 1.507527 -0.298954
O 7.19588 7.02796 5.5089 0.479421 -0.02056 0.259449
O 5.19844 11.5357 11.1939 0.200244 0.137474 -1.325747
O 1.74906 9.58988 1.47064 -1.94288 -1.465606 0.540991
O 5.62611 1.8992 3.30245 1.000599 0.861255 -0.569566
O 8.89641 4.82918 6.11553 -1.428867 0.376824 0.154478
O 9.53729 4.97306 1.31259 -0.584201 0.261669 0.912125
O 11.2397 6.01199 7.64062 -0.646445 0.195771 0.01158
O 3.84702 10.935 6.8858 -1.960256 1.005252 -1.154717
O 7.73789 7.91848 9.54988 2.325673 -2.040724 -1.437765
O 7.61341 10.4752 10.042 -0.449467 0.368573 -0.127292
O 2.91668 10.6377 9.61862 -2.381524 -1.294373 -0.474295
O 6.22989 8.8705 12.1791 0.850438 -0.327661 -0.485795
O 2.8851 1.24416 2.43595 -0.061244 -0.520688 0.927524
O 11.4575 5.10053 10.0391 -0.814263 -2.105232 0.299588
O 5.3774 4.80779 7.83777 -0.998845 1.075275 -1.617314
O 2.9203 3.05864 0.43111 -1.051451 0.53253 0.126017
O 7.59119 10.7517 1.59792 1.055162 -0.997698 0.289647
O 5.34474 7.81536 2.12833 0.590509 -1.254539 -0.403079
O 10.8268 3.79093 4.90992 0.38392 0.356077 0.225285
O 10.6179 11.7192 5.26845 0.507544 -0.877413 0.074828
O 7.50387 0.98086 5.22508 -0.929755 -0.47216 -0.988596
O 11.6443 10.0632 9.57412 0.000758 -0.481339 1.047788
O 9.84772 1.68746 4.49055 -0.718875 -1.188599 -0.124931
O 9.68368 10.8666 11.3526 1.206268 0.032214 1.615831
O 3.9196 11.3763 1.41653 0.045199 0.087775 0.807199
O 8.69921 12.2995 8.63062 -2.590849 -0.81383 -0.152663
O 4.85258 4.52691 4.40635 0.578263 -1.257834 0.247618
O 11.9331 4.01468 2.38642 0.035254 -0.363488 -0.036721
N 1.18649 0.1886 0.057 -1.619567 -0.59815 -0.697942
N 10.8683 7.78514 3.59521 -0.027275 0.006631 0.209935
N 5.10277 8.31065 8.8338 -1.41126 -1.386359 2.106822
N 10.9585 2.64132 7.64872 -1.057394 0.19046 0.281929
N 2.03913 1.73792 5.89094 0.303249 -1.423571 -0.38565
N 5.55573 8.85419 8.00776 1.004465 1.266941 -1.963196
N 11.9924 2.34854 7.4227 0.826907 -0.170229 -0.129274
N 11.3023 7.276 2.71757 0.159162 -0.015288 -0.01245
N 2.18571 0.64879 5.71044 -0.274772 1.511123 0.147327
N 0.18515 12.246 12.1009 1.668726 0.562709 0.540713
N 0.99531 8.60397 6.245 0.293708 -1.158912 0.337229
N 0.72485 9.62424 5.94533 -0.28893 1.160371 -0.314572
Na 7.53306 1.61889 8.01637 -0.479551 0.845366 0.204898
Na 8.48762 11.6427 6.45246 0.118787 -0.497665 -0.567642
189
energy=-1064.42766719 config_type=nep2xyz pbc="T T T" virial="-7.822341958090523 5.885523101463356 0.28228490736415507 5.885523101463356 6.223215391681838 0.8053943866404726 0.28228490736415507 0.8053943866404726 -11.635217193498168" Lattice="12.4 0.0 0.0 0.0 12.4 0.0 0.0 0.0 12.4" volume=1906.6240000000003 Properties=species:S:1:pos:R:3:force:R:3
H 8.20996 2.35964 11.3844 0.407957 0.227199 0.006682
H 11.1559 10.2016 1.91329 -0.229638 0.423181 -0.116389
H 9.33843 3.94477 1.60976 -0.308508 0.365094 0.122206
H 9.61035 2.50068 12.249 -0.302784 0.10384 0.722425
H 2.24489 10.1833 3.11711 0.15043 0.46467 0.497218
H 6.60138 7.9662 3.16065 -0.42457 -0.205029 -0.021777
H 10.6113 0.01304 5.28791 -1.50842 -0.147705 -1.486669
H 6.7715 7.1924 12.1648 -0.223781 0.342354 1.687438
H 6.67914 7.86486 5.44722 -0.288578 0.189164 1.851213
H 7.70457 9.83658 8.89709 0.963867 0.717772 -0.234767
H 12.1499 12.062 5.36095 -0.74354 0.719275 0.230494
H 0.24241 4.4496 6.44758 0.006937 -0.150027 0.398289
H 1.98085 3.18162 9.40381 0.287809 0.174658 -0.674226
H 10.6323 0.14323 1.67656 0.484735 0.583874 -0.402391
H 3.77279 11.107 10.0561 -0.426197 -1.416635 -0.138889
H 1.53354 5.38019 6.48449 -1.143197 -0.404924 0.971321
H 3.60666 4.84342 5.47709 -1.160009 0.646481 0.317171
H 9.10373 9.55511 5.25701 0.567204 0.158545 -0.290584
H 10.4131 8.7643 3.35218 0.907199 0.385124 -0.330131
H 10.9746 5.89482 10.7924 -0.265132 0.010819 -0.436675
H 7.7374 0.80776 3.83973 -0.561113 1.161964 -0.858624
H 9.38716 6.56612 7.58163 0.052182 0.200188 0.130499
H 4.59696 3.67508 6.7512 0.229331 -0.204864 0.742479
H 1.33209 9.92864 10.944 -0.520799 -0.313068 -0.099433
H 6.83525 8.85842 8.01943 0.433371 0.602198 0.939577
H 7.94425 5.73946 7.74527 0.39726 0.649566 -0.185517
H 0.00182 9.65097 2.63153 2.98438 0.533268 1.123947
H 4.90038 4.36568 4.44716 0.272401 -0.017114 -0.193433
H 9.31382 11.7325 1.46618 0.186668 -0.296505 -0.114746
H 9.33187 0.85435 11.1872 0.724498 -0.304927 0.03552
H 6.5892 4.52012 2.5024 -1.406682 -2.605753 0.727193
H 10.7003 7.24809 11.286 -0.097236 0.47538 -0.39977
H 7.12908 2.22672 4.2818 0.323489 -0.925174 -0.742798
H 3.89033 3.69088 8.22918 0.81437 -0.176622 -0.960982
H 9.24419 11.803 11.7909 0.222058 -0.165054 -0.225697
H 7.20914 7.51716 10.0267 -0.127601 1.621003 -1.07874
H 6.1682 3.08007 5.59986 0.018414 0.304019 0.547246
H 1.11225 5.13496 11.8767 0.492186 0.74595 0.056197
H 9.18954 5.18919 6.1796 0.016124 -0.110468 -0.419785
H 6.09546 1.71345 2.74405 -0.085624 0.073499 -0.559034
H 7.63744 8.41903 1.55347 -0.545101 -1.82224 -1.573345
H 6.99844 5.20903 9.57108 -0.632517 0.25267 -0.743642
H 8.35132 3.16286 2.59149 0.04184 -0.116813 -0.096964
H 11.972 8.21991 1.14954 -1.210509 -1.204305 -1.664421
H 3.62757 2.88304 3.94914 0.466975 0.226327 0.968319
H 8.31676 6.79165 10.7904 1.70205 0.222531 0.292427
H 8.42234 8.76033 2.89558 -0.352207 0.655645 -0.594055
H 0.80402 0.86284 9.45691 -1.159557 -1.048861 -1.060194
H 7.54734 10.2719 1.02591 0.100126 -0.303338 0.887231
H 1.10718 9.39185 9.4797 -0.680705 0.73418 1.246934
H 10.0324 5.87125 1.11138 0.005237 0.262593 0.327574
H 2.3741 8.60617 2.98058 -0.538229 1.031176 0.182034
H 8.55535 11.2393 4.8913 -0.430858 0.089756 0.085868
H 7.53433 7.25398 6.71104 -0.598372 1.229786 -0.137186
H 11.749 6.36174 7.68825 1.222122 -0.796159 -0.672126
H 10.398 2.18881 1.85506 0.266804 0.254547 -0.288395
H 1.57038 2.05595 3.27938 0.416207 0.527962 0.136345
H 11.9584 11.2271 9.43861 -0.133027 0.662018 -0.022423
H 4.32006 5.18139 1.638 -1.054638 0.503669 0.534068
H 12.3075 6.09076 0.0351 0.320003 1.248256 0.569368
H 9.70023 5.35357 4.0444 -0.435821 -0.71586 0.636333
H 2.99492 4.62287 10.2886 -0.310729 -0.060675 -0.569785
H 11.5753 2.11167 0.6871 -0.348147 -0.135517 -0.093229
H 7.01273 11.4829 0.23491 -0.086073 0.218969 -0.266609
H 2.64166 8.49839 12.263 -0.41563 0.412587 0.30159
H 8.02516 9.44408 6.25167 0.170225 1.156196 -0.075534
H 9.86351 9.36753 9.74965 -0.739634 -0.944501 2.211691
H 3.71085 6.69539 11.6253 -0.543333 -1.521418 -0.459856
H 12.0739 2.66835 5.09396 0.182503 -0.805771 -0.334516
H 6.35212 1.37941 11.1805 -0.35005 -0.894563 0.183782
H 5.43102 7.4574 7.31788 0.851489 0.764333 -0.265262
H 6.02558 4.43136 0.42732 -0.452261 -0.81482 0.081734
H 2.84077 0.086 9.96742 2.309387 -0.939784 0.060962
H 4.4916 7.47571 3.67932 -1.630869 0.113544 0.052229
H 6.64196 6.50989 1.25172 -0.083307 0.886122 -0.432632
H 6.31512 6.39172 3.25651 0.262776 0.700457 -0.061273
H 3.435 6.19863 2.48168 0.1385 2.261209 1.354559
H 3.52765 4.32031 11.719 0.476451 -0.183348 0.359905
H 6.20182 2.84539 11.5522 0.406104 -0.190268 -0.554518
H 3.28712 6.82384 4.5003 -0.375304 0.183585 -0.087647
H 8.96148 12.2021 9.52163 -0.21102 0.345408 -1.26899
H 2.02612 9.32676 1.08046 -0.379447 -0.174437 -0.644384
H 8.5702 5.63389 2.95787 -1.08195 -0.457667 0.123018
H 4.57537 2.22684 2.54119 -1.287737 -0.020268 0.363441
H 4.7649 12.3204 11.3413 -0.931016 0.108062 -0.29528
H 3.66687 6.05372 6.44697 -0.292669 0.537448 0.344186
H 5.13874 0.65786 0.40414 0.630128 -0.983315 -2.211291
H 12.33196 3.61012 11.9448 -0.5584 0.163986 -0.519964
H 8.74582 9.73045 11.9559 -1.501927 2.53837 0.085359
H 10.2114 4.00239 5.79917 -1.058219 0.559754 -0.674488
H 10.9393 12.30649 9.79045 -0.56276 0.090161 0.815334
H 4.54276 8.98249 10.5802 -0.21532 -0.395415 0.314875
H 9.56809 7.61392 4.01345 0.188691 0.507034 -0.207527
H 5.28176 0.045 8.78723 1.711828 0.550599 -1.806138
H 5.9177 4.63342 8.4098 0.028104 0.444629 0.106931
H 11.4692 2.38457 6.58867 0.816625 0.602395 -1.640339
H 9.36488 11.6267 3.60776 0.171344 -0.022221 -0.737433
H 5.41162 3.02812 1.05595 0.400421 0.266038 -0.609188
H 9.47191 8.6941 0.24778 0.329972 -0.41488 -0.612255
H 3.09907 3.6022 2.77484 -0.238116 0.792747 -0.624137
H 0.888 1.70756 10.6525 -0.44495 0.627854 1.052486
H 4.20312 7.50996 8.37578 0.354199 0.398991 0.028674
H 2.17835 12.0857 5.30564 -0.476694 0.003401 -0.741611
H 4.67119 7.36796 0.25965 -0.394086 0.394404 -0.923479
H 11.3255 2.74489 10.9659 1.587143 0.149795 1.580737
H 1.60515 4.39698 8.46684 0.688463 -0.173851 -0.257717
H 1.25647 0.34544 4.12694 0.742314 -1.411072 0.866016
H 0.11328 1.80224 2.82607 -0.902112 -0.115988 -0.770218
H 5.95261 0.05923 7.25523 -0.398703 -0.035205 0.255493
H 10.7283 8.7066 8.55319 -1.22896 1.622014 1.17508
H 0.28467 8.12599 12.2553 -0.917833 -0.598302 0.015615
H 5.06503 9.68481 9.32958 0.752882 -0.05223 -0.261794
H 8.55832 5.58581 0.88793 -1.841164 -0.162767 1.132035
H 7.78875 0.09559 8.46414 0.478363 -0.220348 0.028464
H 11.1177 6.94371 9.06598 -0.569297 -0.551484 -1.604885
H 7.60749 3.67268 5.97112 -0.088387 -0.605933 -0.167054
O 8.48737 6.3992 7.18843 0.05625 -1.478355 0.728478
O 10.308 9.55418 8.95958 1.892208 -0.847952 -3.663414
O 10.2601 11.6442 1.69044 -0.71556 -0.590212 0.533488
O 11.8586 7.67579 0.24335 1.909234 2.026981 1.77114
O 11.5776 9.40984 2.2998 -2.687126 -1.110282 -1.077814
O 2.37728 3.96274 8.93243 -1.082433 -0.40797 0.26459
O 0.67382 1.8292 3.60473 0.465573 -0.360905 0.675698
O 3.4418 5.36854 2.0569 0.883473 -3.248025 -1.918008
O 0.68258 5.11143 7.02079 1.255066 0.813755 -0.770149
O 4.76263 3.53266 7.73713 -1.08195 0.479157 0.229691
O 1.6224 11.8515 4.53332 -0.652033 1.321535 -0.255593
O 5.43103 3.66783 0.21456 0.189116 0.656965 0.607255
O 3.0255 4.952 11.2005 -0.196089 0.721795 0.860762
O 6.80756 8.00025 6.46198 0.763643 -0.637649 -2.074059
O 8.6545 10.1557 5.902 -0.4636 -2.043016 0.887674
O 6.72734 2.23312 10.9097 0.034834 1.450923 -0.012408
O 6.54251 7.40468 0.75146 0.074222 -1.843343 -1.766974
O 7.03077 5.27867 2.2418 1.280031 2.637899 -0.937423
O 9.6446 12.2941 11.0541 -0.652224 0.066338 -0.062487
O 9.36591 5.71611 0.43485 1.643598 -0.141449 -1.142836
O 1.87537 9.0901 0.11571 0.737029 -0.246544 -0.003507
O 12.1074 2.69521 11.6227 -1.302333 -0.103328 -1.08838
O 3.43708 7.4368 3.73654 1.756872 0.07874 -0.162662
O 4.60134 7.0896 7.60973 -1.529195 -1.305211 0.164629
O 7.83104 11.016 0.47835 -0.272004 0.72184 -0.437067
O 1.39286 1.47262 9.87614 1.622882 0.270605 -0.098683
O 9.22946 2.33174 11.3912 -0.421967 0.200274 -0.73566
O 6.85353 4.8641 8.65519 0.55013 0.011697 0.454182
O 8.71533 11.9611 4.23161 0.156632 0.768416 0.108483
O 7.03034 2.88067 6.06641 -0.175115 0.283838 -0.522109
O 9.70971 8.60989 3.99927 -1.140737 -1.274005 0.518206
O 9.38757 5.95036 3.35957 1.13201 1.752327 -0.694798
O 3.79353 12.0604 9.97581 -1.817853 2.536097 -0.227173
O 1.82878 9.42631 2.70614 0.682769 -1.381325 -0.030165
O 5.36636 1.95441 2.07174 0.568525 -0.378647 -1.536322
O 9.37675 4.49566 5.50298 1.225819 -0.639577 0.772813
O 9.14997 3.10927 2.05081 0.255603 -0.233548 -0.21252
O 11.028 6.88327 8.01742 -0.943483 1.209799 1.93594
O 6.10541 0.29949 8.17872 -1.797146 -0.285614 1.721679
O 7.40034 6.77801 10.5726 -1.373425 -1.838552 0.923005
O 6.98124 9.23 8.94214 -1.453246 -1.343036 -0.830252
O 4.25594 9.48404 9.80478 -0.491885 0.035129 0.054652
O 4.0273 7.54108 11.9129 1.07872 1.180395 1.119675
O 3.19347 2.69365 3.08293 -1.00421 -0.454672 -0.108614
O 10.5378 6.71302 10.4747 0.463772 -0.408273 0.90031
O 3.03617 5.67348 5.79852 1.219383 -1.133957 -0.443916
O 0.17263 5.2377 12.0801 -0.204334 -2.071435 -0.687507
O 7.67788 9.02419 2.26885 0.926319 1.353741 2.50647
O 6.05201 7.29565 3.64723 0.38688 -0.133063 0.320947
O 11.7387 3.06298 5.90533 -1.184112 -0.013805 1.766026
O 11.5945 12.101 9.1248 1.510744 -0.69736 -0.339794
O 7.24016 1.64729 3.46226 1.624111 -0.506148 2.810674
O 0.64769 9.86038 10.2345 1.125763 -0.432627 -1.254108
O 11.3966 0.17943 5.76896 2.216871 -0.60017 0.834952
O 9.14723 8.92222 11.7573 1.29031 -2.174496 0.15176
O 5.47692 0.24535 11.9069 0.47156 0.777431 3.196279
O 8.7684 12.3881 8.53137 -0.514865 -0.274476 1.288786
O 4.56899 3.64869 5.00135 0.1244 0.144546 0.511356
O 11.1785 1.69566 1.48867 0.380658 -0.304569 0.784541
N 0.9741 0.14052 0.38635 1.526468 0.081222 0.250994
N 11.9951 4.70802 3.56516 -1.645585 -2.012102 0.434704
N 0.24842 8.2698 4.97437 0.607659 0.573584 1.405531
N 9.14748 3.29734 7.98345 0.320007 -0.28457 0.412769
N 2.48578 1.52214 6.40762 0.904719 -1.968896 -0.006441
N 0.66379 8.7117 5.90943 -0.584796 -0.58834 -1.244972
N 9.92316 2.72128 8.52382 0.06046 0.164488 -0.140817
N 0.2929 5.51741 3.35709 1.824646 2.061557 -0.570278
N 2.03353 2.51381 6.47197 -0.687436 1.827969 0.019987
N 2.06129 0.30536 0.56933 -1.405047 -0.231282 -0.213104
N 4.72888 10.8851 3.42253 -0.18659 -0.45455 -0.855723
N 4.96646 11.4006 4.36259 0.258452 0.450607 0.888648
Na 6.68827 2.64833 8.58959 -0.095596 -0.631179 -0.288644
Na 10.3754 11.3992 7.39684 -0.34654 -0.387933 0.332632
189
energy=-1067.0970327 config_type=nep2xyz pbc="T T T" virial="5.033444186700562 -0.4361070359670415 -0.3340032247792985 -0.4361070359670415 -6.755642736244869 5.306089923078462 -0.3340032247792985 5.306089923078462 0.9656902300785726" Lattice="12.4 0.0 0.0 0.0 12.4 0.0 0.0 0.0 12.4" volume=1906.6240000000003 Properties=species:S:1:pos:R:3:force:R:3
H 10.8415 1.53921 11.1713 0.638206 -0.237134 0.460814
H 10.0512 11.5722 1.60625 0.71063 -0.265133 0.41713
H 7.74148 5.18982 10.9492 -0.150117 0.057234 -0.774468
H 11.7747 1.42421 0.02222 0.01034 -0.441524 2.065816
H 11.4731 1.27543 3.87475 0.389782 -0.41479 -0.324737
H 3.62505 10.3664 5.85728 0.349454 0.043722 -0.429993
H 9.19644 2.09972 3.81428 0.52547 0.398885 -0.133527
H 5.75065 9.09883 11.8172 0.273513 0.27101 0.103396
H 5.90491 6.53694 4.1625 -0.62391 0.393461 0.394497
H 7.72431 11.2702 9.66284 1.418035 -0.307485 0.531297
H 11.0077 3.3 3.16542 0.019986 0.364351 0.307953
H 0.84264 4.06165 5.34031 -0.497362 -0.137743 -0.198257
H 1.86558 0.63587 5.42214 0.944561 0.803433 0.124146
H 0.2707 4.03165 1.86657 2.645166 -0.309052 -0.267616
H 2.68548 12.3512 0.68499 -0.034042 -0.61317 -1.39961
H 2.28762 4.49682 5.24192 0.002054 -0.706238 -0.148326
H 3.7486 6.02243 5.60203 -0.034946 -0.599544 0.327256
H 8.57523 8.36863 5.66659 -0.131215 -0.346581 -0.160852
H 9.22635 11.0025 3.21313 -0.362666 0.171616 -0.035269
H 0.92303 4.48225 10.6732 1.924464 0.598509 0.755794
H 7.65362 2.083 3.7291 0.768968 0.26657 -0.385492
H 8.02163 1.42924 9.80828 0.825431 0.429521 0.629946
H 4.8674 2.51589 6.99895 -0.231152 -1.096408 0.484005
H 11.2848 8.7401 8.74017 0.568384 -1.312732 0.221643
H 8.71678 10.236 10.276 0.09516 -0.510937 0.573934
H 7.43642 2.80277 9.29046 0.186105 0.70235 0.123224
H 11.2694 11.6103 2.65575 -0.529644 0.1748 -0.216675
H 6.65257 3.49785 3.18069 -0.390714 0.047171 -0.854397
H 11.3639 4.60134 1.22084 -0.269162 -0.528257 0.038324
H 9.16577 0.23541 10.573 0.187733 -1.483612 -0.09477
H 6.94874 5.92854 0.54734 -0.508463 0.49582 -0.123964
H 12.3108 3.27332 10.7783 0.318738 0.97131 -0.1061
H 6.04877 3.78013 5.65939 0.056551 -0.114312 -0.015892
H 3.62081 1.59309 6.79446 -0.192537 -0.600073 -0.221728
H 8.87322 1.21987 11.7278 0.333847 -0.268704 0.405523
H 8.31318 7.91226 9.91415 1.426873 0.253277 0.251523
H 6.25563 4.21637 7.22445 -0.051045 -0.031215 -0.176824
H 2.90775 4.88992 12.0839 0.30359 0.591081 -0.72949
H 9.47021 4.55209 5.30243 -1.040651 -0.217095 0.848084
H 5.52553 1.00126 5.84704 -0.274821 0.048659 -0.140989
H 6.56499 10.5327 1.19314 0.13269 -1.277315 -0.869142
H 3.40025 8.23813 1.60639 0.932052 -1.12216 0.311864
H 8.71455 4.82899 12.1151 -0.464145 0.384106 -0.215564
H 3.28336 5.50809 7.80938 -0.0878 0.211151 -1.078971
H 1.96772 3.93362 3.03119 -0.049026 0.029817 0.739124
H 7.90702 8.51842 11.2185 -0.616931 0.717608 1.022242
H 7.23566 11.301 2.3525 0.328336 -0.299611 0.722365
H 2.24748 0.42063 10.8125 -0.369036 1.193046 -0.311069
H 7.85368 0.25126 1.06155 1.03668 0.160397 -0.048072
H 0.27515 8.16673 9.08134 1.74233 0.477748 0.139513
H 11.1183 4.72546 11.5953 0.676141 -0.514311 -0.50943
H 0.34463 0.54934 3.20764 -0.242159 0.114302 0.225481
H 5.73238 10.4289 5.93842 1.283403 0.477773 0.748242
H 8.13961 7.46732 3.84966 -0.872349 0.021732 0.306496
H 11.5338 6.33895 8.36862 1.088236 2.901328 0.768318
H 11.4978 7.09037 3.19807 0.08238 -1.298765 0.512114
H 4.21337 7.36934 3.60798 -0.359533 0.060336 -0.541412
H 10.8613 12.0418 5.17746 -0.627115 -0.250244 1.423697
H 2.8709 5.4557 10.5024 0.212094 0.085546 0.523583
H 4.52534 5.08212 1.2019 -1.048294 -1.2116 -0.8633
H 8.03678 3.96179 5.06024 0.305656 0.07199 0.462352
H 3.19177 2.52904 9.96992 0.660191 0.820057 0.845145
H 11.7492 5.43076 3.18937 -0.099056 0.985349 -0.066167
H 8.75481 1.20799 1.83229 -0.069708 0.543424 1.2187
H 2.73596 7.43313 9.54283 0.082949 -2.594423 -1.452793
H 8.96047 8.98475 7.04139 0.048485 -0.314043 0.153605
H 9.36767 6.07702 8.64411 0.949924 -0.026168 -0.262689
H 6.64445 8.16272 0.37346 -0.31162 0.469794 -0.145121
H 11.6316 5.49188 5.23147 0.249913 -0.976169 -0.088721
H 5.59035 0.06372 0.20105 0.576986 0.891492 -0.672189
H 5.98557 5.00893 9.04671 -1.62975 1.021371 0.705319
H 6.54524 3.66163 0.23568 0.441905 0.209468 -0.400133
H 3.84417 0.21447 12.167 1.140679 0.746641 -0.571549
H 10.9338 9.31049 2.38333 -0.428351 -0.74189 -0.653362
H 6.69157 6.31247 2.04906 -0.670293 0.296083 -0.134417
H 4.16591 10.7669 4.40283 -0.052801 0.231435 -0.228474
H 1.31697 6.64833 12.0958 -0.307157 0.104959 0.352809
H 3.96537 3.35594 11.1018 -0.152482 0.040202 0.42358
H 5.74196 1.69721 0.007 0.151476 -0.427218 -0.321283
H 10.5127 8.04266 1.49399 -0.381866 -0.339302 -2.341532
H 9.10008 2.68147 6.60833 -0.124767 -0.352953 -0.288611
H 2.12654 8.08367 10.7933 -1.424961 -0.590595 1.271287
H 9.41128 8.16976 3.54099 -0.002569 0.725112 0.013452
H 6.20767 1.70403 4.63124 -0.013686 1.750663 -0.493918
H 2.02878 1.67997 2.05759 -0.079421 0.921758 -0.195815
H 4.17684 4.60417 6.21978 0.30636 0.345558 -0.03774
H 2.60255 0.42725 2.68395 1.160324 -0.562202 0.914965
H 10.251 10.6786 7.39396 0.750639 -0.728376 0.044962
H 11.5501 7.75261 12.1628 1.991496 0.313915 -0.680655
H 11.3745 4.98779 6.70154 0.567063 -0.829773 -0.768451
H 10.1135 0.2809 6.46478 0.260971 -0.123286 -0.497951
H 3.98846 10.6329 11.3081 0.310588 -1.362743 -0.398824
H 8.26077 10.067 3.86615 -0.48714 -2.210323 0.495386
H 5.5275 10.6362 9.75701 -0.42408 -0.569684 0.340231
H 4.75547 7.3667 1.48872 0.426772 -0.06358 -0.488932
H 10.8616 3.49312 4.80281 0.283161 -0.44672 -1.084937
H 7.1264 9.84125 6.38406 0.431632 -0.799179 0.154673
H 5.044 3.45715 0.72109 -0.402508 0.587501 0.011355
H 10.0173 7.98822 11.7137 -0.463497 0.525122 -1.082495
H 2.81912 3.91684 1.70028 1.517447 0.610511 -0.861011
H 0.91622 1.25482 10.5463 1.888481 0.106293 -0.245764
H 7.50013 5.46045 8.68512 -0.827243 0.116518 -0.085486
H 4.87045 11.7105 2.57617 -0.400777 -0.116937 0.468207
H 0.68423 7.11483 1.08318 0.271176 0.318702 -1.42925
H 9.67188 10.288 8.71742 -0.516156 0.407975 1.048037
H 2.21213 2.17241 5.41968 0.072084 -0.152217 -0.489991
H 4.78554 0.07335 3.90686 -0.379742 0.067152 -0.112065
H 4.33766 8.29313 4.85061 0.132404 0.02392 -0.033508
H 6.1197 10.8642 8.30267 0.086537 0.111193 -0.128347
H 8.58353 7.12339 7.7136 0.078715 0.071684 -0.165214
H 3.32607 4.66107 9.07129 0.1932 -0.017977 0.085032
H 3.80092 9.09991 10.811 -0.315955 -0.038259 -0.73121
H 10.508 5.97737 12.1891 0.054367 0.169167 0.470595
H 8.4429 1.6681 7.60212 0.609053 0.074657 -0.511761
H 11.7467 4.85813 8.77459 0.186028 0.039767 0.617603
H 6.66492 5.14569 3.98551 -0.047196 0.414876 -0.088007
O 7.43508 1.85273 9.17192 -0.803896 -0.415616 -1.193
O 8.66436 6.73193 8.61485 -1.061577 -0.477755 0.387565
O 11.7451 4.08909 1.98847 -2.325754 0.526533 0.384658
O 3.23231 5.58741 8.76953 0.113488 -0.288969 0.895053
O 10.6682 11.0051 2.15337 -0.574883 0.526395 -0.067896
O 2.62942 1.26807 5.45612 -1.524104 -0.364092 -0.099785
O 4.43496 7.36333 4.5588 -0.018501 -0.017077 0.742772
O 2.37765 5.34529 11.3272 -0.585393 -0.144301 1.057304
O 1.66411 3.80113 4.87631 0.432146 0.367294 0.295705
O 4.48106 1.60231 7.24988 1.049781 1.263628 0.337819
O 4.21502 11.9104 3.29913 0.940389 0.360338 -0.383209
O 5.96283 2.98756 0.58368 0.990628 -1.276137 0.399114
O 3.94895 3.17915 10.1549 -0.599215 -1.145307 -1.209445
O 6.61135 6.09207 3.68176 1.208129 -0.766666 -0.043403
O 8.33024 8.35397 6.62327 0.356355 0.748903 0.148509
O 5.55741 0.78099 11.9171 -0.329612 -0.550968 0.71355
O 6.6166 9.03785 12.2916 -0.094966 -0.794541 0.417581
O 6.37919 6.51177 1.12194 0.673251 -0.071094 0.210516
O 9.3353 1.13484 10.8698 -0.310737 1.383508 0.041276
O 10.5555 4.99339 12.3348 -0.942263 0.438556 -0.204987
O 2.7415 8.16705 10.0978 0.714939 2.543207 0.321639
O 10.2788 9.93979 8.06294 -0.122145 0.447899 -1.413592
O 10.7563 8.32937 2.35298 0.74471 1.173086 3.23621
O 6.82048 4.72397 8.74998 2.471947 -1.011914 -0.442032
O 8.78643 0.60799 1.08019 -0.956068 -1.077902 -1.422655
O 1.91391 1.23046 10.3151 -1.358121 -0.91813 0.588945
O 11.7824 1.67033 11.5287 -0.393509 0.736771 -2.77256
O 3.91336 7.45954 1.9469 -1.295784 1.061821 0.073265
O 6.59903 10.6368 6.46437 -1.554343 0.494403 -0.709114
O 5.62199 3.8697 6.54843 0.114381 -0.041692 -0.322342
O 8.30833 10.9583 3.58617 0.850942 1.874664 -0.655274
O 8.55544 8.33267 4.02244 0.830448 -1.058095 -0.538968
O 3.08432 12.0335 12.19 -1.055083 -0.180195 1.661544
O 11.9157 0.38709 3.71552 -0.018728 0.770783 0.061184
O 5.91372 0.85903 4.95353 -0.240482 -1.677017 0.653878
O 8.65671 4.26621 5.79924 0.620878 0.089822 -1.105742
O 7.77412 5.09504 11.8952 1.09655 -0.826782 0.744662
O 11.2091 5.47922 8.26448 -1.598409 -3.083638 -1.104757
O 6.12877 11.1805 9.23129 0.466657 0.742524 -0.535894
O 8.68805 8.47249 10.6546 -0.50591 -0.570967 -1.133643
O 8.71917 11.1586 9.97138 -1.903087 0.470725 -1.025588
O 4.43174 9.83991 10.8612 0.443069 1.855617 1.291379
O 0.75075 7.35629 0.11612 0.793893 -0.661957 1.028877
O 1.92927 3.87433 2.07197 -1.742343 -0.925109 0.416464
O 0.03668 4.22575 10.4903 -2.418921 -1.749302 -0.508505
O 3.42407 5.23873 6.13387 0.279417 0.760744 -0.468345
O 4.0335 4.30182 0.79672 -0.0811 1.614517 0.333279
O 6.52712 11.342 1.68591 -0.895163 1.394064 -0.041592
O 4.27965 10.1455 5.16815 -0.249506 -0.594447 0.814528
O 11.6602 4.63377 5.77466 -0.911224 1.798164 0.899769
O 10.2821 11.8339 5.97615 0.463096 0.578726 -0.739923
O 8.47338 1.55501 3.45297 -0.763572 -0.412561 0.431587
O 11.7813 7.89816 9.03929 -2.075548 1.099593 -0.452785
O 10.5974 2.93957 3.99942 0.374751 -0.342628 0.830917
O 10.6405 7.56901 12.3052 -2.119246 -0.838127 1.086727
O 1.96293 0.71923 2.04315 -1.002387 -0.175221 -0.445369
O 9.06756 1.71186 6.82327 -0.76894 0.184421 0.718278
O 6.76729 3.34069 4.11164 -0.023131 0.121256 1.198984
O 11.7076 6.26078 3.74199 -0.061853 0.324808 -0.464797
N 0.43917 10.9399 11.1253 -0.04139 -0.030489 -0.2804
N 1.25266 10.5059 4.40351 0.04234 1.150177 1.531649
N 5.21529 8.37035 7.58652 -1.118919 1.521386 -0.39798
N 12.324 1.76336 7.93702 1.990563 2.474063 -1.084589
N 2.92287 11.2448 7.72434 -0.39125 -0.352335 0.878225
N 5.76569 7.46455 7.85254 0.90039 -1.604424 0.513266
N 0.5997 2.59578 7.58646 -2.013259 -2.520834 1.159329
N 1.25155 9.82713 3.54687 -0.015982 -1.207282 -1.55107
N 2.54487 11.0039 8.74084 0.348877 0.321366 -0.931829
N 0.11326 10.7715 12.1655 0.011656 -0.094025 0.20558
N 2.04749 7.84951 6.93202 0.701743 1.209907 1.111349
N 1.57251 7.15299 6.23477 -0.986442 -0.984277 -1.136914
Na 5.4005 1.23219 9.60776 -0.439446 -0.25805 -0.110053
Na 8.10891 0.07529 5.2006 -0.285657 -0.071964 0.184772
189
energy=-1064.89751398 config_type=nep2xyz pbc="T T T" virial="-2.653485269349714 9.272537382656015 9.963582640892872 9.272537382656015 -0.2859263719589627 -5.101822799647505 9.963582640892872 -5.101822799647505 -13.55415003285084" Lattice="12.4 0.0 0.0 0.0 12.4 0.0 0.0 0.0 12.4" volume=1906.6240000000003 Properties=species:S:1:pos:R:3:force:R:3
H 7.47506 2.07925 0.47592 -0.029273 0.292854 -0.259555
H 12.1122 9.84314 1.84332 1.059714 -1.444244 0.85692
H 9.08827 4.27242 2.14817 0.424567 -0.887453 0.398962
H 8.63674 1.95678 1.46981 0.310589 0.364782 0.01663
H 2.37151 11.252 3.27009 0.186629 -0.301207 0.812929
H 6.92179 8.33293 2.3021 0.032063 0.097994 0.305023
H 11.0609 11.7366 4.40655 0.944519 -0.26567 0.991605
H 8.23654 7.65503 0.2204 0.727671 0.43947 -0.537174
H 7.44662 6.14084 4.97856 -0.529007 -0.378822 -0.344873
H 5.69773 8.04906 8.69923 -0.630596 0.545333 0.081099
H 0.25852 11.8163 4.88307 -2.062835 -0.695313 0.59182
H 0.21809 3.89757 7.44483 0.585798 0.686538 0.841758
H 1.19064 1.76172 9.8497 0.049509 -0.30841 0.289675
H 9.46579 9.45871 11.261 -0.784533 -0.822138 -0.000776
H 2.30796 9.9537 8.74456 0.73571 -0.486396 0.09276
H 1.07715 5.04942 8.1828 1.168818 0.854193 -0.521691
H 2.6384 6.5363 6.94544 0.185608 -0.16019 -0.059776
H 5.50066 8.65934 6.43576 0.150619 -0.068148 -0.007527
H 11.3289 8.64155 4.08063 -0.445353 -0.098921 -0.487185
H 10.3156 6.97111 11.5205 -1.097022 1.154001 -0.247475
H 8.19199 1.82964 4.25337 -0.079264 0.110017 -0.091546
H 5.20391 2.78804 8.0612 -0.140178 1.637412 -0.823424
H 5.80755 5.18056 4.20257 0.686147 -0.633091 -0.55348
H 11.908 9.61417 10.6329 -0.494532 -0.475365 0.189902
H 6.02273 7.85549 10.198 -0.897886 0.401466 -0.114507
H 5.03268 1.70362 8.96277 -1.289553 -1.237363 1.864918
H 1.10552 9.66477 2.63685 -0.866228 -0.300612 -0.475129
H 4.50228 6.14513 5.28518 0.250893 0.33832 0.536719
H 9.87033 10.9838 11.0791 -0.749965 0.250337 -0.177783
H 8.76429 0.52998 12.0831 0.551032 0.235862 -0.769017
H 8.37475 5.94659 3.57467 -0.444159 0.098503 0.656156
H 9.025 7.62741 10.6263 0.71264 -0.738414 0.581386
H 9.23237 2.61584 5.12369 0.12923 -0.360387 -0.108303
H 6.49945 4.96594 2.7592 0.12125 -0.230218 -0.332735
H 10.0431 0.59324 11.1615 1.463954 0.706053 0.525236
H 3.812 5.07032 7.93999 0.505855 0.09885 -0.150777
H 8.60966 3.19111 8.29045 0.24311 -0.395918 -0.536438
H 0.93609 3.81315 11.3663 -0.767754 0.775325 1.713266
H 7.95182 5.36172 8.87248 -1.647494 1.105763 1.538425
H 3.95772 4.50241 3.31235 -0.92674 -0.184549 0.042081
H 9.21987 11.6249 3.68607 0.044451 -0.246405 -0.283642
H 1.99286 7.82759 1.62883 0.48796 -0.068627 -0.839222
H 9.58979 2.92791 3.15322 -0.137935 1.088405 -1.391625
H 0.1704 7.49905 11.7054 0.623422 0.559102 0.439677
H 3.18557 5.8561 4.5062 -0.033966 0.808593 0.790679
H 5.16029 5.1198 8.6648 0.773295 0.426322 1.076206
H 9.93012 0.58361 3.78896 -0.296396 0.620317 -0.077301
H 12.3572 0.63167 8.78475 0.331133 -0.370948 0.558628
H 6.49747 1.78436 2.75453 0.339128 0.607295 1.618458
H 0.70646 10.362 11.2109 -0.059454 -2.091376 0.230386
H 10.5438 11.2716 1.91696 -0.302921 0.100344 -0.6129
H 3.058 9.73956 3.22704 -0.393414 1.398541 -0.17472
H 7.68942 9.76118 3.99624 0.033981 0.304937 0.025139
H 6.01319 5.19751 6.01368 -0.141919 -2.640111 2.371331
H 11.5888 5.60854 8.68716 -0.283335 -0.024356 -0.179648
H 11.2327 2.81422 1.74137 0.007506 0.650744 -0.064093
H 1.91268 3.16606 3.86142 0.436868 0.750968 -0.515098
H 11.6912 0.14493 6.84417 -0.34482 0.082282 0.453472
H 3.60736 4.31304 12.2865 0.297742 -0.614256 -0.779265
H 1.57633 4.70693 0.10191 -0.542168 -0.352844 -0.150468
H 9.00225 4.44275 6.50283 0.438169 0.180155 -0.385649
H 2.89697 3.00738 10.4511 -0.169992 -0.055582 0.13222
H 0.19199 3.32289 1.10968 0.566301 1.949252 -1.301836
H 6.35212 3.10219 3.63782 -0.249149 0.721571 -0.089246
H 3.21802 10.7701 11.7801 -0.764727 -0.606866 0.476012
H 6.02083 7.23472 6.42999 0.155487 -0.863529 -0.329686
H 10.6013 7.0491 7.5867 0.461028 -0.836909 0.669598
H 4.74012 7.07597 0.14948 0.667182 -0.087379 -0.090119
H 0.26164 2.86773 5.31633 0.332149 0.10688 -1.019451
H 6.28224 11.392 10.0237 0.979052 0.506105 -0.883738
H 1.80007 8.68897 10.2931 1.423138 -0.026336 -1.227724
H 5.60863 3.94155 10.1717 -0.558512 0.171735 0.650028
H 1.82599 11.4211 8.8428 1.26795 -0.28598 -0.610337
H 5.20617 8.76918 3.98771 -0.170323 -0.418536 0.529664
H 7.94134 6.70127 1.41578 -0.540021 1.1429 -0.122394
H 7.19173 7.6173 3.60628 0.132424 -0.234529 0.607227
H 3.23036 5.77093 0.32346 -0.038955 -0.299557 0.413049
H 3.67491 2.34929 11.5569 -0.043616 -2.675313 2.042025
H 7.72802 12.0161 10.275 0.515877 0.372937 0.388749
H 4.04347 7.92685 4.72146 0.021025 -0.267442 0.072224
H 9.80615 11.9588 7.69112 0.284897 0.303011 -0.101109
H 2.52615 10.5943 0.76285 0.030868 0.223226 1.259914
H 9.40871 4.93921 5.02099 -0.332444 -0.17197 1.028286
H 8.31023 5.19985 0.81414 -0.120233 -0.22416 -0.243907
H 3.97764 11.1274 9.74618 -1.221078 0.166059 -1.4249
H 2.49993 7.09475 8.44578 -0.333314 -1.231883 -0.929352
H 4.85169 10.0218 10.275 0.507158 -2.277219 -0.450365
H 11.7508 0.04969 0.31317 -0.439874 0.414165 -0.425211
H 9.1916 7.87833 8.44703 -0.649947 0.03587 0.199256
H 9.54989 5.41066 8.75531 1.209507 1.358609 1.138703
H 11.4638 1.6107 7.14306 0.076052 -0.296316 0.505362
H 3.32519 11.1489 7.13482 0.177125 -0.030937 -1.11965
H 9.90819 7.95392 4.05956 -0.351772 -1.274849 -0.205909
H 6.21187 0.63325 4.8725 -0.344283 -1.046706 1.071609
H 2.58993 8.5967 0.43101 -0.018763 0.044701 -0.019223
H 11.3956 3.66942 5.9511 -1.225858 0.49731 -0.831254
H 7.36904 11.037 4.9391 1.232314 -0.864045 -1.11777
H 5.78474 5.42341 10.946 -0.019431 -1.310529 -0.306714
H 7.76802 8.26466 8.23625 -1.35183 0.290221 -1.014041
H 2.76702 4.61033 2.35518 0.188472 0.109167 0.902265
H 0.11856 0.39438 10.4099 -0.030283 0.144803 0.016935
H 3.43961 8.42321 9.83082 -0.282559 0.059841 0.247424
H 2.27801 12.1021 5.41704 0.039313 0.165419 -1.736333
H 6.26599 6.86603 0.32714 2.504848 1.123533 1.895135
H 11.9408 1.60856 0.16953 0.218239 0.285625 0.527511
H 1.00587 3.23245 9.41034 -0.003521 0.676109 -0.379774
H 1.76168 0.85454 4.28531 0.056342 -1.651327 0.533282
H 0.58404 2.546 3.16125 0.81718 0.077587 0.16318
H 5.29831 12.0585 5.82334 -0.651703 -0.021457 -0.222568
H 9.53665 6.87285 6.42171 -0.479705 -0.948644 -0.495072
H 12.2452 5.87905 11.728 0.667375 0.368934 0.309464
H 3.7465 10.514 5.72838 0.219654 -1.691245 -0.820276
H 10.4215 10.6062 0.35753 0.380274 0.06878 0.848685
H 8.60863 11.2734 8.38962 -0.021346 -0.282935 -0.367362
H 11.4186 6.60327 9.83393 -1.114068 -0.172803 -1.144308
H 9.4756 1.90982 8.34443 0.072318 0.011518 -0.052058
O 5.6577 2.00649 8.35068 1.308247 -0.123829 -0.927727
O 10.0886 7.47128 6.89844 -0.088207 2.379936 -0.762343
O 10.1808 10.0779 11.2301 1.044554 0.789416 -0.317721
O 11.9575 6.80068 11.5053 -1.147649 -1.347036 -0.890256
O 0.29113 9.1514 2.34813 -0.520995 1.428741 -0.497907
O 1.4417 2.69772 10.1026 -0.130523 0.570045 -0.010214
O 1.20866 2.51456 3.9455 -1.332766 -1.003313 0.129942
O 3.10725 4.82186 0.53323 -0.287228 1.338982 0.685892
O 0.41553 4.38016 8.33141 -1.625974 -1.200928 -0.455743
O 5.90325 4.51514 3.39314 -0.785074 1.220755 0.513231
O 1.84246 12.2457 4.50111 -0.258231 1.837815 0.927208
O 6.17077 4.696 10.3698 0.687228 1.302596 -0.144079
O 3.73382 3.06271 10.9928 0.937271 2.548168 -1.955992
O 6.04312 5.95262 5.50427 0.109587 2.173513 -2.251482
O 6.07234 8.06053 6.95278 -0.026488 1.103708 0.820755
O 7.13717 11.7176 9.57745 -1.305802 -0.594505 0.150098
O 7.6558 7.68077 0.98866 -0.516501 -1.166506 1.194589
O 8.33305 6.27445 4.50938 1.246562 0.40867 -1.015874
O 9.14197 0.30988 11.173 -1.781602 -0.907967 0.32144
O 10.9642 11.0669 1.05272 0.618918 -0.150747 0.294174
O 2.42596 10.3759 12.241 0.934457 0.505025 -1.507637
O 11.7845 0.80211 12.0555 0.032446 -1.254935 -0.776825
O 4.49409 8.7981 4.67634 -0.213038 1.31463 -0.348618
O 2.51536 8.58625 9.54603 -1.291574 -0.737319 0.960223
O 6.59023 2.14379 3.68999 0.095484 -2.230327 -1.368285
O 0.60153 0.43246 9.5511 -0.010579 -0.677022 -0.021215
O 8.02868 1.43263 0.91791 -0.305909 -0.466047 0.33577
O 2.65854 7.74001 0.89814 -0.460352 -0.116922 0.503124
O 8.12197 10.5284 4.4445 -1.576022 0.80009 1.246092
O 8.83113 2.36125 7.78446 -0.310199 0.266924 0.711256
O 10.3682 8.76827 4.16762 0.662603 1.316301 0.168646
O 9.61122 4.28859 5.74725 0.168095 -0.167063 -0.277276
O 2.60452 10.8627 8.50279 -1.869373 1.681719 0.73852
O 2.52676 10.4374 2.74513 0.909907 -1.144578 -0.40695
O 8.10233 5.37312 1.73637 0.179942 -0.367338 0.674641
O 8.72637 5.06386 8.46965 -0.2537 -2.827044 -2.886249
O 9.71293 3.42196 2.26827 -0.499911 -0.660662 1.031782
O 10.9378 6.31591 8.96018 2.32688 -0.170841 1.796361
O 6.20322 12.2754 5.54627 0.989677 1.221292 -0.80026
O 4.73952 4.73102 7.91167 -1.120245 -0.773355 -0.978049
O 5.3599 8.29295 9.61058 0.983597 -0.779883 0.04494
O 3.64974 11.3329 6.18034 -0.245337 1.50317 1.837017
O 5.54612 6.66053 12.181 -3.352855 -0.72487 -2.060083
O 2.94893 4.54404 3.33761 1.305423 -0.178744 -1.160494
O 9.4165 7.44444 11.5214 -0.02119 -0.114996 -0.85091
O 2.40037 6.26709 7.85531 0.118019 1.196272 1.001726
O 0.66975 4.39294 12.1934 0.933308 -0.591999 -1.771695
O 9.97871 12.1404 3.30793 -0.090631 -0.74955 0.211436
O 6.6707 8.35773 3.27391 0.268819 0.49601 -0.897981
O 12.1896 3.16906 6.10328 0.056958 -0.646966 1.917636
O 11.4685 0.74174 7.63305 -0.25736 0.194081 -2.167487
O 9.13726 1.82034 4.53589 -0.031025 0.856632 0.435681
O 0.37588 9.42136 11.0204 0.73429 1.955791 -0.330514
O 11.6825 11.5637 5.21538 1.375329 0.809124 -0.875958
O 8.36247 8.08488 8.94509 1.625456 -0.212643 0.893968
O 4.65919 10.931 10.3683 0.690995 1.986942 1.538144
O 9.01694 11.4316 7.50693 -0.17154 -0.133585 0.602991
O 3.55371 6.45602 5.22374 -0.916101 -1.050455 -1.003195
O 12.1703 2.59532 1.52002 -0.796768 -2.132513 1.762171
N 3.58499 1.08553 1.16239 0.425297 0.107896 -0.454202
N 0.44888 6.34076 3.32725 -0.674631 -0.295709 -0.105457
N 0.49805 8.18805 5.65637 -1.113094 -0.291383 -0.488822
N 9.16378 3.56941 11.2801 -0.305015 -0.413156 0.182298
N 2.45966 2.93971 6.65155 1.205773 -1.254354 -0.367824
N 1.48636 8.45762 6.04609 1.249876 0.512603 0.547799
N 9.71475 4.48136 11.0001 0.406674 0.237289 0.101797
N 11.794 5.99887 3.34498 0.648367 0.183404 0.03567
N 3.07271 2.05652 6.35405 -0.862296 1.267511 0.450751
N 2.80974 1.03319 1.94211 -0.351676 -0.09513 0.28408
N 6.12308 10.5484 0.96827 0.020214 0.071948 0.007096
N 5.22339 10.1759 0.44604 0.292575 -0.204351 0.36832
Na 7.20835 0.56872 7.6223 -0.037723 0.247617 -0.217724
Na 9.76026 9.82439 5.98024 0.055235 -0.006255 -0.058787
189
energy=-1064.32304435 config_type=nep2xyz pbc="T T T" virial="-12.061435154045977 -7.819890514605131 6.252156705062793 -7.819890514605131 6.5222438960554525 4.833508740107873 6.252156705062793 4.833508740107873 -2.474898801459917" Lattice="12.4 0.0 0.0 0.0 12.4 0.0 0.0 0.0 12.4" volume=1906.6240000000003 Properties=species:S:1:pos:R:3:force:R:3
H 10.374 1.34643 0.44864 1.163813 1.060765 -1.519606
H 9.58118 10.988 1.75929 -0.385247 -0.43559 -0.003575
H 7.1409 4.10694 11.4371 0.537101 -0.145275 0.975273
H 10.5103 1.72547 11.3189 -0.265411 -0.107494 -0.036468
H 11.7476 0.90886 3.69881 -0.180631 0.472091 -0.860842
H 5.46631 10.6242 4.21943 -0.916257 1.691986 -0.222073
H 9.28552 2.0144 3.88593 -0.731553 0.251272 -0.655193
H 5.28538 9.05174 11.6089 0.845184 -0.165072 0.518252
H 6.4077 6.4861 4.10612 -2.31022 1.227454 1.127597
H 8.79569 11.8077 8.79531 0.315929 -1.205069 0.963909
H 11.19 3.03075 3.54927 0.34401 1.203223 -1.296399
H 1.14845 5.33108 4.30296 0.042071 0.326319 0.165414
H 3.0785 1.23844 4.20793 -0.108797 0.062659 0.434819
H 12.3938 4.52864 1.98816 -0.713637 -0.41233 0.840006
H 2.78877 11.6399 0.48321 0.14213 0.68572 -1.813881
H 2.67589 4.96197 4.67694 -0.419925 0.494808 0.814195
H 3.89917 6.30411 5.38108 0.406116 0.44684 0.032266
H 9.30434 8.46856 5.67727 0.200745 -0.284415 0.127052
H 9.14682 10.6032 3.86746 0.366966 -0.324933 -0.915912
H 1.11684 4.85637 11.0191 -0.30633 -0.195704 0.045538
H 7.69076 2.45309 3.87771 -0.324662 0.884575 -0.462386
H 7.75286 2.25681 10.1952 -0.445853 -0.628981 -0.52475
H 5.16367 2.33196 6.97736 -0.691437 0.311105 -0.097131
H 11.872 9.02528 8.68715 -0.008341 -0.940743 -0.204171
H 8.84801 10.5264 9.83466 0.336391 0.80026 -0.697017
H 6.98428 3.43369 9.70212 -0.688949 1.640943 -0.264957
H 10.8298 11.1218 2.51777 1.546429 1.095448 0.670729
H 5.89947 3.31212 3.13137 0.638679 -0.45396 -0.047177
H 10.9774 4.48057 1.52251 -1.311228 0.068241 -0.894529
H 8.59729 0.14185 10.8259 -0.157389 0.103659 -0.37479
H 7.35435 5.83829 0.46464 -0.119981 -0.10113 -0.556108
H 0.7046 3.35573 10.7168 -0.068462 -0.192034 0.171618
H 5.93162 3.76352 5.008 0.477677 -0.655731 0.650423
H 3.66634 1.78866 7.04936 0.561921 0.170837 -0.368108
H 8.37648 0.90777 12.1662 -0.138702 0.273658 0.505067
H 8.04638 8.1737 9.5927 -0.323116 -1.691798 -1.927152
H 6.4351 4.33932 6.5491 -0.560758 -0.307512 -0.229297
H 2.95097 5.51476 11.9238 -0.371749 0.323186 0.316195
H 9.3529 4.72202 5.90732 -0.689807 0.444746 0.666965
H 5.47984 0.81808 5.65749 0.511348 0.590261 -0.353255
H 6.69769 10.3145 0.78698 -0.615765 -0.968808 -0.696336
H 4.39673 5.61052 1.2343 -0.323701 0.350927 0.376328
H 8.52956 4.22514 12.2623 -0.972369 -0.948253 0.04025
H 3.90826 5.53603 7.6608 -0.397182 -0.152629 1.476715
H 1.98771 3.63063 2.78076 -0.450611 -0.20032 -0.406563
H 7.54419 8.73316 10.9148 0.887289 0.199118 -0.515069
H 6.76477 10.4199 2.38411 0.627294 0.393492 -1.75584
H 1.61605 0.95729 11.166 -0.319621 -0.876499 0.574862
H 8.04691 12.2362 1.41111 -1.381942 -1.677646 0.132112
H 0.72815 8.16331 8.94196 0.241642 -0.321703 0.121676
H 10.7042 4.20701 11.949 0.872826 -0.900739 -0.785623
H 0.55053 0.0094 3.28301 0.672127 -0.165836 -0.336552
H 6.98299 11.607 7.6015 -1.895045 0.42924 0.797376
H 8.67432 7.00106 4.07931 0.334966 0.340876 0.158938
H 11.8905 6.23309 8.46712 -0.049119 0.294885 0.412371
H 10.9172 6.65435 4.62214 0.540587 -0.990485 -0.418677
H 4.41743 7.02177 3.41837 -0.094951 0.083177 -0.222551
H 11.5091 12.3034 4.88143 0.685073 0.325429 1.569819
H 1.47574 6.05961 0.06531 1.106357 0.246478 -0.473894
H 4.78991 4.91712 11.5491 1.044005 0.481207 -0.566457
H 7.77768 4.97125 5.48053 0.738797 0.351084 0.155328
H 2.60826 2.38263 11.1855 0.023044 0.270092 -0.19564
H 11.4876 5.47838 3.63168 -0.17575 0.610953 -0.056475
H 8.33863 1.14879 2.20124 0.110215 0.364232 0.722973
H 3.14907 7.27679 8.87994 -0.092067 -0.45669 0.059749
H 9.787 9.29639 6.94804 1.733396 0.635256 0.534603
H 9.48263 5.67424 8.94344 -0.033464 0.230346 0.238076
H 6.00185 7.99489 0.19928 0.296433 -0.578001 0.150221
H 11.3545 4.72544 5.34477 -0.397846 0.460454 1.11533
H 6.40502 0.84365 11.4977 -0.628616 -0.737466 0.130724
H 5.53872 5.22929 9.66656 0.479299 0.104645 -0.337641
H 6.53542 3.03037 0.76484 -1.369225 -0.067857 1.160929
H 3.89095 12.1374 11.8007 -1.24969 -0.436666 0.419299
H 10.8469 8.94719 2.10865 -0.267783 0.310073 -0.319285
H 6.94552 6.38052 1.76329 -0.186464 0.134729 1.316546
H 6.80171 9.99028 4.5487 -0.820011 -0.130926 -0.693054
H 0.19415 7.02079 1.88161 -0.7892 0.5958 0.065946
H 3.63349 3.52079 11.3868 0.543178 0.920707 1.044803
H 5.51378 1.38088 0.18938 -0.654121 -0.095486 -0.092755
H 10.3387 7.83269 1.1483 0.116661 0.095717 -0.150096
H 8.44868 3.32414 6.81539 0.012852 1.746503 -0.41695
H 2.36654 7.08431 10.208 -0.121062 -0.442083 0.741655
H 9.89355 7.75893 3.37277 -0.488907 -0.077814 0.669969
H 6.45483 1.68071 4.65276 -0.893014 -0.084115 0.474951
H 2.12482 1.16167 1.82503 -0.310659 -0.784786 0.042545
H 4.41265 4.92509 6.0015 0.496844 -0.101581 -0.111213
H 3.2116 0.2277 2.30507 0.030051 -0.55541 0.068056
H 11.6154 10.9852 6.98583 -0.837656 -1.235868 0.587608
H 11.5948 7.20047 10.8962 1.434139 0.208573 -0.736749
H 11.275 4.51008 6.95543 -0.358685 0.103112 -0.353984
H 11.9872 0.69182 6.26826 0.51731 0.231619 -0.118935
H 3.41466 10.2728 10.9445 1.292919 -0.217635 -0.4901
H 8.51577 10.1064 5.14441 0.674123 -1.445816 1.910003
H 4.84791 10.9018 9.55103 0.283815 0.670854 -0.446989
H 3.55282 5.26939 2.48353 0.125589 0.549128 0.048029
H 11.1358 2.45394 4.9667 -0.068108 0.433379 0.619214
H 7.97181 10.5471 7.18345 0.301997 0.152724 -0.173722
H 5.05219 3.42969 0.77069 -0.645322 0.744598 -0.463977
H 10.1645 7.53413 10.7631 -1.228238 0.663532 -0.634929
H 2.46374 3.56901 1.28264 -1.145278 -0.886373 1.02952
H 0.12714 1.39742 11.7154 0.087531 -0.247425 0.302919
H 7.15238 5.4954 9.54393 -0.068999 0.089201 0.068124
H 5.66436 12.3054 2.29706 -0.575528 -0.225653 -0.290585
H 1.68702 6.92351 2.22048 0.5097 0.180697 -0.007584
H 10.7861 10.9458 8.20786 -1.375633 1.227647 2.040828
H 2.85279 2.65084 4.80446 -0.230952 -1.768882 0.553548
H 5.30594 0.41682 3.64438 0.25388 0.324874 1.054341
H 4.5177 8.29798 4.43825 0.489193 -0.792823 -0.347543
H 4.53114 11.4622 8.16441 0.068229 0.305817 -0.164966
H 8.48187 5.80942 7.8235 -0.221314 0.107926 -0.232762
H 3.21322 5.09098 9.1175 1.059137 0.336775 -0.994086
H 3.77199 9.04207 9.99673 -0.202923 0.043886 -0.021719
H 10.4589 5.68503 12.2281 -0.177507 0.149172 -0.500974
H 7.9037 2.19416 7.66503 1.235613 0.367559 -0.821262
H 11.9159 4.93511 9.38191 0.757451 -0.345713 1.006455
H 6.97841 5.07935 3.74078 -0.171256 0.36779 -0.213528
O 7.13105 2.52764 9.46996 0.550407 -1.297618 0.110298
O 8.56603 5.98476 8.77941 0.305249 -0.120011 -0.008318
O 11.4763 4.33778 2.33146 2.008005 0.109954 0.711576
O 4.00787 5.50939 8.68805 -0.658227 -0.309658 -0.477851
O 10.1606 10.4776 2.35108 -0.890814 -0.1335 -0.409504
O 2.85205 1.67058 5.05428 0.05593 1.749039 -0.970108
O 4.49613 7.31829 4.35308 0.182427 0.679843 0.303172
O 2.10219 6.06109 11.6865 -0.321861 -0.402264 0.379038
O 1.87601 4.7085 4.17769 0.359601 -1.050067 -0.813482
O 4.56973 1.6553 7.37962 0.30135 -0.093397 0.020833
O 4.89405 12.3556 2.89583 -0.100638 -0.364232 -1.125109
O 5.63735 2.82639 1.24776 1.977557 -0.612307 -0.470995
O 3.3551 2.8369 10.7674 -0.587888 -1.3745 -1.279219
O 7.12676 6.06578 3.70527 2.301736 -1.818 -1.12711
O 9.05089 8.90092 6.51894 -2.053663 -0.170208 -0.502161
O 5.46838 0.72532 11.842 1.054818 0.577383 -0.101607
O 6.10849 8.83045 12.133 -0.746409 1.125039 -1.060755
O 7.04728 6.66271 0.85862 0.221055 -0.183585 -0.485885
O 8.14223 0.92485 11.2148 0.501634 -0.49806 -0.132811
O 10.1977 4.78028 0.10577 -0.885928 0.537002 0.807037
O 2.42357 7.63061 9.41588 0.255694 1.163828 -0.495194
O 11.1474 10.3352 7.60668 1.929336 0.079622 -2.306075
O 10.8733 7.98847 1.93894 0.114128 -0.755935 0.290012
O 6.41847 5.12458 10.1014 -0.246543 -0.20818 0.086868
O 8.57524 0.61354 1.4138 1.668467 1.054261 -1.257075
O 0.80363 1.44857 11.0152 0.55088 0.77186 -0.926712
O 10.9762 1.81191 12.1578 -1.419199 -0.948846 1.900552
O 4.0897 6.00534 2.13114 -0.040369 -0.858417 -0.441884
O 7.84786 11.515 7.25558 1.51534 -0.485728 -0.578546
O 5.66022 3.9509 6.09566 0.227948 0.13773 -0.059905
O 8.40704 10.7352 4.46328 -0.538587 1.901869 -0.717467
O 9.43787 7.61019 4.26158 0.189118 -0.427984 -1.089576
O 2.95623 11.7395 11.8794 1.255769 0.077486 1.08336
O 12.0025 12.3859 3.44414 -0.34618 -0.313437 -0.118133
O 6.15725 0.78131 4.94833 -0.084462 -0.386178 0.568705
O 8.42012 5.04268 6.21348 0.283039 -0.530624 -0.646723
O 7.64779 3.71343 12.2092 0.77106 1.451604 -1.017375
O 11.443 5.40601 8.69787 -0.987932 -0.020293 -1.501546
O 5.09252 11.6677 8.92129 -0.007789 -0.901963 0.25193
O 8.30196 8.78133 10.2432 -0.482527 1.538901 2.606353
O 9.28578 11.3946 9.57129 -0.594516 0.066635 -0.088453
O 4.17966 9.81624 10.4339 -1.459455 -0.078751 0.890504
O 0.92577 6.40835 1.96358 0.105144 -0.827131 -0.531422
O 1.83997 3.1167 1.93742 1.601365 1.063681 -0.747102
O 0.34658 4.24958 10.8536 0.030599 0.233429 -0.326625
O 3.65453 5.56571 5.98202 -0.589511 -0.565625 0.500805
O 4.24652 4.68761 12.2874 -1.070419 0.04855 0.86878
O 7.12578 10.7774 1.49994 -0.011609 0.277569 2.643884
O 5.8921 9.79027 4.1986 1.326538 -1.309232 0.386165
O 10.8753 4.23768 6.09336 0.436609 -0.763411 -0.04808
O 11.2946 0.18688 5.85182 -1.085196 -1.101673 -0.601439
O 8.35818 1.77652 3.61784 2.020373 -1.096215 0.585788
O 12.1583 8.1004 8.9109 -0.050636 0.990372 0.04492
O 10.9515 2.25274 4.04472 -0.131818 -1.049684 0.652437
O 10.7613 7.03369 11.2971 -0.421724 -0.499032 1.472386
O 2.26502 0.18987 2.01742 0.391092 1.367768 0.299272
O 8.58507 2.40179 6.94502 -1.265998 -2.454131 1.419059
O 6.49505 3.25839 3.91158 -1.182973 1.62543 0.369839
O 11.6385 5.96422 4.48635 -0.040103 0.393119 -0.391892
N 0.15363 9.5988 12.2009 0.009235 -1.539889 0.710384
N 2.53974 8.85284 2.50394 0.716559 1.115642 0.642976
N 5.34919 8.04879 7.53534 0.510963 -0.041125 -0.275055
N 11.2237 1.71155 8.38883 1.682678 -4.032439 -3.060735
N 2.25768 0.43379 8.6705 -0.877792 -0.58546 -0.439938
N 6.24731 7.81873 6.92725 -0.543164 0.023761 0.282449
N 10.9037 2.53381 9.00101 -1.68892 3.974888 3.151845
N 3.039 9.61605 3.14121 -0.626602 -0.811964 -0.892938
N 1.44559 12.2772 8.15514 0.810458 0.538738 0.448127
N 0.21153 10.5881 11.7359 -0.016354 1.537437 -0.759241
N 0.13415 8.90869 4.39495 0.571471 0.207736 0.752342
N 0.91376 9.05321 5.17243 -0.756897 -0.153115 -0.56269
Na 4.90194 1.40756 9.57146 0.022588 0.318517 0.401994
Na 8.9776 0.554 5.64701 -0.599564 -0.263402 0.074828
189
energy=-1066.88973485 config_type=nep2xyz pbc="T T T" virial="-5.353464663444243 0.08797826061899575 -2.1374921163076936 0.08797826061899575 -3.341960081990236 -0.07855329343243486 -2.1374921163076936 -0.07855329343243486 -12.65809983809519" Lattice="12.4 0.0 0.0 0.0 12.4 0.0 0.0 0.0 12.4" volume=1906.6240000000003 Properties=species:S:1:pos:R:3:force:R:3
H 8.26911 2.38977 11.3779 -0.063773 -0.017395 -1.035097
H 11.1031 10.3922 1.29024 -0.386739 1.57721 -0.777365
H 9.5722 4.00508 1.51979 -0.349801 -0.097951 -0.124071
H 9.40504 2.70862 12.2873 0.292772 0.332022 0.245074
H 1.87091 10.6278 2.69479 -0.241981 -0.611659 -0.615751
H 5.78139 9.12985 2.76782 -0.034856 0.027318 -0.32059
H 9.83798 0.37642 5.76725 -0.958927 -0.064515 -0.510822
H 8.10635 5.22163 11.5723 0.691765 0.399058 -0.244868
H 6.56087 8.61043 5.02605 -0.185149 -0.113816 1.279522
H 6.09338 9.5116 9.38519 -1.576117 0.939244 -0.152254
H 11.3005 0.33933 5.10625 0.095763 -0.19543 0.237773
H 0.68044 4.29651 6.90182 -0.466522 -0.706136 -0.872346
H 1.93634 2.41598 8.87117 0.580102 0.804597 -0.038467
H 9.11741 11.4371 1.19472 -0.117595 0.168057 0.061185
H 2.75072 10.5684 10.8716 0.103509 0.492584 -0.359509
H 1.50396 5.59959 6.81072 0.692044 0.556591 -0.742285
H 3.44266 5.84282 5.68959 1.634312 -2.141486 0.017447
H 9.25008 9.73355 5.30172 -0.029852 0.140237 0.786468
H 10.0607 9.36943 3.16814 -0.744757 -0.68734 0.079771
H 10.3404 5.41549 11.2363 0.381971 -0.192678 0.125882
H 8.13846 0.99817 3.74123 -0.387126 0.336779 -0.227007
H 8.17914 5.37867 5.93979 -0.690334 0.559895 1.041602
H 4.8795 3.95793 7.25462 -0.625629 0.461916 -0.271911
H 12.1874 8.72654 11.8157 -0.280741 0.949337 0.891895
H 6.87621 8.65412 10.5497 -0.526861 0.74238 -0.282986
H 7.38674 5.7051 7.36443 0.411699 0.464121 -2.300117
H 12.38639 9.64756 1.84169 0.306424 0.281712 0.173318
H 5.22839 5.21881 5.47502 1.12922 0.999663 -0.279283
H 10.1187 0.21869 1.13691 0.02219 -0.531922 -0.069442
H 9.73149 1.30445 10.8392 0.18165 -1.782148 -0.679391
H 5.80897 5.7858 2.24932 -0.327935 -0.066783 -0.237979
H 9.6103 4.02082 10.6577 -0.00831 1.97785 0.496417
H 7.34713 2.27195 4.07886 0.073888 -0.264764 -0.408445
H 3.94786 3.40148 8.46448 0.473933 0.274606 -0.372165
H 9.97421 12.3023 11.5577 -0.014695 0.003005 -1.354417
H 7.57576 7.4647 9.12131 -0.093129 -0.821025 -0.3393
H 5.7078 3.54038 5.70775 0.882787 -0.641757 -0.72483
H 2.05707 4.48563 0.24365 -0.072711 -0.279695 -0.067612
H 10.341 5.34312 6.54736 -0.642711 -0.399106 -0.693749
H 6.47899 1.63772 2.29018 -0.943377 -0.370349 -0.672783
H 6.27652 9.51097 0.55856 -0.293838 -0.458335 -0.093947
H 6.08957 6.13647 9.58475 -0.292624 -0.302149 -0.607952
H 8.74269 2.76093 2.06587 -0.117823 -0.58219 0.566649
H 12.0798 6.8455 11.8202 -0.504464 -0.965403 0.19718
H 4.06243 3.63338 4.44934 0.515124 0.150011 0.609469
H 8.3687 6.168 9.67168 -0.628734 0.208274 -0.903178
H 5.48526 10.8437 0.32549 -0.044541 -0.178694 0.604383
H 0.48789 0.31276 9.00086 2.142556 1.229742 -0.03417
H 8.07552 10.4143 2.77556 -0.173095 0.357346 -0.284526
H 1.21307 8.3038 11.3496 1.570943 0.813117 0.529302
H 10.3749 5.99481 1.07442 0.330537 0.09001 -0.264057
H 2.35193 9.13648 2.65404 -0.95757 0.412165 -0.500236
H 8.32183 11.4583 5.38688 0.324848 -1.247826 0.094813
H 7.17463 7.67305 6.10646 -0.176807 -0.773081 0.174404
H 11.9223 5.51389 7.93404 -0.787566 0.512068 0.010307
H 11.1389 3.03291 1.61036 0.158958 -0.635996 0.365604
H 2.11464 2.67152 3.5139 -0.112059 0.064629 -0.079493
H 10.7423 0.00851 9.17003 0.52679 -0.017264 -0.131865
H 4.29639 6.23104 0.79641 -0.059334 0.208561 0.08705
H 1.93671 5.45479 1.4083 0.781232 1.078806 1.081653
H 9.52474 5.77767 4.47961 0.361737 0.404652 0.321214
H 2.99664 3.79724 10.7295 -0.273997 -0.179712 0.245634
H 0.07475 3.82812 1.44892 0.476031 -0.663193 0.129867
H 6.93494 11.0289 1.83276 0.762756 -0.135897 0.328404
H 3.12725 8.30552 12.1124 1.38027 -0.897132 -0.581779
H 8.13785 9.32872 6.19037 -0.082517 0.790088 0.637393
H 12.0763 8.51151 9.5573 -0.144104 0.19724 -0.319649
H 4.48548 6.71603 11.0319 0.303698 0.049176 0.163564
H 0.21734 2.89357 4.90307 0.364652 -0.478387 -0.475906
H 6.02734 1.08462 10.5442 0.338139 -0.130604 0.400415
H 4.60528 7.38203 8.22467 -0.087891 -0.151205 0.835892
H 6.3475 4.39925 12.0763 -1.25983 -0.920202 0.408321
H 2.31369 11.9175 9.95341 0.911021 -0.615673 0.797644
H 3.9944 7.78742 3.60757 -0.674355 0.072515 -0.865739
H 7.29294 5.71792 1.61874 -1.379458 0.249782 1.938901
H 6.3891 7.69863 3.02087 -0.344834 0.074279 -0.06874
H 3.63383 6.34658 2.29095 0.219661 0.533201 -0.087876
H 4.1455 3.76091 11.8737 -1.792347 0.093557 -0.172919
H 6.23999 2.53125 11.0128 0.026092 -0.403838 -0.340671
H 2.82001 7.16081 4.26351 -0.73088 -0.152412 0.456082
H 8.95865 11.7067 9.79232 -0.417969 -0.195209 -0.57796
H 2.31593 9.33212 0.39228 -0.125348 0.646151 -0.186769
H 8.14989 5.81565 3.78125 0.607214 1.395957 -0.174612
H 5.05282 2.06039 2.48818 -1.24299 0.556695 0.980288
H 4.33856 12.1933 11.2582 -0.436793 -0.513242 -0.447814
H 3.08747 7.11478 6.46814 0.122161 0.01536 -0.264524
H 4.92599 0.52219 0.03353 0.203203 0.928786 1.222368
H 12.073 3.19708 10.7456 0.660474 -0.779784 0.957607
H 7.17961 6.54234 11.8513 0.047441 -0.211436 0.246578
H 10.8153 4.12655 5.70497 -1.076052 0.668351 -0.627155
H 11.0944 0.48156 7.69554 0.14299 -0.283001 -0.437475
H 4.13994 10.9052 9.18056 -0.456972 0.056694 0.348421
H 9.20631 8.06766 3.48871 -0.011004 -0.86528 0.203313
H 5.90529 11.6153 7.79823 -0.686563 -0.466494 0.360888
H 4.84148 5.28657 8.97765 0.763987 -0.034381 0.217573
H 11.4361 2.24592 5.79086 0.295726 -0.260958 -0.262003
H 7.47802 0.08439 6.03548 0.215966 0.185341 -0.442576
H 5.71742 3.29801 0.80412 0.106395 -0.146545 -1.559698
H 7.84183 8.57375 12.3557 -0.876262 -0.45628 -0.042041
H 4.03919 4.05285 3.02813 -0.05165 -0.58777 -0.26393
H 0.91517 1.31005 10.028 -0.214211 1.138922 1.720859
H 5.01104 8.27876 7.09317 -0.443633 -0.023058 0.026289
H 1.39111 12.1205 4.93163 0.913083 -0.973466 1.432194
H 5.27556 7.6541 12.051 0.119666 -0.204545 -0.036039
H 0.07721 2.50017 12.1747 0.028271 0.365298 -1.039631
H 1.96062 3.94968 8.27046 0.419072 -0.622236 0.828604
H 1.14944 0.80543 3.98615 -0.702589 0.437638 -0.315537
H 0.58881 2.54167 2.94824 0.164559 0.04376 -0.577742
H 7.38684 11.9923 8.08071 -0.253648 -0.203105 -0.091433
H 11.5297 7.82634 8.30727 -0.369396 -1.242598 -0.45996
H 12.3444 5.41984 0.04897 0.140333 0.390536 0.165046
H 4.60198 9.85904 8.04039 -0.077919 0.836477 1.137886
H 9.43236 5.95554 2.37598 0.148439 0.266787 0.426811
H 8.04772 10.4049 9.38334 0.507859 0.879674 -0.534219
H 10.6294 5.49459 8.80595 -0.682676 -0.265596 0.932433
H 7.33075 3.40003 5.66148 -0.142537 0.064408 0.192627
O 7.3668 5.80571 6.32934 0.452625 -0.656472 1.482746
O 11.6685 8.68718 8.67715 0.36805 0.897793 0.723228
O 9.96105 11.7412 0.73396 -0.115624 0.637269 0.298081
O 11.6093 6.01499 12.1799 0.348064 0.577694 -0.353171
O 11.4236 9.64037 1.7529 -0.078347 -1.988339 0.849279
O 2.41732 3.29755 8.8886 -0.632349 -0.267429 -0.429417
O 1.20801 2.31524 3.67732 0.708545 0.613798 0.298519
O 4.28304 5.88411 1.72693 -0.197192 -1.161598 0.53313
O 1.08258 4.99068 7.42262 -0.488944 -0.00579 0.842997
O 4.88431 3.67935 8.1974 -0.319888 0.066818 0.712087
O 0.72756 12.3772 4.32679 -0.648576 -0.180039 -0.961044
O 5.71821 3.55618 12.227 0.823534 1.038761 0.949988
O 3.10715 3.79182 11.6996 1.95246 0.110171 -0.026026
O 6.71293 8.52685 6.0308 -0.0799 0.268858 -1.458019
O 8.9063 9.98158 6.21488 0.32867 -1.131135 -1.667854
O 6.59746 1.85776 10.3602 -0.069099 0.607365 -0.024152
O 7.216 5.54151 11.7612 -0.621145 0.389853 0.400194
O 6.76294 5.79133 2.50124 1.845899 -0.065403 -1.70387
O 9.92601 0.28426 10.6062 0.008978 1.294782 1.973422
O 9.62898 5.55242 1.5085 -0.295787 -0.373196 -0.271128
O 2.59064 9.06792 11.8848 -0.810601 0.481522 0.893402
O 0.2664 2.54308 11.1925 -0.808665 0.396565 0.164218
O 3.04616 7.53803 3.38951 1.538627 0.684832 0.033367
O 4.24412 8.13766 7.70877 0.780702 -0.083675 -1.310076
O 7.83283 11.2199 2.26363 -0.091041 -0.453879 -0.230945
O 1.36164 0.85801 9.32192 -2.282967 -2.587446 -1.626096
O 9.22034 2.64324 11.3024 -0.694816 -0.662098 0.805682
O 5.12613 6.15191 9.36562 -0.823339 0.26635 0.289559
O 8.15615 12.3938 5.30824 -0.373617 1.206833 0.519734
O 6.54998 2.82718 5.6342 -0.417445 0.570847 0.386636
O 9.23149 9.01957 3.60187 0.921869 2.001449 -0.345537
O 8.96656 6.3921 3.92983 -1.019434 -1.746344 -0.233472
O 3.06236 11.3696 10.3817 -1.018499 0.347788 -0.478365
O 1.79157 9.80977 2.14704 1.179907 -0.206249 1.193678
O 5.57489 1.63404 1.82242 1.957662 -0.18472 -0.199754
O 10.0395 4.80771 5.74123 1.252745 -0.174059 0.955608
O 9.46875 2.99387 1.46152 0.361943 0.668526 -0.44526
O 10.9823 5.86607 8.00201 1.525977 0.158904 -0.628605
O 6.59075 12.2486 7.54502 1.291886 0.920694 -0.293922
O 7.70229 6.47568 8.99355 0.949033 0.457808 1.059079
O 6.85226 8.99045 9.58339 2.376192 -1.389286 1.007734
O 4.87115 10.6606 8.58334 0.263103 -1.258754 -1.210922
O 4.4739 7.09346 11.9458 -0.270518 0.29306 -0.642054
O 3.94311 3.2315 3.55748 -0.704649 0.467512 -1.175904
O 9.65026 5.05885 10.6363 -0.242916 -1.199894 -0.887858
O 2.78239 6.50856 5.75227 -1.797998 1.817241 0.91801
O 1.39109 4.89955 0.88952 -0.666424 -1.05807 -1.194384
O 5.70295 10.1846 1.03683 0.022084 0.665589 -0.3404
O 5.82666 8.40642 3.41353 0.351478 -0.372863 0.138257
O 11.9599 3.05306 5.60016 -0.423067 0.686908 1.224291
O 11.3067 12.2113 8.36502 0.124725 0.487884 1.085578
O 7.83884 1.84535 3.32378 -0.098247 0.063057 0.610134
O 0.27821 8.20037 11.2025 -1.782394 -1.286857 -1.322814
O 10.7678 0.61686 5.87582 0.871859 0.460052 0.11415
O 6.91545 8.27041 12.2117 1.19549 -0.03582 -0.585166
O 5.1808 12.3678 11.7074 0.164468 -0.566988 -0.558507
O 8.59668 11.1742 9.01559 -0.478745 -0.984334 0.994995
O 4.65329 4.49196 5.64092 -0.926377 -0.818971 0.853015
O 12.1206 2.91497 1.61623 -0.368687 0.987094 -0.551892
N 0.70709 11.5745 0.26076 0.778052 1.475145 0.420782
N 0.19693 8.04189 4.12011 1.82221 1.153043 -1.232608
N 1.85759 10.0992 6.44508 0.028392 -0.535214 -0.468563
N 9.73786 2.76057 8.45014 0.60791 0.425718 0.07635
N 3.56108 1.52186 5.80992 0.07622 -0.241192 0.555992
N 1.74487 10.8465 7.24506 -0.049792 0.454403 0.532153
N 8.93751 2.04784 8.20252 -0.636362 -0.345305 -0.278612
N 11.7944 7.54097 4.66069 -1.85656 -1.206825 1.337334
N 4.04313 1.388 6.79839 -0.303506 -0.071827 -0.632974
N 1.23363 0.06856 0.66942 -0.769548 -1.257218 -0.585627
N 4.47637 10.6212 4.70438 -3.559285 -2.197745 1.079554
N 5.35231 11.194 4.43658 3.449082 2.337656 -1.037809
Na 6.22084 2.0073 7.89556 0.322188 -0.180094 0.252692
Na 10.405 10.3068 7.84487 -0.327683 -0.248616 -0.064466
189
energy=-1064.96185033 config_type=nep2xyz pbc="T T T" virial="-10.218306659362993 2.829465591009894 -1.4316191950475352 2.829465591009894 -7.116695140841154 4.61865042880313 -1.4316191950475352 4.61865042880313 4.986307450556663" Lattice="12.4 0.0 0.0 0.0 12.4 0.0 0.0 0.0 12.4" volume=1906.6240000000003 Properties=species:S:1:pos:R:3:force:R:3
H 8.16423 2.45835 10.8951 0.873477 0.070858 0.866656
H 11.0296 10.5036 1.95183 -0.549691 -0.098169 0.043607
H 8.94189 4.45124 1.50527 0.146919 0.12177 0.056206
H 8.77773 2.80094 12.3103 -0.357915 0.822476 1.69451
H 1.14145 10.1776 2.55289 -0.112496 1.716816 0.982216
H 6.11614 9.03117 2.91934 0.152882 1.597658 -0.813223
H 10.3324 12.2261 5.37804 -1.476901 0.741587 -0.611941
H 7.2067 6.70839 0.22951 -0.875754 -0.522674 -0.011676
H 6.41436 7.78806 5.04605 -0.632704 0.486304 -1.053262
H 8.14994 9.35237 9.08958 -0.060022 0.686808 -0.442495
H 11.7234 11.7892 5.30289 0.909788 -0.413276 -0.318922
H 0.5081 3.76831 6.65274 -0.601101 -0.553035 0.781222
H 1.8105 2.55809 9.52334 0.065241 1.535051 -0.826435
H 10.5187 0.7189 2.12017 -0.486336 -0.441842 -0.401854
H 2.5995 11.42 10.9038 1.414665 1.402653 -0.645173
H 1.47503 4.86428 6.73455 1.289495 1.091941 -0.346411
H 3.78995 5.37032 5.74995 -2.691848 0.048414 0.691155
H 8.91185 9.56281 5.14247 0.604692 -0.928183 -2.096104
H 10.0865 9.01595 2.92294 -0.417427 -0.19567 0.532105
H 11.7346 5.91231 10.8658 0.505387 -0.509465 -0.574569
H 8.0872 1.72386 3.55911 0.16213 -0.528586 -0.31616
H 9.02072 5.93741 7.12863 1.255158 0.626357 1.01331
H 4.63496 3.89187 7.27699 -0.067712 -0.041515 -0.467669
H 11.6849 9.35778 11.0067 0.966181 -0.079923 -0.675878
H 9.23855 8.22259 8.96047 1.114729 0.095988 -0.818131
H 7.52624 5.62961 7.35127 -0.769862 -0.176944 1.456182
H 12.0357 9.42694 1.75499 2.685598 -0.992697 -0.051135
H 5.30308 4.85551 5.51804 1.59856 1.732102 -0.540186
H 9.26276 12.3108 1.52528 -1.798751 0.088231 -1.745348
H 9.48801 0.88494 11.3624 0.461476 -1.365313 -0.638094
H 5.90003 5.61255 3.27288 0.182805 -0.062192 0.012902
H 0.47369 5.51828 9.8339 -1.174036 -0.396154 0.495935
H 6.95717 2.27361 4.28783 -0.7632 0.080233 0.257443
H 3.74922 3.58115 8.57778 0.281294 -0.189583 -0.078849
H 9.27156 11.7376 11.6037 0.470158 0.632225 -0.614576
H 8.01885 7.3566 10.7272 0.484835 -0.068142 -0.090738
H 6.1975 3.13211 5.74472 0.696942 0.132613 0.183774
H 1.80634 4.46916 0.1211 0.450312 -0.088917 -0.689204
H 9.16692 4.55534 6.20136 -0.211136 -0.171874 -0.051858
H 6.00522 1.87785 2.09716 -0.581524 1.027951 -0.879763
H 7.27718 8.40844 1.1315 -0.08249 1.28373 1.203327
H 6.91325 5.58504 10.0146 0.076871 0.251801 -0.506409
H 7.96533 3.31861 2.20788 0.657539 0.354756 -0.456151
H 11.6871 7.60453 0.0128 -0.302651 1.025674 -0.148437
H 4.15157 3.48319 4.30445 -0.776049 0.323096 -1.155588
H 8.90835 6.90609 11.901 1.529507 0.334139 0.80486
H 8.08385 9.01975 2.38543 0.810266 -0.077486 0.436437
H 0.29334 0.78135 9.45929 -0.317173 -0.952718 -0.923109
H 7.70232 10.575 0.72141 0.01859 0.660645 0.301082
H 0.89715 9.26131 10.8812 0.560295 0.051583 0.050967
H 10.6959 6.0369 0.96541 0.327214 0.021562 -0.064231
H 1.90449 8.87857 2.52189 -0.353866 -0.083709 -0.169479
H 8.36791 11.8836 4.83133 0.297036 0.004892 -0.542217
H 7.39664 7.08407 5.97514 -0.522953 0.33997 0.419998
H 11.5086 5.69745 7.13854 -1.048188 0.267201 1.019593
H 10.1197 2.73682 1.98721 1.461172 0.141488 0.019184
H 1.74185 2.2389 3.7513 0.150562 0.44044 -0.359113
H 12.0032 11.0086 9.6212 -0.219209 0.42777 -0.110425
H 3.64393 6.09009 1.29456 0.179351 0.27497 -0.534409
H 1.39484 4.99897 1.43289 0.209717 0.055185 0.736941
H 9.54632 5.50172 4.49811 -1.259069 1.18871 -0.982773
H 2.91111 4.24603 10.5645 -0.323555 -0.670246 -1.015082
H 11.4982 2.55091 1.20641 0.165399 -0.084719 -0.848944
H 7.02747 11.934 0.21577 0.895584 -0.445168 -0.029547
H 2.75444 8.57476 11.862 0.333126 0.347799 -0.37688
H 7.86485 9.18525 6.2453 0.426947 0.307302 -0.647477
H 11.4529 8.86846 8.88295 0.950926 -0.374878 0.524441
H 3.42348 6.4968 11.6263 0.22093 -1.086937 -0.584984
H 12.30497 2.09287 5.13126 -0.459617 0.37121 2.268826
H 6.37299 1.75735 10.8868 -0.245068 0.327494 -0.597348
H 4.90256 6.86602 8.57256 0.289437 -0.634635 1.232093
H 6.03705 5.25248 12.37415 0.172696 0.707171 0.738965
H 2.45807 0.54089 10.3382 1.180425 -1.725949 0.465684
H 4.00745 8.12779 3.6856 -0.615657 -0.12712 0.068667
H 6.46916 6.35533 1.76841 0.203968 -0.256318 -0.759813
H 6.26755 7.59996 3.14535 -1.934343 -0.127855 0.72644
H 3.18572 6.72874 2.69547 0.125111 -1.90394 -0.922392
H 4.13472 4.48458 11.6292 0.018914 0.096084 -0.494546
H 6.1582 3.24805 10.5569 0.18415 0.402204 0.456627
H 2.8511 7.44386 4.59978 0.127272 -0.081467 -0.195919
H 7.50016 11.6072 9.16983 0.204259 -0.884054 -0.875565
H 1.86507 9.64336 0.12618 0.216983 0.070653 -0.034714
H 8.13968 6.00712 3.63779 0.666271 0.051294 0.45373
H 4.58447 2.46647 2.1192 0.423809 0.41023 -0.743536
H 4.62509 0.38964 11.4766 -0.877081 -0.113976 0.263863
H 3.25168 6.31949 6.85769 -0.590713 -0.362113 -0.890681
H 5.46319 1.17815 0.24623 -1.042972 0.420465 0.384834
H 12.0499 3.49094 12.0114 -0.2292 -0.64353 -0.603643
H 9.565 9.30151 11.2226 0.105355 -0.232011 0.40637
H 10.3399 3.49055 5.87326 -0.251889 0.749346 -0.470895
H 10.9748 12.1927 9.92459 0.112343 -0.970456 -0.457214
H 4.95671 9.33822 7.65134 0.450367 0.531094 -0.726181
H 9.2687 7.90634 3.82953 0.097029 1.027166 -0.666416
H 4.98999 0.096 9.47726 0.001872 0.188862 -0.164534
H 5.92441 4.84202 9.11494 -0.559231 -0.224096 -0.458506
H 11.7489 1.33916 6.41551 -0.001406 0.524527 -0.395058
H 9.35173 12.2333 3.46345 -0.671135 0.194938 1.642873
H 5.78563 3.69571 0.38667 -0.072726 1.037786 -0.836699
H 10.232 9.33325 0.3321 -0.221861 0.554279 0.674817
H 3.42098 4.24905 3.10984 -0.072494 1.145299 -0.611049
H 0.47867 1.54397 10.7213 -0.413372 0.961491 0.998765
H 5.32639 7.3753 7.25947 0.023896 0.215439 -0.452661
H 1.17612 11.1386 4.82505 -0.467088 0.323423 -0.579456
H 4.69435 7.22773 12.28815 0.048289 -0.280938 -0.078216
H 10.8887 2.47674 11.4655 0.777501 0.648463 0.312292
H 1.63542 3.88647 8.55149 0.227807 -0.65001 0.531758
H 0.68514 0.13679 4.36435 0.402998 0.803167 -0.710827
H 0.27961 2.19864 3.07292 -0.248456 0.324984 -0.426904
H 5.14418 11.7966 8.16538 -0.193031 -0.780066 -0.913168
H 10.943 7.88561 7.66114 0.159452 1.092457 1.46855
H 0.33966 6.47135 0.35559 -0.650713 -0.168976 -0.565696
H 5.47028 9.86926 6.26446 0.084528 -0.515834 -1.210278
H 9.85246 6.10492 2.35496 -0.087724 -0.081973 -0.365099
H 6.99555 10.8064 7.94302 -0.871687 -0.176246 -0.542282
H 11.1373 5.75148 8.6745 -0.492288 0.415373 -1.152689
H 7.87806 2.63789 5.71192 -0.634638 0.732732 0.242995
O 8.19464 5.75243 6.6922 -0.534126 0.03752 -1.194754
O 10.8435 8.77393 8.14966 -0.764605 -1.010169 -1.834239
O 10.0004 12.2497 2.09269 2.495262 0.308268 1.853735
O 11.8919 6.68502 12.2986 0.890052 -0.630746 0.714758
O 11.1165 9.52868 1.86178 -2.545 1.554071 -0.13802
O 2.21961 3.46766 9.25875 -0.375224 -0.565819 -0.093133
O 0.90489 1.75944 3.66404 0.01498 -0.340299 0.776047
O 3.29793 5.82974 2.14894 -0.677237 1.245755 1.585868
O 0.76601 4.49621 7.26001 -0.667117 -0.441686 -0.45507
O 4.67613 3.59614 8.21448 0.117022 0.105582 0.745926
O 0.5427 11.5923 4.22313 0.77455 -1.510941 0.510567
O 5.74103 4.37606 12.0404 -0.453946 -2.42381 0.141373
O 3.30226 4.83359 11.2123 0.027048 0.776719 1.511803
O 6.66508 7.77078 5.96618 0.945202 -0.823694 0.748565
O 8.53699 9.84779 5.9501 -1.024623 0.805421 2.432616
O 6.70717 2.49663 10.2783 -0.024434 -0.891203 0.215501
O 6.32515 6.57091 0.67564 0.321971 1.113486 0.049862
O 6.70538 6.06976 2.98802 0.021822 0.237282 0.609776
O 9.82208 12.3469 11.0406 -1.097675 0.931142 1.226884
O 9.84874 5.86143 1.39625 -0.86579 0.127743 0.441131
O 2.24085 9.40963 11.655 0.051441 -0.213303 0.857203
O 11.8288 2.55561 11.7824 -0.716243 0.267536 0.302671
O 3.02209 7.87766 3.73902 0.633022 0.422017 0.040256
O 4.56262 7.40293 7.86792 -0.146299 0.489563 -0.962504
O 7.90245 11.5123 0.4309 -0.946617 -0.06614 -0.175325
O 0.91698 1.38191 9.88452 0.950937 -0.446337 0.087078
O 8.98252 2.33914 11.5115 -0.298921 -0.605157 -2.216586
O 6.51744 5.60945 9.11716 0.270899 -0.097729 0.604061
O 9.01944 0.09876 4.44515 0.130605 -0.23112 -1.144771
O 6.95521 2.45728 5.97525 -0.401064 -0.201369 0.045437
O 9.27772 8.88366 3.49568 0.022105 -1.313837 0.568838
O 9.08246 6.26319 3.97107 0.603327 -1.0368 0.289449
O 3.16084 12.2192 10.6031 -2.267698 0.103388 0.007322
O 1.25689 9.42115 2.01101 1.109858 -1.675915 -0.513484
O 5.32823 2.28622 1.45721 0.350172 -0.959475 2.032741
O 9.73291 4.18683 5.50318 0.943773 -1.501523 -0.076493
O 8.69983 3.49824 1.55887 -0.57977 -0.662819 0.342043
O 10.7883 6.06109 7.74337 1.47226 -0.756419 0.196442
O 5.51246 0.12553 8.65571 -0.135125 0.557263 1.026595
O 8.21979 6.60943 11.3357 -1.236234 -0.153912 -1.106715
O 8.51197 8.54631 9.47112 -1.250002 -0.55709 1.806287
O 5.335 10.1184 7.16082 -0.548544 0.08571 2.113667
O 3.73673 7.27475 12.0927 -0.038498 1.258792 0.717714
O 3.61715 3.36932 3.41619 0.733225 -1.709125 1.548916
O 11.9483 5.28864 10.1132 0.661349 0.800272 -0.423183
O 2.88331 5.81858 6.06422 2.633245 0.480243 0.299923
O 1.02051 4.53736 0.67797 -0.245204 0.141549 -0.03903
O 7.40369 9.232 1.71151 -0.542667 -1.100929 -1.990519
O 5.59262 8.39008 3.38262 0.995242 -2.029035 0.594256
O 12.004 2.2515 6.11894 0.407196 -0.252586 -2.05925
O 11.5627 11.7968 9.20413 0.030491 0.145018 0.350705
O 7.24713 2.17094 3.36593 0.44165 -0.159311 -0.352227
O 0.07124 9.41135 10.3745 -2.07887 0.206756 -0.035298
O 11.114 12.1809 5.93577 0.162681 -0.503311 1.399727
O 10.2492 8.97904 11.8432 -0.084013 -0.524824 -1.309786
O 5.47518 0.7273 11.7844 1.746021 -0.530339 -0.57594
O 7.75979 10.9211 8.50263 0.967082 0.913313 1.281733
O 4.86369 4.04799 5.65555 -0.340929 -1.717968 0.095558
O 11.102 2.41628 2.0724 -1.619742 -0.362548 0.926728
N 1.41568 11.981 0.817 -0.011841 -0.771636 0.235841
N 12.1559 7.47331 3.75856 0.047141 -0.724717 -0.258433
N 1.85114 9.75958 6.28629 -0.493074 -0.153005 0.600414
N 9.80798 3.10077 8.70472 0.063126 -0.057249 -0.066041
N 3.03916 1.82048 6.19315 -0.042913 -0.066549 0.004891
N 1.21349 9.45995 7.14345 0.590711 0.133491 -0.499664
N 9.02971 2.48076 8.22419 0.034316 0.015061 0.118018
N 12.1854 6.53626 3.16481 0.121599 0.649557 0.458849
N 3.70236 0.94925 6.04146 -0.03475 0.039175 0.003367
N 1.24211 0.62721 0.53125 0.002877 0.922549 -0.111775
N 3.81985 11.2009 2.9224 -1.334174 1.212871 -3.239705
N 4.21881 10.8565 3.86905 1.356915 -1.076423 3.267162
Na 6.39472 2.09554 8.12071 -0.222226 -0.027556 -0.141897
Na 10.1171 10.7225 7.35834 -0.106461 0.170511 0.460227
189
energy=-1066.52958608 config_type=nep2xyz pbc="T T T" virial="-15.1653196128868 5.679578048268125 -0.028239200926400237 5.679578048268125 -12.605965013291751 0.990609272109707 -0.028239200926400237 0.990609272109707 -19.063376559306313" Lattice="12.4 0.0 0.0 0.0 12.4 0.0 0.0 0.0 12.4" volume=1906.6240000000003 Properties=species:S:1:pos:R:3:force:R:3
H 11.0262 1.7798 10.9405 0.420122 -0.160155 -0.109507
H 9.85071 11.4072 1.52015 0.18206 -0.650818 0.100179
H 7.40399 5.30137 11.3193 0.073393 0.326312 0.882917
H 12.2314 2.00449 11.9417 -0.210655 -0.165163 -0.643104
H 12.2717 11.976 2.96005 -0.061098 -0.01473 -0.115033
H 2.22625 9.7371 4.93272 0.527717 -0.345162 -0.622791
H 9.48832 1.65061 3.66037 1.219691 0.544927 0.059988
H 5.78155 9.28168 11.8968 -0.541181 -0.11404 0.2377
H 5.61503 6.10128 4.60978 1.083381 -0.746312 0.271068
H 6.82026 11.2492 9.33467 0.151757 0.79786 0.028344
H 11.5745 1.92542 2.85759 0.180663 -0.617122 -0.251489
H 1.63599 4.12777 4.95528 1.490162 -0.297863 -0.057174
H 2.07918 1.7405 7.78521 -0.660755 -0.207927 0.882496
H 0.94426 2.52301 1.84633 -0.80753 0.147774 0.328467
H 3.52474 12.2331 0.88092 0.133915 -0.327887 -1.554166
H 3.1044 4.66427 4.49014 0.095768 0.681545 0.200226
H 3.86651 4.31812 6.4844 0.951857 1.044283 -0.570815
H 8.22272 8.18037 6.04268 0.104665 -0.457441 -1.235365
H 9.32689 10.4416 3.38008 0.519172 0.343095 -0.651676
H 0.88411 5.23626 10.664 0.081318 0.414242 0.012454
H 7.91399 1.8019 3.3828 0.706394 -0.00988 0.48825
H 8.47289 2.32799 9.89159 -0.297875 0.192176 -0.905748
H 5.02694 2.79576 6.93051 0.513117 0.479193 0.39905
H 11.1914 9.31971 9.11526 0.306176 0.095381 0.351996
H 7.7914 10.7733 10.3 0.74169 -0.662342 0.873818
H 7.43038 3.40827 9.36295 0.499125 0.003985 -0.538554
H 11.252 10.6988 1.78312 -0.706294 0.297712 0.469066
H 6.57036 2.99347 2.10064 -0.028122 0.30009 0.199662
H 12.3193 3.52316 1.15501 0.17533 -0.689472 0.784466
H 9.07493 0.58203 10.4641 -0.172162 -0.275166 -0.028414
H 7.25595 7.70885 1.18286 0.007225 -0.104794 0.008241
H 12.367 3.9305 10.6499 0.050521 0.465511 0.103042
H 7.88732 4.8044 4.98523 0.18032 -0.434229 -0.112235
H 4.12433 1.66373 7.36733 0.787957 -0.052669 -0.420131
H 9.18828 1.21882 11.8823 -0.031512 0.072428 -0.964099
H 8.17981 8.28053 10.3279 -0.379635 1.087351 0.825895
H 9.40078 4.76596 5.23692 0.007967 -0.354764 0.002882
H 2.90926 4.06347 0.06727 -0.235245 -0.663188 -0.436852
H 10.8878 5.70665 6.95529 -0.005248 -0.329091 0.181019
H 5.67102 1.27519 5.86715 0.006355 -0.649197 -1.815166
H 6.04045 10.2037 1.47949 0.689325 0.613348 0.553217
H 3.63826 7.23098 0.99981 0.80804 0.114855 0.62528
H 8.49766 5.47446 0.08473 -0.432049 -0.268674 -0.141302
H 4.43643 5.06211 8.40119 -0.080014 -0.330196 -1.055428
H 2.50732 2.63896 3.65131 -0.235165 0.235942 -0.198684
H 8.92088 8.96533 11.4715 -0.420542 0.032076 -0.026822
H 7.23386 10.5552 2.56106 0.177368 -0.501738 0.051117
H 2.16811 0.24252 9.47174 -0.304392 0.65744 0.218386
H 7.9532 12.2668 1.07155 -1.570165 -0.996301 -0.458564
H 0.05775 9.01869 10.0897 0.940065 0.313833 -0.312951
H 10.7948 5.22767 11.8275 0.335446 0.770445 -0.003013
H 1.14765 11.4923 2.15109 -1.952361 -0.402419 0.75435
H 5.58734 10.7759 5.48066 -1.482588 -0.140368 -1.864282
H 7.1039 6.69081 4.63217 0.23046 -0.868777 0.758611
H 11.4924 6.87982 8.69826 -0.505012 -0.711266 0.280103
H 0.44297 6.43923 1.77741 0.057092 -0.097105 0.443083
H 3.8992 6.28163 2.98358 0.265426 0.215976 1.287104
H 10.6116 0.05452 5.54058 0.556851 0.134907 -0.66272
H 2.96323 5.98182 10.1994 0.18577 -0.29884 -1.149212
H 3.64327 4.96834 1.02424 0.238933 0.219896 0.764826
H 10.7801 6.57144 5.6832 0.022408 -1.232522 0.136451
H 2.5211 2.3393 10.068 0.442541 0.009375 0.576846
H 11.5971 5.56026 1.86567 0.702408 -0.093633 -0.066384
H 8.77317 0.60252 2.03393 0.32807 0.5273 0.682039
H 2.00182 8.15675 10.1117 -0.207619 0.160357 -0.315881
H 8.93606 9.20063 6.97504 2.338873 2.043003 0.453652
H 9.17351 6.62728 8.85523 0.823784 -0.331293 0.178627
H 4.21393 9.07315 0.1608 0.587561 -0.491001 -0.474838
H 0.19616 4.72468 3.74907 -0.158194 0.163152 -0.661
H 4.9933 0.55587 11.6083 0.336251 0.723933 -0.079642
H 5.94587 5.23363 9.58457 -1.64142 -0.148884 0.10551
H 6.76927 4.20841 0.19377 -0.768053 -0.875254 0.588461
H 4.2282 11.0976 0.1252 0.538205 -0.057644 -0.549744
H 1.28666 8.62794 2.77827 -0.212029 -0.487162 -0.749538
H 7.42884 7.80232 2.78813 -1.073668 -0.187322 -1.127147
H 3.28988 9.3283 3.83078 -0.62709 0.271914 0.490997
H 2.41162 6.64166 11.3732 -0.401094 0.95827 0.765555
H 3.81112 2.44999 11.022 -0.704105 0.338314 -0.67115
H 5.92929 1.88222 11.732 -0.201573 0.028303 0.162362
H 0.17531 9.08324 1.83249 0.736061 -1.140958 -0.034553
H 8.48439 2.85655 5.98364 0.12795 2.662873 -1.763724
H 2.30454 9.07331 11.2537 -0.500109 -0.335229 -0.885728
H 9.05916 7.15479 4.37421 -0.169319 -0.111603 -0.287754
H 5.8937 1.67945 4.28077 0.071002 -0.633812 0.497097
H 2.77367 0.84077 2.4704 -0.772661 1.747267 0.007538
H 5.32875 5.05491 6.13578 -0.629803 -0.218866 0.465253
H 3.29267 12.0626 3.17481 0.603968 -1.115315 0.265469
H 10.212 10.9667 7.3722 -0.028437 -0.311594 0.378481
H 10.9357 9.00667 11.4019 0.485583 0.030119 -1.143396
H 11.8727 4.38544 5.10449 0.884708 -0.133562 -1.066355
H 9.38643 0.71908 6.26639 1.158499 -0.771089 0.331332
H 3.27697 11.5395 10.7074 -0.050199 0.242538 1.013049
H 8.55575 9.41496 4.18853 -0.451533 -0.04506 -0.066215
H 4.57544 11.056 9.25679 -0.121433 0.12266 -0.448326
H 5.18107 7.08847 1.76085 -0.958842 -0.428628 -0.162257
H 11.6333 1.98163 4.31795 0.096731 -0.58344 -0.058438
H 6.53492 9.75945 6.21085 -0.038226 0.270999 0.172166
H 5.2325 3.60493 0.55476 1.403854 -0.177007 -0.283041
H 10.2613 9.33324 0.36352 -0.310481 1.950515 1.939985
H 2.80622 2.9144 2.11107 -0.287464 -0.124679 0.646109
H 0.93274 1.21232 9.97363 -0.049911 -0.044043 -0.138652
H 7.3525 5.84012 9.37552 0.506935 0.347722 -0.398999
H 5.40634 10.9545 3.4327 -1.008221 0.734049 0.249614
H 2.18613 8.42191 0.62804 -0.294776 -0.056808 0.55599
H 9.44352 10.9236 8.68196 0.117204 -0.716924 -0.147128
H 2.35178 2.67374 6.56991 -0.016632 -0.016391 -0.301924
H 4.9954 12.0845 4.4636 0.283817 0.91009 -0.060395
H 3.47716 6.89623 4.46579 0.196926 -0.774951 -0.433312
H 5.30465 10.9053 7.7729 0.472713 0.504573 1.740763
H 8.16885 7.67002 8.27978 0.280094 -0.776665 0.890387
H 3.80195 4.26273 9.6914 0.767194 0.708326 -0.541033
H 2.44825 10.5264 9.83826 0.30015 -0.256729 0.084046
H 10.2592 6.57808 0.0955 0.458046 1.460626 -0.667772
H 8.16801 2.37461 7.51439 0.629861 0.248252 -0.863147
H 11.6139 5.45144 9.33498 -0.517622 0.492972 -0.496509
H 7.08347 3.67478 3.48136 -0.215575 -0.345898 -0.4374
O 7.95661 2.60936 9.07275 -0.454348 0.272876 1.481685
O 8.35108 7.0595 9.10038 -0.696552 1.417167 -1.325259
O 12.3925 2.62149 1.55718 0.240974 0.67391 -1.282442
O 4.26997 5.09997 9.34946 -1.127505 -0.634258 2.016034
O 10.2629 10.5624 1.85353 -0.183117 0.187182 -0.765639
O 2.378 1.75529 6.87331 0.718758 0.144278 -0.598507
O 3.87528 6.08927 4.06158 -0.237162 0.854403 -0.702705
O 2.11351 6.36592 10.4916 0.5208 -0.368844 0.275852
O 2.66273 3.99497 5.057 -1.570707 -0.77152 0.198423
O 5.10624 1.89369 7.29806 -1.050253 -0.319462 -0.026401
O 4.68156 11.2366 4.09944 0.255001 -1.745276 -0.919939
O 6.19341 3.34463 0.40513 -0.828864 0.55733 0.361497
O 3.04387 2.9749 10.6545 0.752396 -0.001813 0.223915
O 6.53545 5.87228 4.98641 -1.433329 1.245132 -1.015139
O 8.23418 8.61299 6.90753 -2.769897 -1.757087 0.771413
O 5.4693 1.28692 11.1034 -0.553804 -0.258705 0.467142
O 5.09423 9.61263 0.10179 -0.112494 0.438303 0.416945
O 6.75068 7.82214 1.99789 1.071021 0.064553 1.373811
O 9.36548 1.39626 10.9058 -0.027027 -0.214416 1.439605
O 10.3339 5.64003 0.17741 -0.727169 -1.712686 0.775664
O 1.83874 9.10326 10.3259 0.496745 -0.152948 1.161194
O 10.0176 10.3447 8.12559 -0.160496 1.093565 -0.181012
O 0.82595 8.33568 1.93633 -0.347273 1.572054 0.78371
O 6.87242 5.02321 9.61294 1.283283 -0.682879 0.714286
O 8.78425 0.31129 1.10286 1.068461 0.569284 -0.283693
O 1.73187 1.15876 9.40623 -0.015365 -0.496296 -0.190699
O 12.0098 1.92029 10.979 0.034709 0.527348 0.832776
O 4.25568 6.67091 1.68736 0.174411 0.293942 -0.919447
O 6.10078 10.6323 6.25322 1.634652 -0.396747 1.965924
O 8.6755 4.19921 4.89507 -0.456795 0.821971 0.047103
O 8.55565 10.3821 3.95867 -0.437187 -0.57082 0.491355
O 8.23619 7.65886 4.36274 -0.076394 0.604878 0.049802
O 3.83996 11.9816 12.3237 -0.410688 0.136717 1.9056
O 0.16407 11.2404 2.38783 2.826945 0.776952 -0.319612
O 5.83133 0.89512 4.89355 -0.026823 1.879626 1.586917
O 10.7572 5.62385 5.97201 0.146676 1.479335 -0.136607
O 7.52032 5.41868 12.3187 0.517633 0.072954 -1.262632
O 11.1071 5.96614 8.61658 0.737985 0.721559 0.322546
O 5.39895 11.2305 8.74627 -0.166276 -0.39652 -1.836357
O 8.05189 9.03528 11.0042 0.43726 -1.072621 -0.853821
O 7.6315 11.6024 9.8351 -0.080968 -0.194317 -0.71707
O 3.02754 11.333 9.798 -0.404007 -0.027948 -0.74365
O 2.95722 8.18066 0.10128 0.338842 -0.078455 -0.242829
O 2.31874 2.30426 2.74333 0.935267 1.019152 -0.458202
O 12.3558 4.91565 10.7297 -0.477712 -1.36828 -0.259691
O 4.72946 4.68012 6.83809 -0.277544 -0.738469 -0.449696
O 3.31235 4.05054 0.9445 0.370437 0.4514 -0.340934
O 6.47357 10.9044 2.06872 -0.70309 -0.168856 -0.448341
O 2.41307 9.10705 4.20868 0.299802 -0.251118 -0.267989
O 0.11418 4.02112 4.4156 -0.911977 0.29473 1.630941
O 9.92289 12.2358 6.15715 -1.562114 1.318591 0.688859
O 8.65957 1.19725 3.69749 -1.938283 -0.58479 -0.76008
O 11.599 8.71699 9.77948 -1.136552 -0.355845 -0.531373
O 11.409 1.31706 3.62966 0.019547 1.205064 0.366317
O 10.5033 8.65611 12.1756 -0.310358 -2.344821 -0.268125
O 2.76113 12.2885 2.40141 0.128724 -1.554254 -0.643499
O 8.44069 2.14995 6.5742 -0.490033 -3.714657 2.384888
O 6.70176 2.86505 3.08246 0.066047 0.106528 -0.00832
O 0.15656 5.55642 2.09857 -0.842034 0.223283 -0.270821
N 0.3317 11.2565 11.7333 0.171849 0.028984 0.073514
N 11.5444 9.0102 5.54353 -0.000305 0.030638 -0.066844
N 5.15897 8.12973 9.21642 -0.410825 -1.096564 2.895567
N 11.357 2.89883 7.0714 0.29595 0.019558 0.095768
N 1.07809 11.4439 6.70042 0.547727 -0.32462 -0.147499
N 5.01931 7.73632 10.2629 0.489409 1.11534 -3.039818
N 12.1526 3.29778 7.72868 -0.186869 -0.151185 -0.051162
N 11.7712 8.55119 4.56346 -0.116046 0.027885 0.113856
N 1.9615 10.8718 6.35217 -0.67821 0.583418 0.428292
N 11.7077 11.3826 11.3406 -0.135666 0.031381 -0.043477
N 1.62172 7.76748 7.3639 0.277882 -0.870766 -0.110712
N 1.93322 6.7056 7.27067 -0.266528 0.82465 0.089663
Na 6.26404 1.084 9.14363 0.025667 -0.31988 -0.355357
Na 7.78539 12.1723 5.19827 0.065485 -0.279222 -0.103864
189
energy=-1066.12751702 config_type=nep2xyz pbc="T T T" virial="4.585401239006095 -4.225657857630167 -6.83426743094387 -4.225657857630167 -9.799133623782916 -0.7246276539445272 -6.83426743094387 -0.7246276539445272 -11.784814747162633" Lattice="12.4 0.0 0.0 0.0 12.4 0.0 0.0 0.0 12.4" volume=1906.6240000000003 Properties=species:S:1:pos:R:3:force:R:3
H 8.01523 2.76888 10.7411 -0.748823 -0.052757 0.066278
H 11.0744 10.5606 2.75252 -0.632668 2.231251 0.12878
H 9.19705 4.19713 1.489 -0.215304 -0.975186 0.225301
H 8.99572 2.99175 11.9914 -0.268248 -0.167506 -0.935438
H 1.68246 10.6635 2.87915 0.017107 -1.161778 0.023528
H 6.10562 8.30783 3.25313 -0.035543 -0.010263 -0.53886
H 9.87777 0.34785 5.18731 0.313183 0.561378 0.071363
H 7.40284 6.95954 0.20844 -0.365472 -0.304123 0.051759
H 6.2307 7.68285 5.25048 0.107439 0.48976 1.145004
H 6.53205 9.64036 10.2472 -0.001503 -0.503157 0.19545
H 10.7976 0.71255 4.03131 0.457828 -0.13014 0.384815
H 0.49175 3.95782 6.71602 -1.124301 -1.234927 -1.565913
H 1.91791 1.68877 9.23167 1.179217 0.899496 -0.270273
H 9.35087 12.1878 2.29279 1.812871 0.245657 -0.619104
H 2.80798 10.5287 11.4939 0.258068 0.785093 -0.132471
H 1.69833 4.73074 7.11026 0.210814 0.345051 0.272901
H 3.5619 6.0073 5.8205 -1.440718 0.817711 1.825525
H 9.14076 9.27997 5.06532 0.037235 -0.186304 1.000645
H 10.1641 8.87806 3.31037 -0.116131 0.102265 0.166704
H 10.4139 5.69343 10.6274 0.854366 0.720589 1.048636
H 7.72459 1.05804 3.69038 0.093325 2.332737 0.179304
H 8.58168 5.56428 6.92381 1.313457 -0.269313 -0.426185
H 4.74488 3.85144 7.25491 -1.056078 0.463307 -0.484543
H 11.4204 9.22926 11.6006 -0.680671 0.228816 0.622861
H 7.6822 9.36561 11.3489 -0.005252 -0.248296 -0.463468
H 7.54046 5.93779 8.05571 0.223612 -0.50889 -0.674782
H 12.3751 9.68523 2.75244 -0.344507 -0.346704 -0.392959
H 5.30634 5.08336 5.31681 1.077522 1.51601 -0.707787
H 10.7215 0.14474 1.5494 0.435411 0.91763 -1.710498
H 9.05772 1.12395 11.1714 0.714102 -1.228521 0.044651
H 6.12268 4.67212 2.83253 -0.301367 -0.607144 -0.072274
H 9.65494 4.43849 10.2735 0.031436 0.31266 -0.492629
H 7.28382 2.48597 4.27571 -0.393994 0.372546 1.214489
H 3.88253 3.29281 8.53936 -1.216841 -0.879046 -0.12707
H 8.93528 12.207 12.0516 -0.767102 -0.371578 1.033155
H 7.32246 7.28 10.0547 -0.091199 -1.499264 -0.079605
H 5.71506 3.59462 5.67919 -0.307267 -0.00736 -0.323765
H 1.5311 4.61628 12.0571 1.333719 -0.460919 -1.697606
H 10.4844 5.72193 6.47611 -0.614944 -0.728527 -0.820553
H 6.51161 2.28569 2.1729 1.002848 -0.374924 0.802138
H 7.12949 8.90163 1.51785 0.464237 -0.084845 0.909987
H 5.70607 6.04199 9.4727 1.462625 -0.165704 0.477738
H 8.66444 2.87269 2.25403 0.184918 0.166485 0.154244
H 11.9356 6.92019 11.8967 -1.277561 -0.432048 0.139396
H 3.80198 3.93336 4.22894 0.233817 0.269115 -0.870329
H 8.18584 5.90988 10.1591 -1.069024 0.554834 -0.594572
H 7.80289 9.23191 3.02429 -0.025147 -0.17321 -1.817252
H 0.89245 12.1081 8.65034 0.496222 0.507141 0.124731
H 7.6824 11.0717 1.40173 -0.659877 -1.034057 0.291466
H 0.60164 9.09122 11.7468 0.228472 0.219362 0.16431
H 9.9458 6.05607 0.46872 -0.901203 0.208386 0.361733
H 1.95139 8.96083 3.08812 -0.274447 0.75393 0.195
H 8.43932 11.3978 5.12401 -0.153508 0.877388 0.434595
H 6.96672 7.16061 6.57079 0.625177 -0.823466 -0.113707
H 12.2183 5.64295 7.7375 0.592119 -0.582968 0.127804
H 10.8797 2.62217 1.17458 0.336758 -0.112261 -0.145631
H 2.10651 2.90165 3.16267 1.152594 0.962683 0.178141
H 11.5509 0.64148 7.91731 -0.097472 0.749669 0.696387
H 3.30206 6.30992 0.99792 -0.569063 -0.428487 0.07245
H 1.35146 5.18857 0.99374 -0.55739 -0.894958 -0.66092
H 9.05635 5.6588 4.43678 -0.032131 0.179654 -0.423011
H 2.66524 3.70446 10.445 -0.196945 -0.808341 -0.645466
H 12.2418 3.08966 0.49584 -0.371991 -0.52215 0.394161
H 6.89069 12.0811 0.4223 -0.064587 -0.086432 0.427797
H 2.87802 8.61522 12.3741 -0.043645 -0.041697 0.22135
H 7.99704 9.5213 6.05519 -1.412987 -0.670969 0.528208
H 12.0441 8.69199 9.49817 -0.954609 1.093761 -1.679708
H 4.32523 6.6194 11.1761 -0.411968 -0.120575 -0.552471
H 0.14435 2.85457 4.58449 0.322835 0.466846 -0.08512
H 6.03968 1.55758 10.8524 0.386313 0.648416 -0.2231
H 4.81928 7.46688 8.51108 -0.838005 0.842848 -0.459513
H 5.79315 5.06026 12.1557 0.483227 0.990141 0.294851
H 2.50158 11.8201 10.516 1.30158 -1.136484 0.667324
H 3.58641 7.89925 3.69585 -0.44389 -0.638437 0.505481
H 6.60985 6.34091 1.37144 -0.42032 -0.203478 0.637738
H 5.58179 6.73633 3.38206 0.821382 0.483969 -0.284105
H 2.50247 6.38101 2.43679 0.418173 -0.362734 -1.177587
H 3.84837 4.38497 11.1594 -0.581889 0.2143 0.149009
H 5.9766 3.10834 10.7829 -0.230757 0.642818 0.143077
H 2.44946 7.4429 4.73459 0.347761 -0.223006 0.743959
H 8.89043 11.3676 10.0001 0.050054 0.460062 0.794345
H 2.11139 9.58894 1.0057 -0.126208 -0.104557 1.019491
H 7.68877 5.75529 3.4155 0.468683 0.274729 0.022359
H 5.0505 2.73933 2.32005 -1.160641 0.441612 0.939072
H 4.94931 0.00666 11.3904 -0.914629 -0.449313 0.233345
H 3.42154 7.12583 6.99255 0.161813 0.134346 -0.026058
H 4.95452 1.02446 0.24201 0.884625 -0.858808 -0.969853
H 11.0719 0.21114 11.1389 -1.472786 -0.334994 0.074328
H 9.454 8.10403 0.56545 0.264824 0.81843 -0.010622
H 10.5017 4.46764 5.58749 1.236115 -1.703807 -0.595589
H 11.5045 0.19373 6.42066 0.181993 -0.880824 1.709428
H 4.54504 10.6947 9.97635 -1.080852 0.176972 0.555489
H 9.18136 7.67656 3.69065 -0.517782 -1.842386 0.074682
H 5.89765 12.1048 7.6342 -1.307694 -0.28347 -0.342044
H 4.46481 5.30616 9.03521 -0.119653 0.319206 -0.32407
H 11.6084 2.20025 5.54872 -0.567554 -0.287598 0.074972
H 7.86408 0.19192 5.93616 -0.774568 0.134664 1.052932
H 5.56037 3.59144 0.30087 -0.048888 0.966817 -0.600578
H 10.1111 9.3918 1.25678 -0.668513 -0.835534 -1.724581
H 3.48324 4.72914 2.89748 -0.206476 -0.926148 -0.214041
H 0.65205 0.30858 10.05 -0.440235 0.222975 0.323954
H 5.42204 8.13942 7.25516 -0.416147 0.580234 -0.226403
H 1.25106 11.9363 4.34035 -0.419755 -0.202033 1.405568
H 5.01621 7.12759 0.02388 1.608575 0.29646 0.591476
H 12.1258 1.07283 11.8608 -0.32421 0.25798 0.093234
H 1.82744 3.13582 8.63134 0.603585 -0.294895 0.244819
H 1.41632 0.79563 3.43707 -0.054837 0.655477 -0.174926
H 0.76363 2.66079 2.35943 0.757796 -0.657998 1.895299
H 7.19647 11.787 8.18781 1.216417 -0.25877 0.74888
H 11.7494 7.95329 8.20634 -0.232199 -0.612516 -0.559262
H 12.1317 5.45738 12.2382 0.19471 -0.746331 0.433527
H 5.0328 9.66194 8.84216 -0.010325 0.384507 0.490036
H 9.09108 6.03637 1.82878 -0.278617 0.349072 -0.210086
H 8.09987 10.0471 9.47078 1.17358 1.223782 0.303457
H 10.921 5.80699 8.6327 0.466969 0.295954 -0.725901
H 7.17295 3.83944 6.18408 0.485608 0.736932 0.144842
O 7.6574 5.64639 7.10382 -1.849083 0.434051 1.535154
O 11.6527 8.85186 8.54589 1.251523 -0.691268 2.537086
O 10.3587 12.1722 2.32248 -2.39546 -0.698851 2.274424
O 11.3893 6.10407 12.1002 0.233923 1.861713 -0.969737
O 11.3641 9.68478 2.61672 0.365064 -2.015392 -0.042958
O 2.46414 2.56654 9.15171 -1.82885 -0.414827 -0.459117
O 1.24097 2.47621 3.2517 -2.306884 -0.341002 -2.063416
O 2.68291 5.81625 1.61664 -0.010342 1.221399 1.090851
O 0.94075 4.25232 7.4906 1.180402 1.019078 1.148574
O 4.64269 3.77271 8.21904 1.76486 0.531286 0.248965
O 1.48998 12.2264 3.48112 0.445455 -0.631461 -1.101522
O 5.45747 4.20786 11.8995 -0.240248 -1.825034 0.680242
O 2.92432 4.53703 10.8434 0.405764 0.642784 0.867509
O 6.54624 7.93777 6.18983 -0.476587 0.478331 -1.706973
O 8.93309 9.64029 6.01585 1.210785 0.756261 -1.232017
O 6.32244 2.34136 10.2946 0.444636 -0.974653 -0.143542
O 6.49173 6.89152 0.55389 0.959904 0.341906 -0.023299
O 6.38224 5.58416 2.90246 0.235221 0.469455 -0.218557
O 9.35455 0.15031 11.2649 0.088515 1.361553 -1.030374
O 8.99406 6.10231 0.83745 1.699859 -0.293828 0.20035
O 2.2645 9.36804 0.08147 0.060786 -0.447771 -1.406717
O 11.9482 0.56941 11.0503 1.557642 0.271797 0.075625
O 2.63775 7.58243 3.79567 0.896672 0.917024 -1.273532
O 4.68406 8.2944 7.91363 0.531385 -0.590078 0.577689
O 7.69956 11.9136 0.94736 0.777271 1.082822 -0.527468
O 1.32934 0.27941 9.32218 -0.069619 -1.061072 -0.384122
O 8.95075 2.82035 11.0035 0.747478 0.331677 1.211506
O 4.78658 6.20142 9.29573 -1.283673 -0.375897 0.413902
O 8.3312 12.3922 5.12923 0.572559 -1.711831 -1.042766
O 6.61928 3.13641 5.84766 0.421475 -1.349303 0.190419
O 9.29205 8.62785 3.73966 0.44193 1.604968 -0.271804
O 8.70745 6.05237 3.60252 -0.205472 -0.151707 -0.140196
O 3.22697 11.3249 11.0369 -1.060054 0.43809 -0.998645
O 1.44646 9.70635 2.64099 0.656014 0.582934 -0.046417
O 5.75638 2.62159 1.6996 -0.387179 0.050841 -1.810865
O 9.92117 5.16486 5.82038 0.031048 2.247824 1.655074
O 9.28494 3.21106 1.57039 0.006947 0.754575 -0.65676
O 11.4511 6.21149 7.88144 -1.208251 0.101897 0.401277
O 6.77374 0.06013 7.64857 0.48141 0.438848 -0.308907
O 7.27145 6.26979 9.89612 1.700366 1.327989 0.462102
O 7.33262 9.05092 10.4895 -0.579032 0.290916 0.347385
O 5.31309 10.4145 9.47663 1.081838 -0.902113 -1.176632
O 4.15439 6.97081 12.0622 -2.044469 0.359236 -0.21908
O 3.45989 3.81037 3.25807 0.573999 0.183751 0.740984
O 9.84418 5.35541 9.93491 -0.833556 -1.220576 -0.17331
O 2.88291 6.56865 6.39846 1.164418 -1.248708 -1.753945
O 0.82277 4.6164 0.29187 0.270337 0.555406 2.13195
O 7.19496 9.53046 2.26848 0.077351 -0.027448 0.686979
O 5.45159 7.72717 3.65829 -1.103543 -0.236522 0.954493
O 12.009 3.06133 5.38239 0.18443 0.365813 0.002475
O 11.6048 12.2491 7.40138 -0.165204 -0.184144 -2.395996
O 7.73893 2.07086 3.53949 0.261298 -2.361424 -1.451648
O 12.2209 8.89968 11.2006 0.490102 -0.805283 -0.588306
O 10.8085 0.69062 5.01618 -0.506107 -0.424375 -0.454316
O 9.63561 9.06685 0.4044 0.605443 -0.111943 1.423193
O 5.51315 0.50919 11.9892 -0.135899 0.75694 0.930149
O 8.65677 10.8622 9.21936 -0.730964 -1.26544 -1.670547
O 4.61425 4.4678 5.44352 -1.609752 -0.989276 0.955537
O 11.7564 2.28964 0.84558 0.329565 0.778426 -0.00433
N 2.5006 1.55764 12.0488 -0.095955 -0.00828 0.343893
N 0.31993 6.15018 3.55676 -0.436009 0.508027 -1.718972
N 1.54423 9.76306 7.2284 0.300276 -0.132639 0.482844
N 9.86064 2.85466 8.09569 -0.907748 -0.964706 -0.319047
N 3.05992 0.82988 6.79408 0.895422 -0.530787 -0.069939
N 1.41229 10.1001 6.18785 -0.099904 0.194186 -0.543254
N 9.03565 2.13314 7.89827 0.996381 1.034367 0.25825
N 0.45484 5.78748 4.57938 0.111799 -0.646816 1.725539
N 4.0463 0.32306 6.86422 -1.123837 0.557203 -0.052732
N 2.37825 0.86218 0.50072 -0.047376 0.261969 -0.033428
N 5.21818 11.3498 2.57183 -3.338389 -2.051257 -0.740684
N 4.31923 10.7084 2.32518 3.144684 2.231087 0.835312
Na 6.33529 2.27559 8.07239 0.158492 -0.100319 -0.068304
Na 10.3108 10.1701 7.66406 -0.363482 0.618601 0.106978
189
energy=-1064.8165772 config_type=nep2xyz pbc="T T T" virial="-16.169804531132275 7.836372306970518 3.5364333316907137 7.836372306970518 -8.916732971152248 2.1780242352943433 3.5364333316907137 2.1780242352943433 -11.02351064262596" Lattice="12.4 0.0 0.0 0.0 12.4 0.0 0.0 0.0 12.4" volume=1906.6240000000003 Properties=species:S:1:pos:R:3:force:R:3
H 8.41667 3.27733 10.6801 -1.030634 0.367668 -0.353112
H 10.9094 10.0263 1.75305 -0.04864 -1.543914 0.318942
H 9.10089 3.5574 2.70163 -0.143204 0.286867 0.255039
H 9.4127 3.55947 11.8511 -0.192533 -0.786135 -1.402698
H 1.21695 10.3624 3.23598 0.455718 -0.372772 -0.079639
H 6.35795 8.27221 3.81898 -0.133689 -0.205326 -0.060077
H 9.97877 12.3305 5.24931 0.548885 0.33204 0.234827
H 6.95677 6.04242 12.1922 0.983466 0.066744 -0.437111
H 6.23999 8.02205 6.23758 -1.004273 0.111612 -1.029379
H 8.21841 10.2119 9.50535 0.189447 -0.265068 -0.599046
H 11.4838 12.3351 4.84302 -0.422884 -0.036121 1.375085
H 0.61122 4.04904 6.13717 -0.364476 -0.678948 -0.960467
H 2.13492 2.86451 8.93221 -0.732832 -2.717556 0.253898
H 10.0815 11.9938 1.70252 0.327825 0.518411 -0.251417
H 3.82789 11.4231 10.2083 0.382686 0.594866 -0.343071
H 1.64503 5.34892 6.35081 -0.567163 -0.776731 -0.117852
H 3.4975 6.06716 5.67485 -0.17048 -0.143432 0.017422
H 8.91842 9.07585 5.43755 0.030098 0.75561 -0.364962
H 10.0747 8.47384 3.11126 0.204286 0.340565 0.390081
H 12.0312 5.40105 10.3856 0.660309 0.099001 0.807121
H 7.46483 0.6919 3.82942 -0.293801 -0.416968 0.563562
H 9.60396 6.04744 7.14505 -0.245681 0.473098 0.064094
H 4.58527 4.44152 6.95425 0.734951 0.434002 -0.493383
H 0.02523 10.0805 10.7936 0.512586 -0.700989 -1.093841
H 9.11442 8.96452 9.14907 -0.949986 0.560675 0.653227
H 8.25229 5.78529 7.84647 -0.792591 -0.721212 1.450683
H 12.2279 9.39603 2.32826 0.239733 -0.653198 0.17106
H 5.11681 4.68511 4.6053 0.239615 0.599213 -0.119826
H 8.94907 11.085 1.10523 0.934199 0.16876 0.81916
H 9.45708 1.19016 10.7165 -0.060628 -0.678648 -0.010034
H 6.05973 4.73016 3.20532 -1.788177 -3.244369 0.304157
H 0.42209 4.34226 9.41423 -1.418108 1.287307 0.818662
H 6.57913 1.80366 4.57977 0.398762 0.382841 0.832335
H 4.17764 4.33666 8.38769 -1.090043 -0.516009 0.982514
H 9.03044 12.1991 11.3183 0.096114 -0.205924 0.172635
H 8.33967 7.54106 11.3814 0.241002 -1.776711 -0.768898
H 5.92015 3.52333 5.80467 0.640905 -0.12937 -0.23482
H 1.57161 4.9461 11.8852 0.156023 0.403997 0.51106
H 9.11792 4.81848 5.92226 0.543549 -1.140023 -0.207788
H 5.63856 1.89298 2.67547 -0.545308 -0.258479 0.528259
H 7.33169 7.97441 1.24898 -0.382349 0.186558 -0.075287
H 7.82484 5.80717 9.91572 -0.377381 0.335215 0.147065
H 8.25838 2.2248 2.74892 -0.565857 0.110512 0.609445
H 11.57 7.98667 0.80284 -0.192364 0.772041 0.942993
H 3.38275 3.84059 4.31752 0.274828 -0.375052 0.426946
H 8.8817 6.10966 11.9684 0.045392 0.218179 -0.885356
H 7.95623 8.88383 2.32095 -1.403809 0.198914 -1.407354
H 0.96022 0.70437 9.20302 -0.413303 -0.502693 -0.814157
H 7.39525 10.4276 12.346 0.304063 0.597798 0.241366
H 1.26164 9.16358 10.6274 -0.11293 0.358898 0.026322
H 10.5857 5.99782 0.28927 0.314666 0.122475 0.388465
H 2.14812 9.0172 3.12568 -0.01446 0.170306 0.140571
H 8.11119 10.9664 4.75419 0.256995 -0.021695 0.229159
H 7.38197 7.56417 6.95667 1.148695 -0.987446 0.577438
H 11.9324 5.95008 7.02186 -0.491335 0.452681 0.651221
H 10.1878 1.84956 1.48502 0.59925 -0.439913 0.474703
H 1.30335 2.54292 2.8856 -0.206064 -0.243807 0.363655
H 0.20633 11.3421 9.21769 0.382655 -0.855118 0.249629
H 3.25433 5.60438 1.57879 -0.205214 0.110607 0.096606
H 0.81532 5.16083 0.92666 0.506873 0.026259 -1.534159
H 9.2875 5.08048 3.91455 -0.139493 0.013304 -0.71008
H 2.89758 4.60373 10.0568 -0.380785 -1.446714 -1.537585
H 11.2258 1.76394 0.38193 0.623841 -0.314111 -0.463282
H 7.16424 11.9315 0.35033 -0.592831 0.363738 -0.017573
H 2.48014 8.00428 12.321 -0.43889 0.31142 0.086739
H 7.79092 9.42963 6.44087 1.27718 0.986369 -0.777075
H 11.8646 9.131 8.89503 -0.907689 0.300246 -0.022583
H 3.64422 6.76818 11.0499 0.068969 -0.85099 -0.22925
H 12.1454 2.59954 4.7244 -1.314025 -0.011091 1.463635
H 6.1055 1.97303 11.1611 -0.161145 1.191506 -1.416969
H 4.20614 6.607 8.42717 0.687591 0.338672 0.108026
H 5.24301 4.92278 0.40914 -0.646981 -0.160974 0.380411
H 2.99389 0.39566 10.14 0.961904 -0.251328 -0.171206
H 4.23396 7.92985 3.80762 0.266068 -0.205687 0.325867
H 6.46004 6.1328 1.35807 -0.259615 -0.584534 -0.616904
H 6.09081 6.63819 3.72131 -0.251559 0.794102 0.380454
H 2.81957 6.68765 2.64875 0.017948 0.005748 0.176776
H 3.75745 4.76857 11.4492 -0.672028 -0.497969 -0.309241
H 5.47587 3.30469 10.8028 -0.546358 0.785759 0.157373
H 2.88967 7.53929 4.6365 0.964641 0.675988 -1.127768
H 8.7204 12.0127 9.42599 -0.210059 0.557272 -0.861433
H 1.41606 8.61303 0.94032 0.314062 0.190385 -0.594258
H 8.01684 5.37963 2.94857 0.505336 0.204616 0.323158
H 3.99898 2.2647 2.68058 0.837002 -0.007397 0.159759
H 5.28396 0.20174 11.7863 -0.316672 0.431145 0.105353
H 3.34572 7.05883 6.89259 -0.69458 0.237272 -0.926283
H 5.07425 1.07293 0.68745 -0.643926 0.477239 1.095977
H 0.25791 3.34738 12.0242 0.361602 0.008283 0.061919
H 9.82845 9.63273 10.6963 0.610049 0.024499 0.596862
H 10.2458 3.63738 5.43589 0.57165 -0.141476 0.391093
H 11.5252 12.3268 9.56702 -1.362763 0.407885 1.235138
H 4.44717 9.12388 10.7232 0.959179 0.282504 -1.03693
H 9.13839 7.37706 3.6389 -0.020749 -0.518415 0.044404
H 5.06241 0.55102 8.81112 -0.189868 -0.551564 0.320726
H 6.58979 5.4374 8.90161 -0.900662 0.198062 0.08898
H 11.2917 1.81507 5.81339 -0.032226 -0.33032 -0.08346
H 8.71377 11.3767 3.35961 0.274068 -0.003671 -0.313077
H 4.79712 3.53549 1.00599 -0.290064 -0.436094 0.211809
H 10.9396 8.92469 11.6374 -0.662607 0.811258 -0.51101
H 2.74629 4.32848 3.01512 -0.425711 -1.482161 0.917715
H 0.85734 1.60178 10.4055 1.010197 0.310102 -0.405173
H 4.67318 8.13376 8.20974 0.871936 0.114238 0.27419
H 1.31634 11.7958 4.84949 -0.245146 -0.158882 -0.304916
H 4.72946 7.45787 11.9949 1.337407 -0.912251 0.777767
H 11.6337 3.1373 11.0036 -0.498396 -0.038564 -0.727184
H 1.81071 4.14042 8.04217 -0.606259 -0.118592 -1.373884
H 0.85101 0.08038 3.57144 -0.033695 0.80725 -0.441057
H 12.3098 1.95888 2.25511 0.218187 -0.274521 0.331795
H 5.40843 0.35298 7.30498 -0.06763 -0.215274 -0.061746
H 11.0297 8.38392 7.82711 0.027839 -0.089607 0.264445
H 12.3513 7.23535 12.1188 0.059303 0.234979 0.120792
H 5.87952 9.67909 10.1933 -0.420903 -0.247484 0.06605
H 9.78228 5.19164 1.48986 0.164102 0.609647 -1.221578
H 7.43268 11.9813 8.40347 0.793122 -0.07361 0.175617
H 11.3469 5.93123 8.43133 0.296563 -0.370307 0.371336
H 7.48351 3.6397 5.42769 -0.255819 -0.715637 0.606575
O 8.62967 5.95848 6.98573 1.493344 0.837342 -2.066593
O 10.9979 9.18234 8.39471 0.732552 -0.656782 -0.208764
O 9.61932 11.1621 1.86969 -0.906422 -0.253803 -0.767046
O 11.4504 7.5022 12.3767 -0.172885 -1.225129 -1.023613
O 11.3315 9.13148 2.01314 -0.400259 1.550102 -0.268922
O 2.27707 3.77231 8.80008 1.284639 2.442468 1.06232
O 0.54824 1.92489 3.01384 -0.071006 0.180507 0.043124
O 2.50449 5.90676 2.12933 0.288271 -0.423034 -0.381167
O 1.0567 4.62861 6.73778 0.847565 2.020846 0.826876
O 4.94681 4.55233 7.88063 0.449074 0.098142 -0.564143
O 0.68276 11.7004 4.11865 -0.120981 -0.305491 0.393717
O 4.44768 4.31219 0.5397 0.889837 0.565758 -0.464602
O 3.08826 5.12882 10.8141 0.705518 1.836951 2.216446
O 6.70689 8.23293 7.04682 -0.120917 0.625184 0.120064
O 8.56271 9.87967 5.89264 -1.164609 -1.895717 1.419612
O 6.0844 2.69649 10.4003 0.748324 -1.982758 1.333465
O 6.22189 6.22445 0.37334 -0.888899 0.362238 1.478704
O 6.50786 5.49696 3.03466 2.123406 3.452283 -1.13327
O 9.49407 0.20251 10.5652 0.346995 1.182023 0.434761
O 9.959 5.2672 0.48302 -0.749449 -0.537437 0.857553
O 1.56834 8.38589 12.395 0.348006 -0.278285 0.3854
O 12.2861 2.61357 11.4797 -0.181335 -0.124741 0.475049
O 3.24612 7.93205 3.74651 -1.366055 -0.417668 0.752766
O 3.95643 7.50652 8.1661 -1.20121 -0.601975 0.149661
O 7.7802 11.3324 12.312 0.094216 -0.962085 -0.098382
O 1.51413 1.31444 9.69759 0.046417 0.802912 1.447023
O 9.25892 3.00163 11.0173 1.206479 0.432483 1.834569
O 7.50881 5.33161 9.11866 0.713254 -0.932584 -0.095551
O 8.30712 11.7357 4.16999 0.120236 0.39166 -0.029037
O 6.82464 3.08057 5.91321 -0.797505 0.649328 -0.144072
O 9.39069 8.29743 3.80293 -0.445283 0.264474 -0.750038
O 9.06134 5.46784 3.0079 -0.471926 -0.297964 0.532859
O 3.92189 12.39882 10.0992 -1.056217 -0.148959 0.279294
O 1.45275 9.57387 2.69109 -0.265847 0.065984 -0.128835
O 4.77153 1.85793 2.20523 -0.599897 0.565225 -0.657157
O 9.39374 4.0748 5.28459 -1.63577 1.55746 -0.293794
O 8.95633 2.6998 2.28925 0.617284 -0.371957 -1.026829
O 11.2802 6.42914 7.59927 0.237035 -0.124445 -1.170786
O 5.80213 0.52925 8.1649 0.024218 0.207764 -0.193148
O 8.40414 6.55276 11.1731 0.219391 1.500911 1.786865
O 8.40639 9.28618 9.78111 0.65999 -0.568044 -0.304546
O 4.91908 9.70606 10.0495 -0.583656 -0.185739 0.74034
O 3.92697 7.56062 11.5193 -1.193066 1.694756 -0.32073
O 2.76057 3.47643 3.59606 -0.006285 1.594106 -1.696148
O 11.9496 4.81907 9.63757 0.76275 -1.341171 -1.301493
O 2.85516 6.72991 6.04384 0.480543 -0.857688 0.319909
O 0.70339 4.99708 12.3456 -0.201283 -0.182014 1.032921
O 7.22311 8.87717 1.59243 1.973931 -0.27747 1.493228
O 5.78423 7.5849 4.19181 0.528444 -0.403387 -0.097888
O 11.5898 2.71492 5.59274 1.828784 0.336761 -1.897547
O 12.1065 12.0844 8.86917 0.409354 -0.325043 -1.610534
O 6.88787 1.48373 3.73147 0.124653 0.068328 -1.453434
O 0.71476 9.79005 10.1072 -0.781511 0.375094 1.004719
O 10.8848 0.09068 5.64865 -0.399378 -0.437534 -2.039138
O 10.6072 9.8106 11.2869 0.233399 -0.56477 0.381794
O 5.68403 0.86688 12.378 1.152857 -0.936917 -1.386753
O 8.37405 11.7008 8.52206 -0.583618 -0.266844 0.117952
O 4.4511 4.40393 5.22879 -0.342274 -0.247264 0.97023
O 11.0122 1.32696 1.22358 -1.256865 0.740903 0.215741
N 2.46199 0.67947 0.84659 -0.2379 0.495532 -0.116431
N 11.4482 6.61101 4.44917 -0.291859 0.928728 0.956269
N 1.22733 9.50366 7.14211 -0.382403 -0.964799 0.310599
N 10.3767 2.0911 8.35126 -1.235741 0.287399 -0.74932
N 2.23324 1.02016 5.52516 0.156604 1.059156 1.999854
N 1.76937 10.3735 6.7488 0.543077 0.873031 -0.420831
N 9.39729 2.24334 7.84335 1.180035 -0.197968 0.823317
N 11.9452 5.83133 3.86011 0.690782 -1.04744 -0.882612
N 2.16969 1.4899 6.5367 0.149177 -0.723498 -1.732107
N 2.72917 12.0229 1.00763 0.130103 -0.510557 0.005113
N 4.1825 11.1994 3.9089 2.178135 -1.55004 2.128589
N 4.90557 10.6873 4.60708 -2.153703 1.603418 -2.117243
Na 6.6 2.56787 8.15672 0.1998 0.757161 -0.003119
Na 10.5503 10.9757 7.17982 -0.536456 0.008224 0.460006
189
energy=-1066.29709848 config_type=nep2xyz pbc="T T T" virial="-6.648195730275856 -0.8372274513173039 1.5991741672530622 -0.8372274513173039 1.489870728353363 -2.176489108063199 1.5991741672530622 -2.176489108063199 -0.4396294984509076" Lattice="12.4 0.0 0.0 0.0 12.4 0.0 0.0 0.0 12.4" volume=1906.6240000000003 Properties=species:S:1:pos:R:3:force:R:3
H 9.69455 2.47208 11.721 0.048248 -0.096233 -0.013815
H 12.1435 11.8852 2.43683 -0.54011 2.80455 -0.956545
H 8.76079 5.44536 1.88027 0.670949 0.301764 -0.478716
H 9.29972 3.94619 12.0467 0.248429 -0.151404 -0.27967
H 2.53633 10.3271 1.41341 1.831723 1.08872 -0.146717
H 5.45033 8.5751 2.69124 0.063287 1.014886 0.746112
H 8.40817 1.16277 4.91461 0.644789 0.596963 -1.017309
H 9.54475 7.39952 0.78661 0.573979 -0.403355 -0.468767
H 4.41443 7.66863 5.68431 0.342171 -0.858386 0.438655
H 6.63214 10.7566 10.4944 -0.19631 0.126121 0.270682
H 9.98844 1.67505 3.46258 -0.22822 -0.549702 1.551051
H 0.03569 4.34646 5.78844 -1.25214 -0.826866 -0.700441
H 1.96257 3.92414 9.42903 -0.105846 -0.012553 -0.438619
H 10.7152 1.33325 1.36038 -0.772235 0.01512 -1.126862
H 4.89879 11.3089 12.0909 0.390413 0.036775 -1.031115
H 1.33563 5.12043 5.72911 1.658255 0.542386 -1.553994
H 5.9523 4.31541 7.49375 -0.835552 0.331115 0.496298
H 7.95396 8.41858 6.16184 0.829666 1.89107 -0.015041
H 10.7982 10.4003 2.12973 0.330543 0.561036 -0.150336
H 12.2929 4.67828 9.75158 0.249679 0.273697 0.003636
H 6.85568 1.0334 4.52859 -0.609625 0.12036 -0.933633
H 8.18525 3.066 9.97717 -0.497615 0.157641 0.144168
H 4.8833 2.12702 8.65743 0.588539 -1.672368 -0.878438
H 10.9901 10.3676 10.4179 0.433251 -0.013242 0.3553
H 7.27829 9.44667 9.89981 0.463441 -0.606526 -0.336909
H 6.97944 3.99781 9.73912 -0.207555 0.780923 0.375635
H 0.35789 10.5502 2.46899 0.931588 -0.889323 -0.23352
H 4.83285 5.44699 4.89318 -0.363758 0.76929 0.189621
H 11.8111 2.05447 2.29366 -1.32953 -1.500179 -0.596877
H 9.46239 0.23966 12.1158 0.279238 0.787483 0.410342
H 7.14007 5.49515 2.86524 -0.578537 -1.206551 -0.093266
H 10.8032 4.40581 10.3337 1.460437 1.45794 0.123642
H 7.17936 2.45647 5.64413 -1.130737 0.3847 0.48664
H 4.7082 0.64313 8.06717 -0.59665 -0.079058 -0.145541
H 8.53157 1.28028 0.51989 0.470561 -0.517093 -0.111845
H 7.42863 7.02849 9.83225 0.979959 0.706952 -0.773714
H 7.53814 3.84428 6.058 1.714599 1.805882 0.108759
H 2.79206 2.58876 12.0769 0.222098 0.761851 1.119852
H 9.31121 5.14979 6.88899 -0.313321 0.090968 -0.537431
H 5.57564 2.69956 2.68239 -0.199627 -0.471056 0.520236
H 7.11449 10.1247 1.14282 0.325891 0.56093 -0.130402
H 4.94442 7.8649 11.8219 -0.262212 -0.803677 0.248735
H 10.0399 5.65639 0.87587 0.414505 1.094049 -0.446496
H 1.76597 6.07581 10.2006 0.196074 -0.717875 -1.144175
H 2.20032 1.05111 2.99924 -0.477719 0.025848 0.094569
H 8.82695 7.8718 9.109 -1.809309 -0.693304 0.582065
H 8.45458 10.8825 1.73459 -0.992895 -0.533743 -0.299637
H 2.00723 11.8563 8.76816 0.08398 -0.339722 0.658708
H 7.12627 0.06652 1.49078 -0.247316 1.119268 -1.172594
H 0.06248 9.66664 10.1453 -0.623059 0.37518 0.521619
H 11.3928 6.27154 11.4036 -0.235456 -0.425219 -0.832629
H 2.07872 8.88685 1.66308 0.121423 -0.279617 0.293347
H 5.41496 10.786 6.50727 -0.228766 -0.11742 0.15572
H 5.80848 6.98488 5.94551 -0.035394 0.028233 -0.476092
H 11.9826 5.75559 7.15176 -0.87203 0.113099 0.078774
H 0.31024 4.38626 1.71948 -0.454115 -0.131771 0.48031
H 3.10561 4.33886 4.33039 -0.590945 0.635416 -0.198227
H 10.9945 11.1347 4.59703 0.042602 0.073244 0.037933
H 1.46348 5.49364 12.2547 0.221026 0.207383 0.431968
H 2.45058 3.80255 0.74055 0.837066 -1.263621 -0.541865
H 7.91834 6.3862 5.73371 0.083292 -0.024161 0.109298
H 2.30374 1.62669 9.71578 -0.091727 -0.63887 -0.45626
H 11.1825 4.10282 1.81767 -0.389957 0.125594 0.045608
H 6.75835 1.60024 1.66287 -0.323451 0.156241 0.749347
H 1.33439 8.17951 11.0092 0.187412 -1.297113 0.502559
H 9.04554 8.92328 7.10943 0.584555 0.019761 0.731748
H 10.7269 8.73141 8.7142 0.1133 0.328945 0.348378
H 7.16742 8.7279 12.1878 0.454091 -0.336349 -0.512011
H 11.0182 4.05945 4.10685 0.527228 0.595685 -0.910205
H 5.82793 1.88357 11.9238 0.029369 -0.219215 0.957255
H 5.83371 5.78783 10.9266 -0.423016 0.276464 0.670372
H 4.97522 4.5305 2.35391 0.021454 -0.011896 0.105298
H 5.23831 0.00158 11.0538 0.082479 1.024494 -0.07879
H 3.83492 7.20698 2.28904 0.788916 0.138548 0.255273
H 8.44324 7.45714 1.94077 0.078516 -0.192119 -0.50756
H 6.30442 7.15566 2.47226 -0.651362 0.145273 -0.025294
H 1.97484 5.98673 1.27833 0.102302 -0.3492 0.160302
H 3.598 2.23733 10.3441 2.359623 -0.633563 0.520791
H 6.00404 1.96697 10.4589 -0.22451 0.036981 -0.102172
H 2.9562 6.16592 3.14005 -0.269441 0.465538 -0.688431
H 9.69682 12.0014 8.45171 -0.174155 0.613981 0.414361
H 1.19314 9.32457 12.1469 0.310139 -0.186252 0.045579
H 7.3863 6.78993 4.35854 -0.296978 0.337442 -0.234777
H 4.88361 1.40302 3.28878 -0.500296 0.152352 -0.249044
H 3.57306 12.1371 1.68059 0.532707 -0.350606 -0.042631
H 5.0138 5.54711 7.39653 -0.382889 0.466424 -0.363696
H 4.59535 10.9979 2.04031 0.32736 -0.20903 0.845857
H 11.6133 11.1748 8.6113 0.220551 0.316596 -0.425181
H 9.06344 10.6202 11.0404 0.083274 0.485779 0.560318
H 9.66449 4.64691 5.51381 -0.057432 -0.421151 -0.173033
H 10.3082 0.14306 4.77202 0.084508 0.420152 0.18099
H 3.64237 10.916 10.2198 0.869377 0.492858 0.202322
H 9.74545 9.32299 1.66537 -0.320988 -0.540732 -0.52665
H 2.97386 10.8884 6.37703 -1.005701 0.046796 -0.6003
H 4.35963 6.78807 0.47232 0.38622 0.478182 -0.535049
H 10.4665 2.76958 4.78174 -0.258255 0.106164 0.621303
H 6.82787 10.1066 6.16911 -0.352541 0.214839 0.605016
H 4.67933 3.76395 1.03651 -0.867333 -0.340097 -0.511976
H 10.0169 10.5547 0.0098 -0.421442 1.038489 -1.37501
H 2.91392 1.86644 1.87865 -0.484829 2.007473 -2.180228
H 0.77543 0.35378 8.33045 1.374894 -0.234871 0.369036
H 5.75536 5.44541 9.38929 0.838116 0.239835 0.45204
H 6.40324 10.6294 2.95399 -0.295938 -0.532991 0.168053
H 6.00431 8.42285 0.74933 -0.081489 0.280346 -0.018432
H 11.2633 11.6184 7.0741 0.677315 0.500481 0.80595
H 1.37745 4.52873 8.05403 -0.045247 -0.074495 0.129273
H 5.85518 10.4103 4.39098 -0.392861 0.110468 -0.238098
H 1.65635 3.92682 3.88557 0.529984 1.359913 0.063115
H 3.35274 10.777 7.90697 -0.067399 -0.212577 -0.065222
H 10.621 7.41673 7.85719 0.239393 -0.723984 -0.350846
H 2.8395 6.60835 11.2678 1.158676 0.252185 -0.144188
H 2.43369 9.94281 10.1857 0.511976 1.567192 -1.055956
H 12.0261 6.50439 0.34094 -0.400277 0.319188 0.045651
H 8.34569 11.4743 9.0876 -0.287299 0.194255 0.084699
H 11.0695 5.72535 8.48695 0.368911 0.200174 -0.734228
H 5.59382 4.15544 4.90906 -0.553177 -0.540944 -0.262111
O 7.28077 3.09422 9.58119 0.973132 -1.12002 -0.210471
O 10.1015 8.14692 8.25608 -0.293309 1.311385 0.269312
O 11.2661 1.19744 2.13069 2.282462 1.50119 1.562318
O 1.90833 6.48207 11.0495 -1.178049 0.533046 0.558743
O 12.0819 11.0784 2.89047 -0.1832 -1.968933 1.367034
O 1.40888 4.63611 9.02598 0.363997 -0.18909 0.250375
O 2.21033 4.73489 4.07421 0.336357 -1.946076 0.129056
O 1.48998 5.24931 0.8226 -0.237728 -0.242114 -0.125299
O 0.6392 4.87991 6.29805 -0.398077 0.220326 2.379848
O 5.3529 1.28666 8.36391 -0.373125 1.584148 0.608992
O 5.63197 10.2247 3.44194 0.524577 0.51257 0.218011
O 5.38595 4.0441 1.61871 0.813769 0.279698 0.682769
O 2.70492 2.40125 10.1513 -2.208356 1.210803 0.029589
O 4.81693 6.82881 6.00206 -0.209456 0.550537 -0.445496
O 8.40649 9.3149 6.49865 -1.428708 -1.944994 -1.155837
O 5.32839 1.70558 11.126 0.312831 0.433875 -0.83144
O 8.87765 7.94278 1.19392 -1.081133 0.719274 0.791729
O 7.31533 6.41318 2.97826 0.666107 1.332033 -0.704001
O 9.47632 1.13686 0.19461 -0.364343 -0.570845 -0.588524
O 11.2216 6.73758 12.2362 0.404815 0.011154 1.180869
O 1.27803 9.11345 11.1967 -0.091731 1.425393 -0.742617
O 11.5682 11.9561 7.96866 -0.989171 -0.960775 -0.647437
O 2.94882 6.81325 2.38976 -0.568193 -0.348955 0.330334
O 6.38948 5.63546 10.1643 -0.23136 -0.481954 -0.916622
O 7.05178 0.96932 1.00671 0.152717 -1.008593 0.197135
O 1.74272 0.36819 8.62105 -1.687983 1.239972 -0.614998
O 9.66479 3.3874 11.3256 -0.317613 0.491444 -0.123573
O 4.41262 7.02431 11.926 -0.279605 -0.15651 -0.096471
O 6.27806 10.9173 6.07965 0.418898 -0.358372 -0.551939
O 6.78289 3.28232 6.10174 -0.744536 -1.601843 -0.349953
O 10.1278 10.1923 1.44011 -0.311608 0.007261 0.764845
O 7.3447 7.08637 5.34399 0.150422 -0.112546 0.951027
O 5.19652 11.4442 11.1411 -0.786664 -1.15522 1.060143
O 1.77602 9.76588 1.41421 -2.096152 -1.100107 0.033349
O 5.70144 1.90823 3.28406 0.662464 0.353753 -0.180698
O 8.86203 4.96177 6.03264 0.319405 0.348198 0.985247
O 9.45965 5.04496 1.3168 -0.853931 -1.642456 0.659744
O 11.0948 6.04284 7.53563 0.580508 -0.886859 0.741391
O 3.67216 10.9683 7.00044 1.415011 0.082582 0.855095
O 7.82941 7.84352 9.40359 0.498131 -0.135226 0.302461
O 7.44465 10.3889 10.0902 0.412572 0.529246 -0.052777
O 2.90133 10.6948 9.64024 -1.057423 -2.318636 0.898385
O 6.23595 8.93173 12.3029 -0.125237 0.046 0.917014
O 3.02116 1.22902 2.54881 0.954077 -2.26673 2.02596
O 11.5158 5.14354 10.1379 -2.051462 -1.822678 0.044834
O 5.27387 4.84639 8.00188 0.79069 -0.987049 -0.463259
O 3.04814 2.97346 0.57372 -1.246417 0.882262 -0.66277
O 7.44793 10.8752 1.69357 0.909756 0.060502 0.223062
O 5.44805 7.81521 2.1115 0.566919 -1.497378 -0.387303
O 10.8723 3.7786 5.00393 0.118264 -0.494016 0.18754
O 10.4341 11.6362 5.20516 0.187285 -0.163924 0.097847
O 7.48313 0.95401 5.24051 0.701345 -0.351895 1.648901
O 11.6252 10.0149 9.74453 -0.132238 -0.177208 -0.730794
O 9.8215 1.62266 4.45613 0.163525 0.050981 -1.309621
O 9.8085 11.0785 11.5149 -0.012286 -1.33485 0.320588
O 3.99582 11.2973 1.35365 -0.867915 0.646357 -0.590927
O 8.74781 12.2419 8.59609 0.4961 -0.737042 -0.493563
O 4.81597 4.57955 4.46022 0.811656 -0.401841 0.003537
O 12.0118 3.95681 2.29403 0.728713 -0.022282 -0.430958
N 1.18877 0.33714 0.02978 -0.077615 -0.097174 -0.119358
N 10.6759 7.65617 3.47202 1.939988 -0.551029 -1.570434
N 5.13103 8.25139 8.89481 -0.721957 -1.482547 4.0668
N 10.826 2.47514 7.57535 -0.323521 0.013186 0.088017
N 2.01921 1.71986 5.88643 0.090673 -0.001788 -0.10311
N 5.26091 8.63034 7.8922 0.608302 1.657619 -3.800222
N 11.9268 2.42154 7.54791 0.147342 0.002216 0.082334
N 11.4803 7.42597 2.72486 -1.698676 0.491302 1.853546
N 2.16314 0.65349 5.63778 -0.090256 0.049435 -0.118566
N 0.24781 0.0266 11.9399 0.156282 0.032204 -0.003326
N 0.94722 8.67701 6.11854 0.424551 -1.732736 0.330377
N 0.67903 9.71922 5.92189 -0.448833 1.710468 -0.315377
Na 7.45902 1.44513 7.79511 -0.258323 0.578351 0.017453
Na 8.58974 11.5658 6.35033 -0.445225 -0.452333 -0.323422
189
energy=-1066.34641124 config_type=nep2xyz pbc="T T T" virial="-5.010131673167137 3.2526013968843195 -3.0737531243504517 3.2526013968843195 -0.49767872816813497 -2.249627805447799 -3.0737531243504517 -2.249627805447799 -12.25583700247989" Lattice="12.4 0.0 0.0 0.0 12.4 0.0 0.0 0.0 12.4" volume=1906.6240000000003 Properties=species:S:1:pos:R:3:force:R:3
H 9.72195 2.58698 11.6835 0.104448 -0.96178 0.228664
H 11.9282 11.9185 2.65651 -0.2727 1.685698 -0.464864
H 8.67037 5.50593 1.72257 1.141793 -0.153229 -0.445568
H 9.29657 3.96065 12.1077 0.250683 0.059703 -0.524708
H 2.70842 10.3618 1.37403 -1.470419 -0.895397 0.202417
H 5.50802 8.63885 2.7246 0.199971 -0.504175 -0.062526
H 8.55333 1.29213 4.94701 -0.200044 0.113177 -1.213596
H 9.55084 7.41445 0.9674 -0.075978 0.107458 -0.324738
H 4.30359 7.57 5.76009 0.745595 -0.709149 0.339
H 6.53087 10.5021 10.5649 0.036751 0.070024 -0.22543
H 9.97588 1.40945 3.51484 -0.221666 0.305258 1.489514
H 12.2862 4.28148 6.03762 1.064265 0.536836 -0.116
H 1.97017 3.84752 9.32716 0.31455 -0.101475 0.071183
H 10.5537 1.0517 1.39527 -0.104327 -0.144608 -0.242713
H 4.82855 11.1699 11.9794 0.056357 -0.311675 0.173558
H 1.25893 5.00063 5.6034 0.094926 -0.118846 -0.196735
H 5.692 4.47169 7.2814 -0.152846 -0.336289 1.580636
H 8.21906 8.62839 5.72449 -0.18649 -0.470306 0.441519
H 10.7804 10.3362 1.936 0.618111 0.495979 0.595099
H 12.3358 4.78047 10.0131 0.798134 0.259318 -0.374654
H 6.91262 1.11526 4.50844 0.583099 -0.293298 0.146356
H 8.00452 2.86083 10.121 0.458892 0.198057 0.111431
H 4.92219 2.20102 8.23889 0.564216 -1.862342 0.368093
H 11.0016 10.5294 10.4406 0.030027 -0.309358 0.710759
H 7.52812 9.46522 9.84772 -0.047337 -1.666894 -0.268508
H 6.95025 3.90698 9.74932 0.546832 -0.871384 -0.308557
H 0.47352 10.7089 2.59725 -0.243846 -0.192881 -0.079125
H 4.8317 5.42694 4.99256 -0.233796 1.031844 0.320113
H 11.4449 2.17726 1.89503 0.401182 -1.317531 0.637036
H 9.79575 0.2939 12.0905 -0.738769 0.547035 0.19821
H 6.99239 5.54136 2.69196 -0.360649 -1.297586 0.00498
H 11.022 4.29225 10.6367 -0.34177 1.582758 -0.676358
H 6.99244 2.46304 5.66878 -0.165487 -0.311883 -0.064956
H 4.69163 0.61449 8.19748 -0.654024 -0.203822 -0.260029
H 8.59963 1.11517 0.5311 0.006722 0.038735 0.025252
H 7.42641 6.94212 9.65514 0.848838 1.031113 -0.183487
H 7.63874 3.82123 5.93335 -0.180447 0.63724 0.451923
H 2.8921 2.60162 12.1513 0.319966 0.478176 1.310956
H 9.4364 5.25257 6.82475 -0.417749 0.280017 0.1169
H 5.75041 2.77382 3.01348 -0.135269 1.486201 -0.741804
H 7.11821 10.4448 0.91408 -0.378403 -0.470299 0.275294
H 4.91062 7.67158 11.6566 0.062073 0.277385 0.170296
H 10.0364 5.57469 0.78042 0.211212 1.052388 -0.338317
H 1.82972 5.98763 10.1943 0.080128 -0.116961 -0.217933
H 2.27828 1.01283 2.98637 0.000817 -0.210493 0.140608
H 8.8515 7.80858 9.12144 -1.819918 -0.316248 0.371468
H 8.33537 10.6011 1.86852 -0.647874 0.662107 -0.324842
H 1.89831 12.0864 9.25295 0.546284 -1.00366 0.371665
H 7.17133 0.07152 1.01274 -0.188192 1.986121 0.841983
H 12.2879 9.52388 10.3417 0.796757 -0.136138 0.929338
H 11.3542 6.35178 11.4656 -0.07894 -0.432235 -0.798717
H 1.9749 8.97467 1.79979 0.214156 -0.35289 0.055555
H 5.51501 11.0646 6.68217 -0.231283 -0.458914 0.098756
H 5.80639 7.01424 5.73768 0.536818 0.332597 0.113946
H 11.6992 5.92619 6.90731 -0.104943 -0.019078 -0.084436
H 0.25948 4.47214 1.69504 0.009274 -0.380284 0.017536
H 3.15025 4.49453 4.23135 0.506035 -0.768133 0.061348
H 10.9962 11.2645 4.51139 -0.257119 0.144343 0.276425
H 1.64107 5.70473 12.3202 -0.467154 -0.840704 1.306582
H 2.44768 3.74227 0.69974 -0.50806 0.772921 0.260714
H 8.0919 6.4386 5.63878 -0.31918 0.076682 0.011134
H 2.07857 1.73253 9.58682 1.283824 0.775796 1.029573
H 11.1748 4.2877 2.00174 -0.594827 0.066817 0.028222
H 6.65336 1.2285 1.942 -0.516712 0.406534 1.232983
H 1.51324 8.11043 11.1454 -0.215668 0.683497 0.006391
H 8.95642 8.83999 7.16591 -0.614777 0.390716 -1.049943
H 10.6648 8.72429 8.87283 0.3394 0.101643 0.154626
H 7.11375 8.64636 12.0338 0.346149 -0.032915 -0.252129
H 11.2878 3.97414 4.11912 0.265941 0.33289 -0.371198
H 5.69518 1.89744 12.019 0.621154 0.157661 1.051031
H 5.87379 5.85623 10.9316 -0.254889 0.056695 0.435352
H 5.23325 4.70321 2.26367 -0.110795 0.003582 0.11447
H 5.31084 12.32904 11.1023 -0.203148 -0.389235 -0.294347
H 3.92708 7.21105 2.46889 0.083287 -0.323537 0.182683
H 8.26059 7.28871 1.82111 -0.034549 0.106372 0.243931
H 6.36484 7.11455 2.43637 -0.433999 0.89143 0.21876
H 2.01292 5.79942 1.48014 -0.476122 -0.691463 -1.145341
H 3.51236 2.11341 10.2502 1.610164 -0.700158 -0.046683
H 5.91209 1.95083 10.4927 -0.007983 -0.019859 0.0199
H 2.65874 6.30153 3.02343 -0.023481 -1.030484 1.933079
H 9.73296 12.1381 8.51015 0.627749 -0.044427 -0.024244
H 1.52483 9.59745 11.8632 -0.209653 -0.574636 0.877072
H 7.40507 6.86644 4.32113 0.173002 0.215245 0.588066
H 4.84277 1.54276 3.185 -1.153676 -0.147233 -0.068707
H 3.78942 12.1877 1.56239 0.100859 -1.355451 -0.043922
H 4.93213 5.66013 7.5585 -0.554676 0.424406 0.449544
H 4.52476 10.9319 2.17116 0.056117 0.047322 -0.376145
H 11.6768 11.0675 8.51628 -0.262628 0.26595 -0.385362
H 8.97926 11.0983 11.1446 0.611019 -0.414733 0.347007
H 9.57007 4.55977 5.54517 0.049556 0.21094 -0.656914
H 10.203 0.17316 4.97524 0.37386 0.131505 -0.41163
H 3.73828 10.9066 10.2061 1.294605 0.429799 0.56016
H 9.81994 9.24347 1.40825 -0.75631 -1.030509 -0.035192
H 2.93597 11.1261 6.48965 -1.395389 0.422233 -1.014083
H 4.47144 6.86127 0.49654 -0.107876 0.166009 -0.621707
H 10.4289 2.8661 4.79099 0.263365 -0.179305 0.296974
H 6.96254 10.369 6.4823 -0.712246 -1.020281 0.225254
H 4.65681 3.71112 1.28105 -0.76584 -0.40928 -0.584128
H 9.94627 10.8463 0.0154 -0.115391 -0.865296 0.721326
H 2.93335 1.91554 1.86453 0.579605 -0.944121 0.887833
H 0.69858 0.05278 8.3033 0.936843 0.590819 0.546266
H 5.89408 5.40923 9.43567 0.470759 0.201312 0.341102
H 6.53942 10.451 3.00849 -0.25921 0.333651 -0.062222
H 6.21974 8.46952 0.87578 -0.474331 0.043828 0.176895
H 11.5025 11.7009 6.99812 -0.35233 -0.158188 0.687988
H 1.31167 4.70637 8.13361 0.295744 -0.10986 0.522504
H 5.73853 10.4585 4.42208 0.264182 0.00663 -0.381148
H 1.58326 4.05958 3.80534 1.205713 0.51462 0.121776
H 3.26162 10.6395 7.92501 -0.317381 -0.005931 0.767434
H 10.4797 7.31899 7.97472 0.05375 0.767755 0.308758
H 2.83417 6.74415 11.1994 0.861876 -0.124358 0.061331
H 2.42592 10.0623 10.2809 0.249406 0.111819 -0.870591
H 12.2412 6.73578 0.23625 -0.638824 0.122163 0.006334
H 8.41222 11.4817 9.0085 -1.142482 -1.74226 1.470054
H 11.3103 5.6352 8.33848 -0.140021 -0.517203 1.290113
H 5.41 4.01572 5.02797 -0.849668 0.728506 -1.10147
O 7.30468 3.00813 9.46922 -0.659772 0.640822 0.43003
O 10.0687 8.17731 8.3303 -0.016779 0.028644 -0.37748
O 11.2743 1.19443 2.05612 0.052997 1.364434 -0.068236
O 1.89962 6.58324 10.9755 -0.484972 -0.250181 0.344292
O 11.9984 11.0129 2.92841 0.703404 -1.343942 0.260227
O 1.55555 4.70114 9.09727 -0.468968 0.272042 -0.634312
O 2.24019 4.76699 4.01257 -1.890303 0.240518 -0.270353
O 1.47536 5.21749 0.83834 1.131242 1.601741 -0.639672
O 0.67046 4.83936 6.36032 -1.155538 -0.325379 0.283099
O 5.31212 1.29419 8.46422 -0.24518 1.891998 -0.522572
O 5.67585 10.2744 3.4524 -0.619742 -0.287146 0.509857
O 5.49402 4.06062 1.58775 0.684128 0.586882 0.580204
O 2.62308 2.40846 10.1738 -2.860967 -0.410427 -1.030216
O 4.88099 6.81933 6.02677 -0.90561 0.058783 -0.675971
O 8.42735 9.28123 6.42222 0.65036 0.553618 1.0082
O 5.3222 1.60659 11.1952 -0.418008 -0.052693 -1.034589
O 8.80152 7.93301 1.29889 0.35033 -0.145077 -0.617969
O 7.42155 6.37696 2.76899 0.045857 0.724429 -0.065669
O 9.51412 1.14414 0.15627 0.775004 -0.257547 -0.440654
O 11.3328 6.85283 12.2916 0.306332 0.119163 1.018961
O 1.28221 9.08402 11.0798 0.289175 -0.032676 -0.458172
O 11.4767 11.8895 7.97136 0.335096 -0.508503 -0.249706
O 3.00724 6.85404 2.35171 0.065397 1.470567 -1.813624
O 6.4827 5.61442 10.2265 -0.337224 -0.516007 -0.855881
O 7.11976 1.10255 1.12087 0.458153 -2.217609 -2.117332
O 1.61835 0.33893 8.61272 -1.379552 0.870933 -0.682327
O 9.64169 3.47899 11.3138 -0.32733 0.801237 0.349001
O 4.35655 6.91799 11.9215 0.199416 -0.223443 0.351352
O 6.27728 10.9474 6.09601 0.305175 0.427278 -0.200614
O 6.79448 3.33752 6.08111 -0.081238 0.059353 -0.121987
O 9.96924 10.1884 1.43024 -0.011608 0.954057 -0.016201
O 7.45675 7.12698 5.30698 -0.227589 -0.363577 -1.110998
O 5.12524 11.3427 11.0669 0.058392 0.790988 0.480469
O 1.78934 9.83403 1.4083 1.263871 1.345642 -0.163103
O 5.73779 1.86264 3.25462 1.208263 -1.565688 1.040741
O 8.87256 5.06187 6.04341 0.654409 -0.590319 0.427098
O 9.45095 5.03097 1.30482 -0.904373 -1.050211 0.73443
O 10.9426 5.99994 7.53243 0.407709 -0.161957 -0.908573
O 3.62354 10.9671 7.095 2.094903 -0.129859 0.415382
O 7.84429 7.81927 9.39623 0.543513 -0.511143 0.227967
O 7.39056 10.3748 10.1053 0.570853 1.778767 0.292832
O 2.97509 10.6531 9.68977 -1.68704 -0.717349 -0.052208
O 6.32329 9.00513 0.0502 0.102015 0.095902 -0.397348
O 3.14208 1.20481 2.60629 -0.427149 1.135209 -1.352322
O 11.4489 5.11893 10.1893 -0.645403 -1.67483 0.77302
O 5.18271 4.86047 8.06242 0.682454 -0.23119 -2.220868
O 3.05062 2.98239 0.67878 -0.019199 -1.140803 -1.59709
O 7.39431 10.9393 1.7204 1.389749 -0.588462 -0.451105
O 5.50281 7.81238 2.17231 0.038328 -0.415902 0.466556
O 10.9365 3.7783 4.99475 -0.357553 -0.512596 -0.016039
O 10.3887 11.6015 5.20077 0.708151 -0.141325 0.08986
O 7.57894 0.95203 5.21746 -0.769131 0.194885 0.904281
O 11.575 9.96972 9.87976 -0.987024 0.438759 -2.103541
O 9.7738 1.58039 4.4885 0.892782 0.276457 -1.038977
O 9.90279 11.1886 11.5032 -0.875542 0.934453 -1.609878
O 4.03337 11.2243 1.35384 -0.025326 1.23491 0.688172
O 8.76701 12.1987 8.52375 0.368756 1.732657 -1.604264
O 4.79419 4.61723 4.4678 1.246517 -1.813389 0.677758
O 12.0351 3.89595 2.21058 0.111534 0.329321 -0.006897
N 1.18831 0.41217 12.39899 1.437723 0.38342 0.852831
N 10.629 7.55497 3.39345 0.169488 -0.030346 0.156847
N 5.09667 8.21981 8.96018 -0.124522 1.035274 -3.551475
N 10.7456 2.38082 7.56603 1.047111 0.067884 0.143861
N 2.04065 1.72181 5.85841 -0.077901 1.427695 0.350261
N 5.09948 8.53286 7.87308 0.090457 -0.694808 4.0012
N 11.8499 2.47748 7.64734 -1.211726 -0.125804 0.036789
N 11.568 7.52311 2.81081 0.074653 -0.016619 0.126458
N 2.12725 0.66836 5.57083 0.058144 -1.377519 -0.398935
N 0.29619 0.12201 11.8358 -1.342534 -0.42773 -0.894369
N 0.91342 8.70327 6.04949 -0.430666 1.649951 -0.235225
N 0.65872 9.78137 5.91492 0.417024 -1.700935 0.257193
Na 7.43402 1.35296 7.64685 -0.264395 0.606242 0.256167
Na 8.57324 11.5169 6.2747 -0.016282 -0.158573 -0.323974
189
energy=-1065.40534893 config_type=nep2xyz pbc="T T T" virial="4.429080066073439 -9.267765398007263 -2.741975239045758 -9.267765398007263 -4.130289565921708 3.0125384384821823 -2.741975239045758 3.0125384384821823 -1.9704726536014032" Lattice="12.4 0.0 0.0 0.0 12.4 0.0 0.0 0.0 12.4" volume=1906.6240000000003 Properties=species:S:1:pos:R:3:force:R:3
H 7.1363 2.56426 0.86037 0.697569 -0.378021 0.615942
H 11.4759 9.2796 2.42058 0.488056 0.222267 0.17058
H 9.72013 4.26276 2.91768 0.3373 0.58264 0.612499
H 8.48276 2.21875 1.76678 -0.199718 0.688772 -0.319229
H 2.02906 10.3551 3.54606 -0.656874 2.38877 0.149348
H 7.15992 9.76285 3.29027 0.024846 0.098441 -0.19933
H 10.9797 12.1155 4.72519 0.418527 -0.833686 1.377392
H 8.41343 7.21967 0.26469 -1.469724 -1.161936 -0.754304
H 7.42337 6.4756 5.16403 0.405334 0.020754 0.237033
H 5.70077 8.58509 8.88397 0.136986 -0.115088 -0.156863
H 12.378 11.7804 5.21902 0.650716 -0.21705 -0.252773
H 0.09354 4.27998 6.47359 -1.18984 -0.684449 -1.815114
H 1.06982 2.25662 9.53056 0.199462 0.913644 0.133495
H 10.844 10.4995 10.9696 -1.15649 -0.290524 0.493978
H 1.98908 10.6384 8.60972 -0.617666 -2.140937 0.221757
H 1.31156 5.13585 6.96897 -0.101148 0.326403 0.220176
H 3.19959 6.24954 6.60612 1.447021 0.391075 -0.865122
H 7.19846 8.93331 7.10173 -0.083975 0.144021 0.781868
H 10.3868 9.27554 4.25346 1.328506 -0.748747 -0.718008
H 10.5493 7.43807 12.0785 -0.832652 0.328313 -0.181404
H 7.82722 1.29068 4.24672 -0.455599 0.10158 0.135381
H 6.03655 3.97078 7.25329 -0.65364 -0.498698 0.690805
H 6.51259 4.51321 5.21779 0.342419 0.264184 0.396227
H 0.17779 9.39413 10.9522 1.48081 -1.176827 0.178204
H 4.95274 8.4135 10.2864 0.730721 -0.600476 1.601011
H 4.89077 3.68617 8.31783 -0.198521 0.562829 0.230578
H 0.0183 8.72255 3.66372 0.168555 0.548812 -0.844919
H 5.4401 6.03134 5.49256 -0.525181 0.082733 0.612341
H 11.9691 11.3488 10.4699 -0.388276 -0.970596 -0.690257
H 8.48192 0.69368 12.364 -0.470125 0.630708 0.827951
H 7.7146 6.30463 3.39664 -0.168197 0.733785 0.525894
H 9.3393 7.92213 11.1925 0.16077 -0.006684 0.617247
H 8.60325 1.36698 5.65194 -0.143631 0.024472 -1.011836
H 6.75999 4.42398 3.66689 -0.495591 -0.442839 0.862698
H 9.69211 0.1188 11.6481 -0.043869 -0.132059 0.136782
H 5.78048 5.68232 10.1123 0.064266 -0.431488 -0.273154
H 8.38214 2.77947 8.09775 0.09201 -0.867591 -1.480819
H 0.79799 3.92607 10.944 0.005691 -0.292167 0.143252
H 7.92661 4.94468 8.82758 -0.406621 -0.55994 -0.715549
H 4.55867 3.98483 3.65313 0.744196 -0.389998 0.700428
H 9.1181 10.506 3.96662 -0.3812 0.857827 -0.986633
H 2.42391 6.91235 11.323 0.436324 -0.278964 0.541841
H 9.71357 2.95805 3.71368 0.155268 -0.54939 1.261288
H 12.3543 7.11553 10.8774 0.237275 -0.967729 0.92614
H 4.1152 5.77516 4.69838 -0.934284 -1.494803 -2.159437
H 7.02003 5.88739 10.9117 0.753168 0.16345 0.648579
H 8.62664 11.9633 4.00576 0.030692 1.058498 0.286067
H 12.0721 0.94948 9.12614 0.528793 -0.166809 0.5046
H 6.93658 1.37006 2.47903 -1.151024 0.194219 1.048891
H 1.52549 8.92804 11.8595 -0.660527 -0.203874 -0.403157
H 9.85219 10.6329 1.96883 0.234889 0.010378 -0.841225
H 2.69183 9.12634 3.83234 1.662637 -1.270731 1.064557
H 7.45784 10.1311 5.31935 0.135034 0.069889 1.604329
H 7.66619 5.6863 6.73547 -1.452606 0.366064 -1.011494
H 11.8926 5.69384 8.19643 1.03134 -0.871288 -0.869118
H 11.2364 2.8608 1.67033 -2.302015 1.242127 1.172947
H 2.061 2.66504 3.66829 1.547496 0.998975 0.059124
H 11.3301 0.73204 6.7888 0.115909 -0.533831 -1.272285
H 4.12934 3.96314 0.67028 1.89585 -0.964928 -0.168476
H 1.71246 3.96958 12.194 -0.006196 0.239835 0.256018
H 9.3657 6.17148 3.99567 0.574837 0.135757 0.266113
H 3.36946 5.39985 8.59415 -0.360002 0.355736 -0.58755
H 0.14314 3.06142 0.83776 -0.827344 -0.444234 0.004589
H 6.53764 2.39181 3.61935 -0.461951 0.514555 0.393421
H 3.57349 8.9589 0.83695 -0.879775 0.078287 -0.574551
H 6.72091 7.46032 7.17015 0.392539 -0.007146 0.446667
H 11.1361 9.35413 8.90797 -0.048594 -0.571986 -0.157029
H 4.68342 7.16771 12.0083 0.217082 0.50292 -0.193694
H 12.3955 3.31139 4.62221 -0.418682 -0.12082 0.029961
H 6.24418 11.9863 9.60083 0.210285 0.379307 0.069905
H 1.97291 8.62945 9.70234 -0.924117 -0.064894 0.79144
H 6.04289 4.14054 12.1154 0.506225 0.584821 -0.483793
H 1.6327 12.089 9.0455 -0.337468 0.216052 0.247826
H 5.20503 9.1454 4.75604 -0.666417 -0.237574 0.145787
H 7.5051 6.1968 1.1047 -0.649941 0.331919 -1.355785
H 7.0166 8.30394 3.91208 0.709136 0.054264 0.122555
H 3.22983 5.0939 0.32561 -0.437719 -0.778325 0.776143
H 2.79512 4.20248 9.4018 0.672314 0.273824 -0.034545
H 7.41243 12.265 10.685 0.280203 0.134728 0.1933
H 4.3682 7.87439 5.18934 -0.05323 -0.453774 0.342504
H 9.98833 0.01158 8.59592 0.271664 0.69495 0.338202
H 2.28595 9.20357 1.63712 -0.32205 0.099144 0.602357
H 10.7597 6.23382 3.17675 -0.576943 -0.223658 0.945606
H 8.00457 4.8209 2.13795 0.951265 -0.730193 0.005114
H 3.93905 11.6585 8.67166 0.137222 -0.27162 0.220582
H 2.67133 7.25931 7.79408 -0.376988 -0.630073 -0.771476
H 5.01278 10.589 9.10509 -0.359847 -0.147185 -0.281058
H 11.4047 11.776 0.32878 -0.409766 -1.091755 1.447809
H 7.95658 7.91241 9.13827 -1.013944 0.055077 -0.46498
H 9.15862 5.43622 8.28648 0.65025 -0.447835 -0.823771
H 10.8265 2.15311 7.30089 0.040004 -0.343835 -0.312095
H 2.83802 10.9164 6.77828 0.674383 0.117779 -0.877936
H 9.15414 8.30141 4.53952 0.454047 1.149857 0.145563
H 5.80624 0.3891 4.81526 -0.61842 -0.821222 1.089823
H 3.32994 5.79359 10.7127 0.021608 0.33733 0.713189
H 11.3267 4.46346 4.50176 -0.218429 -0.146061 0.433243
H 6.89304 11.0683 6.4058 -0.633255 0.497464 -0.02511
H 6.39507 4.47522 1.32479 -0.446672 0.256898 -0.655114
H 9.4044 7.92483 9.09141 1.503298 0.714755 -0.7777
H 3.68729 4.2392 2.47144 -0.586902 0.303379 -1.911519
H 12.3851 0.82417 10.7255 0.121561 -0.354392 -0.644073
H 3.31305 8.82501 9.00979 0.495102 0.100977 -0.124272
H 2.09703 11.7754 4.97125 1.411184 -0.356405 1.144515
H 6.20454 7.52752 12.1869 0.157503 -0.031725 -0.003372
H 11.7467 0.95144 0.33845 -0.279409 -0.56646 0.318465
H 0.89324 3.5834 8.64059 0.102987 0.05086 0.193274
H 1.59807 0.66543 4.06464 -0.082077 -1.840942 0.44385
H 0.84962 2.19412 2.88939 -0.130321 -0.111302 0.677983
H 4.73781 11.8486 5.73707 0.766055 0.602574 -0.33202
H 11.0069 8.01477 7.99801 1.158426 -1.735205 -0.059091
H 11.9983 5.61951 11.5407 1.634817 -1.386016 1.466964
H 3.68297 9.97779 5.74582 -0.431461 0.3574 0.059726
H 10.1615 9.61706 0.67327 0.085086 1.096754 1.226585
H 8.46317 12.0316 9.09014 0.671795 -0.107266 -0.244687
H 11.0522 6.17536 9.33151 -0.013941 0.082209 2.259634
H 8.64872 1.23204 7.89422 0.390718 -0.627252 0.471401
O 5.56886 3.27555 7.7729 0.871654 -0.118571 -0.835021
O 10.6077 8.81578 8.28286 -0.820775 2.301954 0.303835
O 11.4885 10.4894 10.272 1.49546 1.145119 0.26637
O 11.7675 6.32286 10.9842 -1.622242 2.645984 -1.865339
O 11.5387 8.78531 3.26246 -0.132078 -0.649091 0.07446
O 1.23131 3.24799 9.51401 -0.088726 -0.505646 -0.835757
O 1.26192 2.17311 3.79572 -1.335242 -0.255861 -1.190863
O 3.22916 4.21376 0.82832 -1.69138 1.783047 -0.973348
O 0.52737 4.62228 7.23427 1.237724 0.258105 1.935988
O 6.38203 3.89821 4.4836 0.245604 0.367162 -1.707871
O 1.56528 12.039 4.24012 -1.620993 1.72871 -1.701493
O 5.8313 3.94869 0.62893 0.232627 -0.859285 0.805524
O 3.60045 4.7944 9.31791 -0.573521 -0.735993 0.573236
O 6.91995 6.05578 6.12907 1.2047 -0.616543 0.994411
O 6.97629 8.22067 7.7686 -0.605786 0.056804 -1.163986
O 7.05858 0.11037 9.81012 -0.335772 -0.253887 -0.554264
O 7.57346 6.61217 0.15373 1.591042 0.820119 1.864628
O 7.99783 6.93287 4.15116 -0.074719 -0.451622 -0.669365
O 8.76568 12.3259 11.867 0.222475 -0.534672 -0.719062
O 10.5175 10.3537 1.27796 -0.246136 -1.116689 -0.671111
O 2.59823 9.0701 0.72881 1.211173 -0.171522 -0.418815
O 11.5768 0.13648 12.1947 0.558138 1.995367 -1.275239
O 4.33666 8.85209 5.16493 1.055237 0.200764 -0.917001
O 2.35833 8.6922 8.82467 0.59485 0.049961 -0.956771
O 6.38702 1.4747 3.34937 0.999357 -0.938558 -0.999395
O 0.36612 0.72147 9.81519 -0.762408 0.319436 -0.291299
O 7.7776 1.86109 1.18783 -0.298229 0.108905 -0.51973
O 3.18715 6.34056 11.5554 -0.570479 -0.310902 -1.386047
O 7.59189 10.4226 6.2949 0.557541 -0.841675 -1.450974
O 8.3901 2.02205 7.42479 -0.508931 1.328755 0.751211
O 9.58551 9.18936 4.76935 -1.857909 -0.694111 1.12129
O 10.2776 5.70259 3.8576 0.082792 0.712779 -1.305029
O 2.31296 11.5115 8.68216 0.686078 1.651962 -0.363985
O 1.98671 9.44734 3.30938 -1.082395 -1.100054 -1.066448
O 7.18711 5.25134 2.34555 -0.525816 0.052747 0.041486
O 8.49808 4.75087 8.02801 -0.378519 1.121893 1.823737
O 9.62835 3.30533 2.83927 -0.340659 -0.489061 -1.99217
O 11.1065 6.18265 8.39908 -1.316367 0.845466 -1.67715
O 5.62471 12.3347 5.70427 -0.380336 0.185662 -1.107869
O 6.628 5.24704 10.303 -0.601776 0.045683 -0.284152
O 4.98618 8.90895 9.47503 -0.601923 0.941106 -1.64671
O 3.24398 10.8903 5.87414 -0.325447 0.25786 1.401905
O 5.34715 7.87577 11.841 -0.541452 -0.443214 0.379389
O 3.64943 4.16536 3.40971 -0.379381 0.001662 1.955218
O 9.72451 7.99499 12.131 0.846123 0.071449 -0.811523
O 2.54735 6.4094 7.27522 -0.71358 0.122761 1.957085
O 0.78541 4.12095 11.9132 0.044681 -0.174012 0.252704
O 8.92016 11.3189 3.3568 0.480512 -2.553516 0.291574
O 6.76121 9.26311 4.01151 -0.577735 0.006742 0.026151
O 11.5888 3.68303 5.04109 0.671456 -0.006249 -0.112208
O 11.2376 1.30877 7.54056 0.016641 0.631189 1.720338
O 8.66324 1.07548 4.70604 0.672882 0.384253 1.350161
O 0.89376 8.66467 11.1085 -0.499344 1.045594 0.279913
O 11.4526 11.6893 5.51056 -1.332644 1.320158 -1.179622
O 8.70918 7.53419 9.59678 -0.288727 -0.955342 1.840642
O 4.89644 11.4394 8.62176 0.709298 0.417252 0.054238
O 9.29308 11.7575 8.5776 -0.92401 -0.309731 -0.123102
O 4.46077 6.22064 5.43389 0.983792 1.21398 1.396439
O 11.9745 2.40985 1.34413 3.145256 -0.998168 -1.316684
N 3.78917 1.3407 12.2464 0.09253 0.918707 0.591565
N 0.80512 5.29477 2.48194 -0.686499 -1.570481 0.859701
N 0.53082 8.03546 6.35771 -0.446763 0.946644 -0.491457
N 10.2147 3.43748 10.8464 -0.026625 1.281918 0.798124
N 2.71246 1.78084 6.1256 0.191564 0.123712 0.11221
N 0.309 9.06611 6.00464 0.407103 -0.94541 0.434895
N 10.2221 2.49906 10.2808 -0.027832 -1.208278 -0.743163
N 1.17408 6.20583 2.00396 0.632989 1.622709 -0.810882
N 1.93823 1.24806 6.70521 -0.06169 0.11249 0.132923
N 3.58267 0.48503 11.5902 -0.332781 -0.77659 -0.752582
N 5.71267 11.9154 0.82104 -0.306709 -3.63305 0.819556
N 5.54011 10.8249 1.05768 0.539649 3.439768 -0.659433
Na 6.18344 1.06451 7.44345 -0.127343 0.347285 0.567538
Na 9.98363 10.4312 6.90809 -0.54843 -0.15958 -0.627146
189
energy=-1065.11699022 config_type=nep2xyz pbc="T T T" virial="1.0946290172836068 5.868481999176543 -1.0163732291285255 5.868481999176543 4.062791568595732 -4.347135212479174 -1.0163732291285255 -4.347135212479174 -4.555353205993385" Lattice="12.4 0.0 0.0 0.0 12.4 0.0 0.0 0.0 12.4" volume=1906.6240000000003 Properties=species:S:1:pos:R:3:force:R:3
H 6.40998 2.57132 1.58167 -1.380608 1.594268 -0.375775
H 12.3343 9.40815 2.09049 -1.737773 0.37193 -1.163357
H 8.69012 4.09579 1.93117 0.007907 0.285341 0.14183
H 7.82693 2.20716 1.78761 2.226145 1.085716 0.528935
H 2.12737 11.5928 3.09626 0.169146 -0.154422 0.44702
H 7.00959 8.57818 3.27303 -0.753561 0.185116 1.46122
H 10.8402 11.4356 4.64645 -0.396405 -0.324734 -0.525303
H 8.03374 8.01935 1.03603 0.363395 0.394211 -0.460922
H 8.32387 6.35614 4.3593 -0.18276 0.197749 1.438305
H 5.26764 8.29226 8.45981 0.473813 0.315981 1.025444
H 12.2636 11.5026 5.08519 1.408448 0.225648 -0.274332
H 0.46526 4.18666 6.46352 0.297605 0.760231 1.77739
H 0.97273 2.47097 9.64514 -0.04021 -0.05377 -0.431136
H 9.20607 9.51672 11.4037 -0.159935 -2.084313 0.314168
H 1.7807 10.2877 8.95881 0.003453 -2.482235 0.647494
H 1.50178 5.19298 7.393 -0.224058 -0.271573 -0.336639
H 3.6545 6.13329 6.77184 -1.188988 0.110259 0.843712
H 7.28836 8.95454 6.87011 -0.360369 -0.393154 0.611647
H 11.3984 8.36867 4.26384 1.054513 -0.196622 -0.553111
H 9.93035 7.46993 11.9308 0.350059 0.071325 0.158472
H 7.92578 1.14781 4.04725 0.860059 -1.192534 0.268385
H 5.9341 3.29716 8.86862 -0.024545 -1.335897 0.228273
H 6.29089 5.12523 4.21738 0.016567 0.627136 1.4883
H 11.4166 9.83353 10.5444 1.188044 -0.990022 0.139718
H 5.70657 8.30338 9.99228 0.66512 -0.345827 0.230425
H 4.90995 2.33668 9.54143 2.117107 -0.006894 -0.926852
H 1.22092 9.68313 2.65562 -0.290158 -1.138708 0.459866
H 4.90823 6.3987 5.41132 1.349325 0.188154 -0.308869
H 9.03399 10.9602 11.2508 -0.324872 1.253009 0.069427
H 7.81837 0.68714 0.49017 -0.025357 -0.062762 -0.564066
H 8.71765 5.98562 3.06019 1.488674 0.143451 0.309789
H 8.63832 7.39991 11.2161 -0.717746 -0.010851 -0.771369
H 9.13925 0.88234 4.94501 -0.024382 -0.421646 -0.261526
H 6.69716 4.68521 2.88461 0.123081 -0.332875 -0.469483
H 9.05671 0.82089 11.9507 1.011967 0.44313 0.168061
H 5.14187 5.32394 8.49698 -0.813636 0.155099 -0.578698
H 8.69878 2.99324 7.31322 -0.108343 0.358509 0.044537
H 0.60985 3.9711 11.1464 0.506463 -0.122933 -0.673442
H 7.48041 5.02049 8.02475 -0.663418 0.341227 0.561286
H 4.26308 4.05038 3.66035 0.618276 0.104926 -0.103032
H 9.70143 10.0883 3.77674 0.372927 0.538703 -0.754688
H 1.41329 8.0501 1.64347 0.178602 -0.137067 0.469788
H 9.32622 3.28012 3.04209 0.49473 -0.084987 2.990637
H 11.8316 7.62916 11.0176 0.60107 0.708202 -0.143507
H 3.69388 5.79876 4.62522 0.280928 1.113745 0.51388
H 6.23542 5.43022 9.5251 0.27729 0.163346 0.773274
H 9.28169 11.6566 3.47471 0.67658 -0.807818 -0.093191
H 12.273 0.87013 8.56228 -0.526006 0.014689 0.617077
H 6.39659 1.42568 3.25575 -0.13138 -0.260351 -1.394859
H 0.47579 9.73437 11.1892 0.027158 -0.149624 -0.309722
H 10.7305 10.6929 1.72568 0.85474 -0.255399 -1.201757
H 3.25395 10.4808 2.68069 -0.482322 0.403235 0.358165
H 7.54875 10.0984 5.25659 -1.222791 -1.165634 -2.434051
H 7.17725 5.99182 6.13897 0.633527 -1.39692 0.466519
H 11.7975 5.06986 8.23154 -0.897071 0.580614 0.197272
H 11.2574 3.03087 1.7116 -1.056142 0.255544 0.456776
H 2.18582 2.94192 3.64673 1.468471 0.721995 0.897667
H 11.4096 0.42591 6.30911 0.152522 -0.908681 -0.687907
H 2.96315 4.85769 0.11446 0.067325 0.727039 1.222155
H 1.19827 4.75672 0.01519 -0.600269 -0.210373 -0.160387
H 8.98853 3.31115 5.26233 -0.742762 -0.131848 0.788098
H 3.06397 3.40357 10.406 0.189003 -0.381034 0.414947
H 0.00616 3.40396 0.76199 -0.100126 0.017105 -0.029726
H 6.17069 2.54662 4.23971 0.088511 0.195811 0.079005
H 2.81109 10.4663 11.6036 1.41195 0.923137 -0.394351
H 7.00556 7.40093 6.56949 -0.697649 1.13924 0.288881
H 11.8189 8.36276 8.78276 0.621232 -0.159157 0.616023
H 4.45898 8.12566 0.76251 -1.408544 0.138959 0.728438
H 0.35578 3.05063 4.49445 -0.449773 0.121992 1.703799
H 6.40336 11.7624 10.0768 -0.077759 -0.136539 0.057179
H 1.87483 8.10961 10.1339 -0.497489 -0.090607 0.032632
H 5.31072 4.8858 11.3318 -0.597389 -0.559153 -0.038674
H 1.35568 11.6789 9.12294 -0.170052 0.739195 -0.299012
H 4.86236 9.06717 3.92953 2.20709 -0.053898 0.057044
H 7.41896 6.78176 1.65042 -0.137574 -0.575863 0.629845
H 6.64021 8.00871 4.72005 0.099044 -0.323481 -0.114724
H 2.56286 6.04086 1.19509 0.052482 0.259088 -0.806077
H 4.00191 2.68553 11.4905 -0.241955 -1.077614 0.869075
H 7.70767 0.08346 10.4444 -0.50787 -0.604518 -0.347642
H 3.55198 8.40089 4.14286 -0.050984 0.212675 0.072351
H 10.9472 11.3902 8.35251 0.276905 0.326136 -0.01386
H 1.8357 10.6758 0.50741 0.9757 -0.192565 -0.76481
H 9.63194 4.60534 4.61922 -0.519338 1.207101 -0.121355
H 7.34816 5.05157 1.00056 -0.010618 0.13835 -0.248925
H 3.55834 11.485 9.76445 -1.058795 0.275007 -1.398764
H 2.80905 6.7022 8.05981 0.583383 -0.443499 -0.281491
H 4.51408 10.2535 9.90313 0.100153 -0.976129 -0.788452
H 10.9234 12.2156 0.01751 0.255779 -2.073563 1.309135
H 9.36505 7.29997 9.127 1.111959 0.521538 -0.316633
H 9.05428 5.33408 7.99548 -0.586822 -0.317323 -0.123827
H 11.9426 1.9087 6.67771 -0.593774 -1.740178 0.192885
H 3.00798 10.8874 6.62981 -0.017942 -0.111665 0.144746
H 10.0025 7.64977 4.34333 -0.182264 -0.979695 -0.523526
H 5.77317 0.41007 5.30017 0.584439 0.20205 0.852947
H 2.14674 8.45279 0.42774 0.434613 1.043962 -1.209138
H 11.2514 3.41895 5.13276 1.583204 0.000217 0.49573
H 7.15709 11.3032 6.18552 0.813985 -1.46583 -0.649137
H 5.76656 6.23788 11.9087 -0.495882 0.992151 0.386348
H 7.96199 7.50143 8.29893 0.820179 -0.236189 2.147328
H 3.07231 4.2554 2.7154 -0.125926 0.635598 -1.393952
H 11.9659 0.76012 10.1881 -0.921347 -0.018451 0.40614
H 3.36746 8.12928 9.77687 -0.335954 0.075637 -0.829756
H 2.09245 11.9515 5.03725 0.169328 0.483475 -0.030726
H 5.99541 7.94212 0.83973 -0.385487 0.232185 -0.598693
H 11.3338 1.2732 0.34447 0.262136 -0.069298 0.221557
H 1.2732 3.95752 8.93656 -0.159707 -1.716178 0.972805
H 1.28265 0.70167 4.19757 0.500623 1.01489 0.034487
H 1.05952 2.64761 2.66253 0.217342 -1.455348 1.523939
H 4.88744 11.8925 6.12235 0.278402 -0.171811 0.452289
H 11.051 7.02044 8.24287 0.633248 0.351028 0.284013
H 12.0559 6.11845 11.5599 -0.311522 0.295824 -0.201104
H 3.62004 10.3589 5.21672 -0.055167 0.368304 0.407923
H 10.9449 10.2996 0.13042 -0.073531 0.080574 1.1103
H 9.96892 10.6099 9.22245 -0.410242 -0.293784 0.717542
H 10.8942 5.55224 9.53033 0.344922 0.049667 -0.086368
H 9.67799 1.80475 7.05564 0.124929 -0.151509 0.300626
O 5.8101 2.30278 9.05091 -1.92699 1.615596 0.750463
O 11.1211 8.02138 8.23728 -1.179574 0.217964 -1.294678
O 9.70233 10.2871 11.1441 0.903641 1.017096 -0.599337
O 11.4332 6.76932 11.1604 -0.499095 -1.224603 0.229342
O 0.5414 8.92669 2.63769 1.737165 1.286276 0.953606
O 1.42248 3.34123 9.75261 0.229983 1.363898 -0.696615
O 1.53685 2.26159 3.51418 -2.224325 0.661621 -2.467855
O 2.54185 5.07727 0.98844 0.333831 -0.989356 -0.726888
O 0.67414 4.65306 7.42698 0.179633 -0.786532 -1.231625
O 6.1907 4.32563 3.68942 -0.601893 -0.871051 -0.396933
O 1.35968 12.1727 4.42542 -0.510129 -1.409283 0.229429
O 6.02334 5.52214 11.3277 0.844828 -0.340162 -0.343081
O 3.95062 3.38527 10.8691 -0.33201 1.681699 -1.251005
O 6.77307 6.41032 5.38718 -0.425558 0.641035 -0.891604
O 6.95607 8.12128 7.31211 0.536506 0.041958 -0.974073
O 7.2939 11.9277 9.72971 0.134153 0.507713 0.462399
O 7.30543 7.77813 1.62253 -0.05205 0.564 0.44076
O 9.20182 6.2258 3.9286 -1.673309 -0.69781 -1.403901
O 8.30569 0.26662 12.1504 -0.833193 -0.181735 0.007952
O 11.4171 10.5568 0.96738 -1.148866 0.073829 0.543565
O 2.05016 10.1715 12.0793 -2.302097 -0.758033 1.050874
O 10.9712 0.67636 12.0744 -0.01146 2.495348 -1.670996
O 3.93953 9.2775 3.95619 -1.913862 -0.049456 0.143407
O 2.45854 8.07774 9.37199 0.573335 0.043726 0.519797
O 6.27931 1.57109 4.19127 -0.126562 0.515588 0.938368
O 0.21341 0.89054 9.50012 1.371495 -0.021665 -0.844396
O 6.97332 1.83497 1.64273 -0.62178 -2.484164 -0.2227
O 2.18146 7.77206 1.08423 0.052961 -1.343161 0.635599
O 7.8301 10.5429 6.01814 0.386697 2.033024 2.818565
O 8.74191 2.06454 7.00777 -0.187507 -0.115959 -0.144831
O 10.4797 8.47893 4.45119 -0.945127 1.452439 1.070701
O 9.75565 3.67894 4.84258 1.071963 -0.757225 -0.67749
O 1.90493 11.1152 8.55413 0.176182 1.764026 -0.51161
O 2.57063 11.1113 2.36826 -0.032089 -0.693409 -1.154503
O 7.6021 5.31889 1.89324 0.185673 -0.410707 -0.431981
O 8.29442 4.90776 7.54124 1.938179 -0.704189 -1.245016
O 9.22526 3.27794 2.12653 -0.152792 -0.42104 -3.168999
O 10.9031 5.46732 8.56209 0.530478 -0.447767 -0.239923
O 5.76315 12.3651 6.19479 -0.41359 -0.024195 -0.976891
O 6.05305 5.06715 8.64572 -0.341417 -0.253505 0.295699
O 5.02525 8.57009 9.38206 -0.652506 0.0858 -0.994114
O 3.48782 11.1522 5.83179 -0.317163 -0.467609 -0.453493
O 5.20183 8.00233 0.2005 1.530369 -0.492503 -0.478443
O 3.31858 4.27674 3.63232 0.00363 -0.153466 1.167308
O 9.05922 7.91705 11.9099 0.180641 -0.290471 0.482592
O 3.18125 5.88558 7.63613 0.274658 0.568367 -0.178906
O 0.36687 4.45566 11.9512 0.024191 0.630721 0.911761
O 9.95391 10.9126 3.28311 -0.767441 -0.009012 0.329505
O 6.60775 8.835 4.18368 0.755973 -0.169353 -1.714333
O 12.2686 3.30975 5.36398 -0.952994 -0.268834 -1.446891
O 11.5677 1.02766 7.0463 0.525186 3.017004 0.546884
O 8.74295 0.54432 4.12059 -0.942846 1.839274 0.369828
O 12.2686 9.28937 10.5446 -0.910792 1.247817 0.280437
O 11.3858 11.4061 5.45431 -0.894481 -0.104046 0.650922
O 8.43359 7.17059 9.20722 -2.025666 0.192104 -1.044995
O 4.19955 11.0605 10.2997 0.996844 0.576412 2.178915
O 10.0547 11.0385 8.37111 0.13459 0.11593 -0.747466
O 4.0011 6.60902 5.14568 -1.091171 -1.304283 -0.52655
O 12.1668 2.81258 1.52158 0.826876 -0.359353 -0.422874
N 3.39074 1.44404 0.58405 -1.436672 -0.920706 -0.441686
N 11.5044 6.34049 1.67992 0.222668 -0.154904 0.53924
N 0.91797 6.97436 5.60563 -0.671951 -1.010182 0.049011
N 9.9009 3.10667 10.1485 0.611543 -0.431685 -0.315442
N 3.38975 2.92754 6.29272 -2.091267 -0.998353 -0.633127
N 1.45626 7.91898 5.4602 0.560201 1.155616 -0.096732
N 9.05093 3.63132 10.6091 -0.651903 0.361743 0.392105
N 12.2234 6.04796 2.47017 -0.325987 0.034756 -0.353673
N 4.34398 3.34559 6.61573 2.065716 0.92148 0.594472
N 2.48722 0.88269 0.24777 1.361198 0.815103 0.580517
N 6.63547 11.0369 1.54125 1.651039 -0.86623 -0.243777
N 7.63272 10.5769 1.33437 -1.853696 0.710077 0.371895
Na 6.84018 0.77628 7.92789 0.411432 0.170101 -0.094994
Na 10.2639 9.66691 6.53314 -0.149877 -0.108213 0.162243
189
energy=-1066.72491053 config_type=nep2xyz pbc="T T T" virial="-8.030690853926771 4.593302979172606 -2.2413571587373697 4.593302979172606 -8.020206767952832 -0.3768677851403999 -2.2413571587373697 -0.3768677851403999 -20.340650016462824" Lattice="12.4 0.0 0.0 0.0 12.4 0.0 0.0 0.0 12.4" volume=1906.6240000000003 Properties=species:S:1:pos:R:3:force:R:3
H 10.9102 1.50793 11.6188 0.398696 -0.01177 -0.555241
H 10.8171 11.9767 1.83891 -0.360923 0.126815 -0.303177
H 7.60577 5.1137 10.6094 -0.431975 -0.219622 -0.37624
H 11.33 2.23688 0.44392 0.908016 -0.059532 -0.458649
H 11.8282 1.47409 4.17965 -0.046348 0.397109 -0.242919
H 3.73375 9.37437 5.29268 0.708896 0.368731 -0.130407
H 9.25426 1.94035 3.96455 -0.14281 0.781259 0.073486
H 5.40958 9.35269 11.1961 1.032203 0.159581 1.035514
H 6.03394 6.23619 3.96324 -0.508193 0.47174 -0.056012
H 7.98351 11.5068 9.55664 -2.321927 0.085817 -0.424118
H 11.0957 3.22781 3.28952 -0.560599 -0.799176 0.168104
H 0.67031 4.62234 5.48534 -0.045691 -0.418709 -0.068773
H 1.59746 1.18188 6.17747 -1.429258 -0.944961 0.282112
H 12.3362 4.14281 1.88772 0.745144 -0.269155 -0.173213
H 2.49075 12.3976 0.83951 0.690077 -0.25386 -0.846796
H 2.18448 4.75337 5.80827 -0.015838 -0.591712 -0.263192
H 4.0034 5.78641 5.9136 -0.119861 0.497309 -0.320053
H 8.90128 8.12664 5.58948 -0.004386 -0.415987 -1.09013
H 9.42235 10.8534 3.11417 1.079588 0.304676 -0.644973
H 0.60677 4.45106 10.5799 -0.708584 -0.808924 0.021185
H 7.63724 2.16304 3.57225 0.353749 0.558409 0.560786
H 8.09342 2.27198 9.83112 -1.017782 0.517904 -0.441685
H 5.14221 2.2943 7.17966 0.855155 1.328088 -0.303868
H 12.0729 8.70891 8.44538 -0.70147 1.423287 -0.624637
H 8.93322 10.5034 10.2333 -0.169686 0.232776 -0.259398
H 7.15069 3.49081 9.18123 0.310784 -1.417068 0.234235
H 11.2666 11.6845 3.25131 0.463474 0.255806 -0.118818
H 5.55553 3.09847 3.21643 1.347754 0.442907 1.369419
H 11.0827 4.68234 0.98103 0.206102 -0.248876 0.153315
H 9.32062 0.34491 10.5388 0.16196 1.618156 0.489897
H 6.62813 6.17945 12.2446 -0.459943 0.78733 1.019947
H 11.8243 3.24547 10.7985 1.297025 0.906639 -0.668058
H 6.0185 3.59671 5.33054 -0.564406 -0.311091 0.352726
H 3.88253 1.55716 7.16263 -3.179374 -0.093375 -0.874642
H 9.01611 1.34472 11.7094 -1.451207 -0.06171 2.980687
H 8.74494 7.9383 9.80331 -0.061575 1.626385 1.696439
H 6.58362 3.9118 6.85867 -0.610049 0.124636 -0.673996
H 2.8486 4.64865 0.5742 0.003054 -0.244678 0.043018
H 9.11099 4.72471 5.74092 -0.508625 -0.35819 0.029814
H 5.24608 0.99335 6.07917 -0.294863 -0.381681 0.874552
H 6.68206 10.5374 0.54375 0.14574 0.293579 0.22
H 2.92618 7.46625 1.04948 0.279112 -0.689932 0.590444
H 8.69492 5.18943 11.6754 0.013924 -0.473151 0.220384
H 3.73448 5.65959 8.41937 -0.146325 0.226182 1.236999
H 1.55062 3.26649 3.60833 -0.631089 0.104478 -0.798461
H 7.92059 8.70289 11.0702 0.354428 0.124346 -0.722995
H 7.51028 10.6307 1.86776 0.775455 -0.356831 1.186765
H 2.49666 1.06942 11.3039 0.53408 -0.90912 0.427139
H 8.31683 0.04652 1.06996 0.668393 0.387419 0.198369
H 0.90873 7.97318 9.09764 -0.127645 -0.082315 0.263406
H 10.9586 4.87464 11.1935 0.084456 -0.054752 -0.27606
H 0.61297 0.42275 3.79751 0.321118 0.22558 -0.56448
H 6.16402 10.0997 6.04744 0.129124 0.57682 0.218798
H 8.23715 6.98677 3.63648 -1.645171 -1.215357 -0.131008
H 11.6438 6.53882 8.29187 0.945764 0.333295 0.593716
H 11.2465 7.16404 2.64127 0.451359 -0.00074 0.707173
H 4.27816 6.98372 3.25207 -0.561984 -0.320089 -1.233917
H 11.0886 12.3598 5.47558 0.279412 0.944358 -0.278975
H 2.70242 5.57367 10.7552 -1.488303 -1.393449 0.885912
H 3.35136 5.5582 1.68371 0.132534 0.234293 0.401179
H 7.73015 4.18205 5.08226 0.953182 0.406145 0.998484
H 3.48231 2.7118 10.5908 0.04841 0.659531 -0.463776
H 11.2112 5.64025 2.97934 -0.170563 0.407564 0.023061
H 8.80771 1.19099 2.05367 0.340392 -0.974455 -0.980833
H 2.93769 7.25501 9.85488 -0.622205 0.983002 0.15643
H 9.67832 8.77855 6.81304 0.280307 0.515658 0.077879
H 9.61238 6.27272 8.50464 -0.005533 -0.163195 0.248561
H 6.11621 8.44126 12.3525 0.053673 0.734468 -1.011582
H 11.0272 5.67544 5.22176 0.150462 0.902727 -0.195659
H 6.02692 0.29205 0.89352 0.303275 0.728849 -0.184782
H 5.79652 5.40172 8.87462 0.682458 0.216319 0.025912
H 6.30715 4.06927 0.18266 -0.067636 -0.012912 0.115936
H 3.95504 0.35999 0.46208 0.770788 0.250292 -0.429575
H 11.393 9.52646 1.80916 -0.318833 2.112135 1.297232
H 6.73312 6.63971 1.33957 -0.796621 0.033252 -0.269193
H 4.37582 10.5154 4.41728 0.060988 -0.68848 0.308801
H 1.90788 5.91927 12.0353 -0.691317 0.675821 -0.077583
H 4.72933 3.42774 11.2895 -0.549401 -0.153504 -1.831408
H 5.67433 1.87325 0.52596 0.507146 1.436628 0.836039
H 11.3864 8.55912 0.73775 0.717246 -0.636725 -0.025139
H 8.69962 2.44136 6.71965 0.222729 -0.180182 -0.051461
H 2.18873 7.84359 11.1194 -0.521502 0.189246 -0.414493
H 9.72314 7.32053 3.64529 0.032937 -0.145315 0.086544
H 5.96349 1.63695 4.86796 -0.171176 -0.443731 -0.082312
H 1.94856 1.39679 2.54837 -0.240249 -0.819009 -0.029384
H 4.23945 4.59758 6.78383 -0.070499 -0.037889 -0.374005
H 2.77302 0.02585 3.02592 -2.151538 1.231415 -1.199561
H 11.0301 10.4876 7.16368 -0.277206 -0.02872 -0.370241
H 11.5951 8.07726 10.6307 0.568899 -0.307872 0.137573
H 11.1074 5.1055 6.77082 -0.109011 0.433733 -0.886716
H 9.8626 0.16946 6.59395 0.74631 0.652882 -0.431764
H 3.47833 10.9226 11.4582 -0.219694 -0.301048 -0.045134
H 8.74789 9.46292 3.37668 -0.25566 0.724275 0.18985
H 5.47751 10.9909 9.65422 0.399548 0.166566 -0.619269
H 4.46795 6.93485 1.00884 0.298122 0.293755 0.510919
H 11.0981 3.57104 4.72997 -0.567551 -0.280911 0.884407
H 7.47455 9.56919 6.57371 0.418125 0.476825 0.19047
H 4.82116 4.00767 0.81662 -0.520115 0.682796 0.705545
H 10.2588 8.29875 11.2928 0.549744 -0.347048 0.302243
H 1.94751 3.65593 2.17967 0.016561 -0.163513 0.168642
H 1.44189 2.16101 11.2027 1.739502 -0.67467 -1.523849
H 7.36534 5.85194 8.53952 -0.200859 -0.055739 0.079538
H 4.50735 11.3935 2.689 0.622408 0.138537 -0.153116
H 1.01747 7.42529 0.73474 0.706594 0.328317 -0.65691
H 10.1062 10.349 8.33043 0.013319 -0.425399 0.051927
H 2.11476 2.5796 5.90195 -0.056267 -0.268562 -0.024063
H 4.91209 12.2701 4.01846 0.43472 0.718587 0.295899
H 4.63391 7.71467 4.46534 0.306561 1.106796 0.66271
H 6.32605 11.2596 8.27538 -0.429325 -0.418589 -0.02558
H 8.7603 7.35612 7.8712 -0.207495 0.421228 -1.147006
H 3.96594 4.7213 9.67938 0.056524 -0.280528 0.39714
H 3.43661 9.60208 10.4582 -1.451392 -0.969847 -0.043781
H 10.6734 6.27669 11.8249 -0.074429 -0.399157 -0.263299
H 8.11848 1.75557 7.9244 -0.15933 -0.009929 0.379271
H 11.5414 4.96232 8.78015 0.553828 -0.032023 0.773581
H 6.84398 5.04042 3.56093 -0.046914 -1.513899 -0.189601
O 7.24907 2.48285 9.31808 1.079196 0.949262 0.417681
O 8.78142 6.78034 8.65226 0.167622 -0.329973 0.925387
O 11.386 4.2477 1.81801 -1.121985 0.372235 -0.019106
O 3.87979 5.68168 9.42377 0.182764 -0.001708 -1.854438
O 10.9657 11.2344 2.43718 -0.183138 -0.409511 0.097147
O 2.39752 1.64674 6.04983 1.367633 1.233659 -0.240892
O 4.49871 6.81638 4.18281 -0.052465 -0.532064 1.026278
O 2.01699 5.14006 11.3861 1.544803 0.394397 -0.943831
O 1.52059 4.16998 5.33916 0.062588 0.683195 0.332023
O 4.73981 1.48064 7.50029 1.812784 -0.689746 1.53622
O 4.23004 11.7596 3.53468 -0.914369 -0.216285 -0.381652
O 5.55663 3.50597 0.44905 0.548639 -0.201748 -0.722823
O 4.29228 3.29727 10.3557 0.610275 -0.473866 2.145681
O 6.84367 5.9885 3.48046 0.714824 0.710548 -0.496586
O 8.93076 8.21648 6.54524 -0.626963 0.141947 0.637935
O 5.61867 0.95766 0.30056 -0.593525 -2.527849 -0.695091
O 6.26192 9.22052 11.7212 -0.802262 -0.802863 0.459435
O 6.16556 6.7673 0.53774 1.61776 -1.022313 -0.63308
O 9.45966 1.32735 10.9037 0.852012 -1.67783 -3.588818
O 10.3592 5.32605 11.8256 0.347905 0.790574 0.547069
O 2.37033 8.03593 10.1226 0.906723 -0.976464 0.263611
O 10.6485 9.78798 7.7322 0.264163 0.808144 0.427751
O 11.7416 8.67018 1.64898 -0.323167 -1.801303 -1.06193
O 6.73158 5.12541 8.75094 -0.37902 -0.477333 0.352405
O 9.06702 0.68643 1.19931 -0.914772 0.455741 0.65443
O 2.26269 1.78544 10.6988 -2.433305 1.250241 1.229326
O 11.7433 1.90735 12.008 -0.983406 0.437648 0.828589
O 3.81221 7.19458 1.68531 -0.877783 0.113407 -0.978561
O 6.9876 10.4223 6.50154 -0.745867 -1.062609 -0.357094
O 5.78425 3.6538 6.34147 -0.07731 0.085817 0.704461
O 8.58302 10.4485 3.3372 -1.249488 -1.281272 0.519737
O 8.83174 7.70988 3.77304 1.275171 1.704449 0.469335
O 3.17176 12.3228 0.08845 -1.581518 -0.065743 1.162583
O 12.083 0.54171 4.03722 -0.34757 -0.768274 1.123426
O 5.71126 0.75161 5.26869 1.101021 0.176439 -2.064179
O 8.18895 4.41569 5.93641 0.24374 -0.317428 -1.001109
O 7.76279 4.87677 11.5342 -0.073499 0.651544 0.118001
O 11.3016 5.64076 8.1319 -1.316891 -0.687772 -0.69192
O 6.19497 11.5033 9.20665 -0.208623 0.392074 0.59197
O 8.76647 8.72442 10.542 -0.284347 -1.708606 -0.97499
O 8.87873 11.3925 9.80149 2.610141 -0.597636 0.629246
O 3.89096 10.3767 10.7554 1.868556 1.097073 -0.151585
O 1.82986 7.30846 0.19258 -0.200422 0.157071 0.698316
O 1.27098 3.10446 2.66162 1.086873 0.382235 0.810056
O 12.1915 3.9866 10.1914 -0.417331 -0.036276 0.892903
O 3.56108 5.30637 6.63274 0.546736 -0.379394 0.29882
O 3.22478 4.58997 1.48773 -0.132964 -0.151368 -0.798656
O 6.97883 11.1489 1.26865 -1.149187 0.221419 -1.447218
O 4.5974 9.68193 4.94118 -0.622188 -0.33499 0.503063
O 10.9003 4.90765 5.77658 0.201413 -0.773294 0.464856
O 10.402 11.9799 6.02703 -1.060725 -1.359997 0.750739
O 8.4194 1.54843 3.66183 -0.478207 -1.017711 -0.312203
O 12.3692 7.88572 8.79517 0.713482 -1.024241 0.804449
O 10.8558 2.80506 4.1606 0.745545 1.005923 -1.036579
O 11.1851 7.93948 11.5075 -1.54871 0.356391 -0.594425
O 1.9009 0.3965 2.52452 2.488751 -0.303695 1.281083
O 8.80371 1.62564 7.25 0.003142 0.056761 -0.773421
O 6.27988 3.19756 3.90953 -0.624313 -0.53471 -1.134566
O 11.1484 6.5309 3.40907 0.154079 -0.214426 -1.03051
N 0.47823 11.1353 11.7648 1.152452 0.448634 0.747005
N 1.92618 9.69816 3.59062 -0.00939 -0.375384 -2.018643
N 5.19974 7.73475 8.01577 0.37879 0.804002 0.726718
N 11.9426 1.23393 8.45103 -0.139676 0.470365 -0.301647
N 3.18594 11.2315 7.79164 1.212179 0.069418 -0.487556
N 5.50103 8.36633 8.8794 -0.32169 -0.559401 -0.926302
N 12.3347 0.34029 8.96233 -0.021922 -0.28789 0.286838
N 1.96897 9.45037 2.50142 -0.010002 0.552689 1.869905
N 2.16403 11.1596 8.18342 -1.115319 -0.238584 0.358578
N 12.0006 10.7674 11.2219 -1.177054 -0.434498 -0.683438
N 0.66988 7.54515 5.51341 1.781396 0.778529 0.963485
N 1.61352 7.98831 5.91742 -1.721566 -0.860841 -0.760878
Na 5.40941 1.39073 9.64399 -0.057384 -0.370381 0.121342
Na 7.78465 11.9862 5.04705 0.293039 0.181059 -0.128309
189
energy=-1065.35619172 config_type=nep2xyz pbc="T T T" virial="-3.4553809939285087 -3.4966390257919007 -3.066601097482872 -3.4966390257919007 -3.583153560446317 -0.22212934028326453 -3.066601097482872 -0.22212934028326453 0.704659099728556" Lattice="12.4 0.0 0.0 0.0 12.4 0.0 0.0 0.0 12.4" volume=1906.6240000000003 Properties=species:S:1:pos:R:3:force:R:3
H 8.08408 3.13941 10.9193 -0.709348 -0.316992 -0.306227
H 10.7541 10.2134 1.9032 0.029806 0.266354 0.468296
H 9.64423 3.50064 1.76916 -0.42669 -0.591591 0.172948
H 9.08117 4.08147 11.6325 0.305932 -1.188221 -0.376551
H 1.28636 10.3856 3.40285 -0.223458 -0.879154 -0.342237
H 6.25452 8.41282 3.17074 0.488005 0.727439 -0.525597
H 10.3416 12.1719 5.08713 0.358303 0.449294 0.406257
H 6.21439 7.07428 12.2879 1.301465 -0.527557 -1.412759
H 6.37391 8.01309 5.37549 0.658349 0.343043 1.100928
H 8.05131 9.86113 9.21952 0.189041 -0.264355 0.281491
H 11.8858 12.1731 5.16075 0.88901 -0.395019 -0.523379
H 0.30138 4.27454 6.7469 1.032883 0.559927 0.416798
H 2.1538 2.75279 9.1774 -0.381206 0.223564 -0.407728
H 10.8131 0.15589 1.66513 -0.665629 -0.344331 -0.008533
H 3.55675 11.3651 9.72619 0.450938 -0.909299 0.120684
H 1.62521 5.29191 6.73707 -0.941031 -0.511226 -0.172427
H 3.39423 5.19549 5.48732 0.553872 -0.460928 0.002687
H 8.96492 9.37696 5.21707 0.304491 0.74146 0.217915
H 9.74527 8.35007 2.98474 1.853648 0.891397 -0.48008
H 11.2902 6.7944 11.279 -0.123608 0.016635 -0.81666
H 7.6839 1.05936 3.55685 -0.298389 0.368025 -0.558292
H 9.20958 6.51556 7.56658 0.710721 -0.021449 0.283304
H 4.5664 3.99024 6.73109 0.500938 0.295449 -0.362123
H 0.95809 9.75276 10.8475 0.044842 -0.531929 1.637063
H 9.38969 9.07586 9.23412 -1.489658 -0.462227 0.189761
H 8.0533 5.51705 7.9212 -0.466667 -0.152506 0.548218
H 11.9422 9.42352 2.50057 1.749059 0.083964 0.708994
H 5.26279 4.99802 4.79575 0.205712 0.312402 -0.025067
H 9.38521 11.6839 1.35614 -0.465454 1.291342 -0.268349
H 9.47794 1.51317 11.3308 0.161242 -1.535076 -0.219862
H 5.38115 4.8809 2.82592 0.292032 0.194813 -0.438429
H 11.2586 8.21676 10.9318 -0.413759 0.974289 -0.482611
H 6.96731 2.22439 4.15982 -0.593566 0.886785 1.731985
H 3.7536 3.74595 8.04018 0.37434 -0.139514 0.392706
H 9.12861 0.09574 11.9343 -0.06479 -0.127908 0.094672
H 7.92536 7.29529 10.348 -0.304756 0.518073 -0.112814
H 6.10918 3.37928 5.48785 -0.691965 1.130393 -0.384136
H 1.61949 5.0997 11.2715 -1.117748 -0.552352 1.469326
H 8.95774 4.71477 6.09591 0.089695 -0.048211 0.370561
H 6.04866 2.23883 2.1812 -0.259033 -0.116942 0.200249
H 6.64549 8.68252 1.04445 0.757291 0.654881 0.642713
H 6.82917 5.21028 9.82536 -0.132239 0.513382 0.35248
H 8.51081 2.61106 2.38779 -0.945105 0.03019 0.619556
H 11.3002 7.78601 1.06749 0.72204 -0.444755 0.430501
H 3.75615 3.9813 3.77325 -0.622143 -0.639241 -0.334293
H 8.36061 6.39385 11.5153 -1.315238 0.240727 -0.382154
H 7.90342 8.70861 2.11079 -0.156441 0.271158 -0.34289
H 0.43138 0.71069 9.38898 -1.55361 -1.026384 -0.847342
H 7.66769 10.8712 1.3139 -0.836232 -1.564398 0.076056
H 1.46439 9.35709 9.41291 -0.869786 1.374994 1.173723
H 10.2426 6.13607 0.52323 0.553139 -0.104459 -0.370199
H 1.60512 8.79052 3.16174 -0.175796 0.935127 0.125948
H 8.48144 11.4408 4.76271 0.397314 0.84398 -0.962519
H 7.17364 7.22939 6.4727 0.523148 -0.371617 0.39192
H 11.9202 6.12619 7.67863 -0.829208 -0.07426 0.00504
H 11.0898 2.09636 2.70655 -0.926586 0.232116 0.336764
H 2.15344 2.27971 3.81843 0.29914 0.040589 -0.016342
H 11.8723 11.1913 9.54103 1.110137 -1.026064 0.558451
H 3.47118 6.04034 1.09275 -0.039761 -0.16582 -0.200013
H 1.19523 5.15615 0.37586 -0.012286 0.091528 -0.278685
H 8.70301 5.03561 3.76047 -0.460413 -0.055784 -0.589899
H 2.94797 4.6154 10.0177 0.853411 0.107211 0.297221
H 11.8813 2.05037 1.41853 0.389251 -0.193854 -0.126146
H 7.1795 12.2213 0.68096 -0.039674 -0.264902 -0.033124
H 2.29421 8.44245 12.151 -1.168342 0.31172 -0.028439
H 8.0757 9.10446 6.3258 -0.204613 1.285654 0.10327
H 11.9031 9.34898 8.95174 -2.30841 -0.736939 -0.839916
H 3.47481 6.72449 10.8597 -0.030453 1.149481 0.323834
H 0.26194 2.54722 5.12843 0.611782 0.083464 -0.575768
H 6.21116 1.46991 10.976 0.020931 0.64466 -1.241029
H 4.92588 7.65465 6.99644 -0.858933 0.685027 0.209774
H 6.36488 4.75467 0.13919 0.142199 0.480256 0.259068
H 2.77219 0.1571 10.1724 -0.009003 0.632206 -0.123193
H 3.97071 8.10171 3.68765 -2.068234 -1.267527 0.307078
H 5.62332 6.84886 1.28528 -0.010285 0.276595 -0.629357
H 5.82952 6.96766 3.40167 0.153604 -1.310454 -0.662234
H 2.84945 6.53658 2.3655 -0.11718 0.929308 1.098257
H 4.12258 4.67113 11.1323 0.47965 -0.223147 0.316144
H 6.05775 2.94317 10.6425 -0.397436 1.563144 0.737251
H 3.01583 7.00197 4.40779 -0.212824 -0.167733 0.446773
H 8.76601 0.008 9.60845 0.031014 -0.027459 0.511338
H 1.5622 9.05421 1.0042 -0.263259 0.441137 -0.020278
H 7.42564 5.31812 2.72651 -1.000259 0.079922 0.130878
H 4.52242 2.70646 1.97252 -0.383964 0.067589 0.67384
H 4.87471 0.302 11.3418 -0.372663 -0.539321 0.137802
H 3.12247 6.54999 6.26037 0.375912 0.355272 0.418322
H 5.21536 0.97065 0.32285 -0.217821 0.427356 0.480715
H 0.27115 3.30886 12.0336 -0.665734 0.032628 -0.470672
H 10.7 10.399 11.995 -1.044705 1.179248 0.239793
H 10.0932 3.69454 5.73768 -0.217487 -0.160134 -0.154685
H 10.7666 12.1084 9.99253 -0.790502 0.576589 1.225782
H 4.12088 9.00676 9.93607 -0.464042 -0.289929 0.488631
H 8.87695 7.0369 3.03835 -0.388478 0.378402 0.144241
H 5.07852 0.00201 8.63281 1.088097 0.996332 -0.004043
H 5.72255 4.68745 8.66445 1.568763 0.073585 0.445796
H 11.7324 2.1284 6.17815 -0.703641 -1.094768 0.744745
H 9.30866 11.7949 3.43602 0.074962 -0.192641 -0.530152
H 5.56959 3.51642 0.51004 -0.060553 -0.608121 0.54471
H 11.6064 9.35366 0.0766 0.524877 -0.066291 0.460173
H 2.83701 4.30766 2.46917 -0.10541 0.23341 0.096253
H 0.77367 1.5615 10.5908 -0.60575 0.408436 0.835648
H 3.71363 8.24646 7.90057 0.762279 -0.376001 -1.435108
H 1.27874 11.0549 5.38316 -0.073978 -0.41997 0.229712
H 4.33407 7.77009 11.6702 -0.189301 -0.068927 0.266286
H 11.3207 2.46488 11.7458 -1.481225 0.58503 -0.510795
H 1.85236 4.07271 8.27347 -1.734457 0.393101 -0.851473
H 1.59818 12.3215 4.6185 0.25369 0.910274 -0.504219
H 0.95796 1.45384 3.42039 -1.229486 -0.163964 -1.188881
H 5.7276 12.306 7.27202 0.323854 0.116759 -0.35877
H 11.0779 8.12553 8.36115 0.012596 -1.469632 -0.566667
H 0.32437 7.34372 0.50271 -1.479272 -0.374817 0.580696
H 5.11881 9.81693 9.10749 -0.375872 0.04898 -0.087555
H 9.29317 5.37287 1.40348 -0.808243 0.104591 0.191077
H 7.54432 11.9964 8.70986 0.441766 0.123403 0.168486
H 11.2915 6.5751 8.98211 -0.249325 0.02709 1.315213
H 7.7293 2.99084 5.87906 -0.871845 0.685903 -0.728094
O 8.50811 5.9726 7.20266 -0.674817 0.047161 -1.02145
O 11.0282 9.06753 8.44938 1.898943 3.003515 1.284727
O 10.3107 11.7048 1.65334 1.635554 -0.323307 0.544003
O 11.8387 6.97968 0.85452 0.53373 1.095152 -0.569361
O 11.0145 9.3528 2.31014 -1.85799 -0.793867 -1.049887
O 2.48144 3.61327 8.83644 0.791157 -0.944114 1.810798
O 1.60391 1.51623 4.11314 0.791016 0.820159 0.905667
O 2.65361 5.98233 1.60748 0.058179 -0.789305 -1.039526
O 0.86517 4.89562 7.30626 -0.247868 0.010246 -0.637595
O 4.66507 3.92523 7.70719 0.295462 0.242628 -0.001415
O 1.05188 11.5232 4.57606 0.077663 -0.621926 0.384452
O 5.75417 4.12216 12.1634 -0.151549 0.556015 -1.550139
O 3.387 5.16534 10.7488 -0.863441 -0.023669 -0.754038
O 6.78139 8.09994 6.31754 -1.103552 -0.399093 -1.412792
O 8.66881 9.88044 6.01302 -0.123356 -1.656867 -0.683909
O 6.26213 2.13478 10.2013 0.671814 -1.998757 0.724668
O 5.64474 7.51056 0.50199 -1.179987 -0.387066 1.82613
O 5.9927 5.50066 2.39048 -0.347464 0.554822 0.276955
O 9.64503 0.50266 11.2219 -0.391354 1.925428 0.001388
O 9.48367 5.53573 0.45549 0.016031 -0.152681 -0.102195
O 1.41547 8.8565 0.05808 1.458576 -0.876644 -0.041928
O 12.2303 2.41522 11.9565 2.10267 -0.401654 0.891824
O 3.00203 7.69472 3.73077 1.995328 1.320823 -0.943679
O 3.95918 7.89295 6.99503 0.280691 -0.1865 1.062364
O 7.93302 11.7682 1.09617 -0.220021 1.447042 -0.619225
O 1.14012 1.16581 9.79757 2.295489 0.77885 0.193122
O 9.01434 3.21061 11.1334 0.562733 1.266966 0.834911
O 6.70818 4.70998 9.01345 -1.054191 -0.183966 -0.999716
O 8.81591 12.1853 4.17064 -0.554301 -0.874742 1.331837
O 6.7566 2.75918 5.84273 1.527951 -1.802787 0.884765
O 8.87063 8.03085 3.12026 -1.448434 -1.173533 0.684613
O 8.41431 5.44306 2.91474 1.760007 -0.307386 0.607846
O 3.69446 12.2552 10.0681 -0.375288 0.48899 -0.145806
O 1.09029 9.58005 2.83531 1.085242 -0.467978 0.103714
O 5.32795 2.41993 1.52319 0.053477 -0.564534 -0.258081
O 9.13289 3.8453 5.6656 0.336001 0.370463 -0.370265
O 9.41152 2.60106 2.07009 1.466141 0.650042 -0.808549
O 11.0638 6.47763 8.0561 1.141343 -0.491352 -1.165188
O 5.90795 0.29352 8.1374 -1.270899 -1.044106 0.351872
O 7.54172 6.67148 10.991 1.512907 -0.736963 0.676998
O 8.38063 8.94996 9.32682 1.467274 0.266646 -0.240234
O 4.16662 9.74177 9.29639 0.622122 -0.228381 -0.379699
O 3.526 7.72748 11.1126 0.350763 -0.729349 -0.388075
O 3.09347 3.58965 3.07377 0.955562 0.023052 0.510414
O 11.0654 7.37206 10.5063 0.421438 -1.69039 1.274782
O 2.69198 5.84074 5.7456 -0.497726 0.24869 -0.145918
O 0.85783 4.87324 11.9032 1.158651 0.367879 -0.695833
O 7.24814 9.27979 1.5982 -0.576097 -0.532346 -0.045941
O 5.74439 7.86264 3.76826 -0.564053 0.60343 1.039308
O 12.0226 2.92032 5.75027 -0.006117 0.868356 -0.120226
O 11.2778 11.8575 9.23742 0.132564 0.73942 -1.519722
O 7.18553 1.88804 3.30566 0.843145 -1.425274 -1.261704
O 0.87409 9.98997 9.93534 1.154776 -0.901579 -3.147234
O 11.1096 12.2615 5.70635 -1.484041 0.115871 0.554726
O 11.244 9.70649 11.6631 0.458171 -0.409801 -0.22355
O 5.5241 0.32767 12.073 0.584393 -0.011762 -0.32912
O 8.47121 11.7551 8.95588 -1.07701 0.096959 -0.691915
O 4.71765 4.24924 5.05265 -0.337527 0.011474 -0.276589
O 11.8351 1.64945 2.30915 0.868286 -0.514791 -0.377604
N 0.81155 12.0914 0.52459 -1.401593 -0.329396 -0.1182
N 11.7592 5.64824 3.8187 0.915584 -2.12139 -1.303709
N 0.2448 8.43598 6.15 -0.951807 -0.261603 -1.119144
N 11.1725 3.23194 8.96629 0.064058 0.05563 -0.021501
N 3.15319 0.60433 6.69611 0.391651 1.451804 0.136347
N 1.07186 8.61586 6.84587 1.110801 0.252269 0.926194
N 10.2901 3.12732 8.31096 -0.057625 -0.105846 0.12238
N 12.1485 4.75749 3.25813 -0.910768 2.162866 1.294319
N 3.43921 1.67919 6.77052 -0.653831 -1.702097 -0.366468
N 1.89014 12.2723 0.59041 1.491482 0.28161 0.117581
N 5.51673 11.4938 4.2985 -1.247474 -1.250414 0.058201
N 4.71484 10.7173 4.29569 1.227091 1.265925 -0.04298
Na 6.70421 2.67767 8.06303 -0.490155 -0.316379 0.272125
Na 10.017 10.9144 7.59053 0.253506 0.012431 -0.436925
189
energy=-1064.76616267 config_type=nep2xyz pbc="T T T" virial="-9.69520908029777 6.131702768367882 -7.510496926368519 6.131702768367882 -14.704079331088927 1.9557282920557606 -7.510496926368519 1.9557282920557606 -12.096267071918533" Lattice="12.4 0.0 0.0 0.0 12.4 0.0 0.0 0.0 12.4" volume=1906.6240000000003 Properties=species:S:1:pos:R:3:force:R:3
H 8.71781 3.52608 10.4962 0.452558 -0.571027 0.170282
H 10.7428 9.98297 1.93018 1.1813 -0.872882 0.056774
H 8.92867 3.52165 2.43993 0.469319 0.522877 -0.122942
H 9.50534 3.51009 11.8136 0.086289 -0.004207 -0.041572
H 1.56147 10.4363 2.90727 -0.268888 1.719591 0.467602
H 6.23976 8.28937 3.60482 0.426371 0.536399 -0.29835
H 10.1662 12.2718 4.75523 -0.458958 0.077958 -0.180551
H 7.22328 6.41043 12.2699 0.329676 0.304831 -0.358615
H 6.3312 8.03124 6.10234 0.424515 -0.275316 0.008486
H 8.09332 10.0974 9.21838 -0.271675 -0.008751 0.327144
H 11.7258 12.0698 5.10172 -1.369635 0.650805 -0.221037
H 0.64041 3.91342 6.29845 -0.036975 0.862393 0.13628
H 2.12427 2.73781 9.09072 0.023699 0.928504 0.142985
H 10.2905 11.9767 1.67907 0.798508 1.154229 -0.384339
H 4.08458 11.3555 10.1611 -0.800058 0.337393 -0.244585
H 1.62355 5.10161 6.05781 1.099659 0.777475 -0.915285
H 3.39197 5.97819 5.69989 -0.320595 -0.064175 0.805547
H 8.85696 9.30415 5.05968 -0.13698 -0.366043 0.717655
H 10.1928 8.72229 3.42523 0.62674 -0.196876 -0.527249
H 12.0298 4.94682 10.5132 -0.471802 0.292722 -0.210661
H 7.3841 0.80843 3.82799 0.173956 -1.069237 0.273955
H 9.72446 6.23565 6.90352 0.130128 0.367834 0.55198
H 4.97282 4.57972 7.03533 -0.716412 0.272733 0.895876
H 12.2355 9.90192 10.7325 -0.250783 -0.079078 -0.239489
H 9.02052 8.96563 9.08936 0.19446 -0.177925 0.327345
H 8.34593 5.81433 7.50138 -0.203547 -0.521396 0.855478
H 12.2484 9.20862 2.24249 -0.083416 0.769588 0.309155
H 4.49999 5.41032 4.93957 0.955577 -0.257678 -0.363902
H 8.89737 11.4035 1.24526 1.045179 -0.337035 0.263197
H 9.50992 1.16428 11.0152 0.011608 -0.440443 -0.836221
H 6.25386 4.6717 3.12806 0.907597 2.489746 -0.72427
H 0.48286 4.37469 9.45123 1.36809 -0.568979 -0.614248
H 6.81102 2.1151 4.39896 -0.035558 0.554088 1.255134
H 4.16588 4.24162 8.39603 -0.524068 -0.1041 -0.095701
H 9.26893 12.0344 11.0641 -0.16706 -0.688057 0.667335
H 8.63556 7.683 10.8312 0.166845 -0.681086 0.623924
H 6.19289 3.74582 5.50189 0.000613 -0.45502 0.630626
H 1.31065 5.3366 11.6649 0.011761 -0.614873 0.372443
H 9.3074 4.92819 5.85874 -0.601981 -0.461886 0.135834
H 5.24222 1.71443 2.85756 1.117384 -0.449955 0.268807
H 6.72727 8.07232 1.37855 0.233446 -0.327164 -0.251183
H 7.86491 5.78996 9.83781 0.384909 0.300186 -0.122597
H 8.21709 2.33049 2.85849 -1.599569 -1.245566 0.880839
H 10.9878 7.69049 0.92711 -0.946866 1.091607 2.123177
H 3.38661 3.78733 4.3885 -0.595339 -0.063796 -0.926783
H 9.24017 6.31833 11.7201 -0.883166 1.159539 -0.49549
H 8.02598 8.59853 2.09463 0.645088 -0.376599 0.501163
H 0.89854 0.94543 9.37969 -1.624372 -0.842721 -0.833092
H 7.39819 10.439 0.4865 -0.359127 -0.960491 0.412692
H 1.3081 9.5912 10.7698 0.514919 -0.404021 0.061982
H 10.8172 5.67943 0.57844 -0.400103 -0.132058 -0.537761
H 2.17234 9.0557 3.24375 0.009911 -0.383846 -0.146102
H 8.40354 11.1521 4.79568 -0.2099 -0.263379 -0.051336
H 7.39704 7.56677 7.21029 -0.73034 0.484701 -0.719805
H 12.0239 6.4201 6.85628 -0.520241 -0.388562 0.475952
H 10.5105 1.89442 1.55205 0.48127 -0.682402 -0.904672
H 1.43206 2.27143 3.17108 -1.608198 -0.644751 -0.573043
H 0.07386 11.4836 9.31372 -0.010915 -0.515765 0.26022
H 3.1998 5.52717 1.78223 -0.455217 0.091998 -0.120117
H 1.05619 5.37201 0.76192 0.387352 0.539669 1.492135
H 9.16509 5.12227 3.90737 0.317785 -0.042559 -0.420109
H 2.81531 4.83678 9.97909 -0.674635 0.624701 1.04517
H 11.5928 1.62213 0.29041 -0.458516 0.360169 0.497754
H 7.16477 11.7859 12.1346 -0.14731 0.089308 0.507572
H 2.4258 7.98068 12.3068 -0.503869 0.327277 0.297571
H 7.90388 9.38681 6.41165 1.386391 0.823795 -1.452732
H 11.5682 9.42811 9.02206 -0.365943 -0.874669 -0.565907
H 3.60997 6.7326 11.1276 -0.374127 0.342691 -0.263661
H 12.047 2.48391 4.57295 -0.471003 0.583028 1.375806
H 6.18039 2.06179 11.057 -0.214912 0.288584 -0.044522
H 4.89375 6.92739 7.89729 -0.986988 0.164061 0.492324
H 5.22001 4.80211 0.65586 0.325938 0.166749 0.037228
H 3.07535 0.35655 9.83702 0.573432 -1.07197 0.573838
H 4.13322 8.1032 3.90663 0.273188 -0.234415 -0.197997
H 6.62547 6.06653 1.36199 -0.429882 -0.328601 -0.528396
H 6.06101 6.75043 3.74953 0.062295 0.14633 -0.07634
H 2.57079 6.58993 2.70648 0.039036 0.529078 0.31766
H 3.21112 4.75448 11.5134 -0.69437 0.96597 -0.723689
H 6.09254 3.65061 10.9345 -0.025947 -1.917912 -0.995871
H 2.94253 7.50342 4.69333 -0.194057 0.410883 -0.11606
H 8.69693 12.2763 9.03285 0.516677 -0.481649 -0.676635
H 1.52863 8.95094 0.83036 0.350905 -0.333308 0.201751
H 8.07321 5.65407 2.96647 -0.93743 0.035307 -0.040965
H 3.82609 2.1889 2.6777 0.585481 -0.371587 -0.855165
H 4.86844 0.53836 11.9412 0.835429 0.135107 0.084947
H 3.22008 7.19714 6.68844 -0.189808 -0.454458 0.035576
H 5.6122 1.24137 0.71482 -0.304676 -0.072102 0.333812
H 0.09737 3.37232 11.9817 -0.128034 -0.327738 -0.33374
H 9.97267 9.96666 10.923 1.574457 -0.9738 0.888647
H 10.0305 3.54466 5.50749 0.761871 -0.45064 -0.107181
H 11.1342 12.3345 9.37104 0.814246 -0.245337 -0.249751
H 4.43556 8.88029 10.4634 -0.129136 0.308458 -0.166313
H 9.41685 7.34006 3.71831 -0.053316 1.276638 0.016282
H 5.08142 0.25202 9.02962 -0.548649 -0.213395 0.054111
H 6.74429 5.10789 9.05085 -1.01815 -0.070024 -0.459495
H 11.6084 1.7768 5.81931 -0.561086 -0.491941 0.294779
H 8.77955 11.5269 3.24222 0.200863 -0.256519 0.238034
H 4.48058 3.50529 1.21471 0.271167 -0.237497 0.043005
H 10.8843 8.82038 11.7501 -0.158264 0.750397 -0.362385
H 2.45408 4.22458 3.02064 0.878349 -1.280688 1.760868
H 1.1853 1.72643 10.7318 0.025399 -0.441828 -1.216275
H 4.64085 8.3923 7.99974 -0.527267 -0.469293 0.39921
H 1.37242 11.8145 4.71184 0.293558 -0.036161 -0.007139
H 4.6472 7.18517 12.1131 0.514573 0.303636 0.235337
H 11.5386 2.58109 10.8951 0.968249 0.370064 1.070376
H 1.94983 3.90548 8.01187 -0.212864 0.496657 -0.587797
H 0.66917 0.36893 3.63012 0.014922 -0.768158 0.851719
H 12.39949 1.58264 2.31331 0.488792 0.554179 -0.367174
H 5.38851 12.229 7.5275 -0.124279 0.051978 0.167215
H 11.2514 8.1776 8.17143 0.715895 -2.356121 -0.570315
H 12.2701 7.58997 0.22636 1.368017 0.282409 -0.378518
H 5.69666 9.66963 10.5847 0.261371 0.254861 -0.21211
H 9.59381 5.25147 1.44907 0.278161 0.25057 -1.150308
H 7.55806 12.1985 8.08294 0.695776 -0.704264 -0.497472
H 11.6687 5.70492 8.1923 -0.335976 0.115752 -0.053223
H 7.74373 3.5505 5.80512 -0.543042 -0.639876 -0.0923
O 8.77332 6.10714 6.69135 0.260461 0.955818 -0.796643
O 10.9415 9.03298 8.36135 -0.585936 2.937656 1.037081
O 9.68111 11.2764 1.88378 -1.431344 -0.627142 -0.320209
O 11.3307 7.4482 0.09557 -0.102518 -1.224362 -2.038775
O 11.2885 9.13485 2.06798 -1.303484 0.266287 0.198612
O 2.26208 3.72397 8.91227 0.255457 -1.068743 0.145656
O 0.55951 1.72353 3.12359 1.02016 0.836817 0.662195
O 2.34092 5.81074 2.17348 0.654103 -0.74953 -0.389457
O 1.02695 4.74585 6.68859 -1.237279 -2.054331 0.752523
O 4.97916 4.63644 8.07067 1.240268 -0.167077 -1.025323
O 0.61048 11.8564 4.13603 -0.279434 0.005567 -0.648728
O 4.40901 4.2711 0.62192 -0.61982 0.234892 -0.256322
O 2.71462 5.34972 10.8554 1.86122 -1.528252 -0.20042
O 6.69862 8.23657 6.99018 0.430527 -0.243118 0.197779
O 8.63425 9.87159 5.85243 -0.971329 -0.569652 0.9714
O 6.14917 2.79479 10.3924 0.158435 1.536076 1.284207
O 6.40386 6.28291 0.37499 -0.746959 -0.171156 1.270987
O 6.61858 5.60349 2.87359 -1.242249 -2.185927 0.536467
O 9.61412 0.31723 10.4925 0.020433 0.941109 0.309053
O 9.9299 5.26467 0.4815 -0.102682 -0.4654 1.45903
O 1.49878 8.27247 0.1288 0.272775 0.141806 -0.306601
O 12.2428 2.47602 11.6032 -0.409449 0.435901 -1.072297
O 3.15817 8.01686 3.84847 -0.108606 -0.236929 -0.151516
O 4.1488 7.54493 8.12297 1.405307 0.26391 -0.817784
O 7.8458 11.1524 0.03059 0.225688 0.881739 -0.770164
O 1.57606 1.37703 9.86499 1.601541 0.968019 1.678315
O 9.34713 2.97298 11.0113 -0.308804 0.702927 0.15488
O 7.67021 5.33609 8.98589 0.424885 -0.163014 0.718098
O 8.35807 11.8231 4.07715 0.037635 0.804521 0.070775
O 6.84223 3.09695 5.90577 0.233371 1.17568 -0.362528
O 9.42279 8.33861 3.86686 -1.015784 -1.076135 -0.114267
O 9.07701 5.65111 3.0722 0.908034 -0.328674 0.372498
O 3.9548 12.337 10.0679 0.17815 0.429914 0.255355
O 1.47792 9.52568 2.709 -0.072853 -1.340624 -0.794718
O 4.57278 1.74355 2.16106 -1.58236 1.31228 0.674016
O 9.24295 4.07258 5.3475 -0.253465 0.376784 -0.462351
O 8.96607 2.56492 2.34348 1.339035 0.784071 -0.968749
O 11.2889 6.29396 7.49457 0.779002 0.547385 -0.242746
O 5.66337 0.41367 8.24282 1.075412 0.447159 -0.573143
O 8.46854 6.80606 11.248 0.712937 -0.657523 -0.178124
O 8.34291 9.2921 9.71942 0.52043 0.27414 -0.765965
O 4.85449 9.71068 10.1142 -0.159743 -0.304889 0.389818
O 3.94427 7.56301 11.5596 0.061441 -0.548414 0.010742
O 2.75225 3.43127 3.63238 -0.177566 1.282117 -0.703771
O 11.9969 4.69071 9.57476 -0.819749 0.351618 0.7583
O 2.77375 6.71561 5.9358 0.243082 -0.03893 0.194854
O 0.77358 4.90777 12.3885 -0.864518 -0.386237 -1.508241
O 7.21827 8.85645 1.65643 -0.803235 0.856228 -0.260784
O 5.78968 7.65464 4.16116 -0.204216 -0.455298 0.537755
O 11.7226 2.68796 5.52356 0.94008 0.039049 -1.76493
O 11.8933 12.059 8.78515 -0.675793 0.454078 0.342456
O 6.69349 1.477 3.6967 -0.1252 0.336423 -1.014713
O 0.63475 9.8399 10.1315 -0.070383 0.782078 -0.120301
O 10.8165 0.02305 5.45471 1.818071 -0.661517 0.368171
O 10.8649 9.75703 11.3582 -1.935466 0.236858 -0.263975
O 5.76744 0.74912 12.2942 -0.393168 -0.154749 -0.922401
O 8.49016 11.8424 8.15382 -1.288919 0.884051 1.442944
O 4.50053 4.58199 5.43969 -0.381285 -0.14663 -0.263058
O 11.148 1.25792 1.10776 -0.433008 0.046425 1.4351
N 2.5538 0.61138 0.70288 0.250233 -1.358149 0.302907
N 11.5319 6.58898 4.3548 -0.436167 1.578437 1.355529
N 1.12936 9.47927 7.1071 0.678271 0.681645 -0.475669
N 10.163 1.90412 8.37851 0.036779 0.42932 -0.356847
N 2.16625 0.958 5.67807 0.459763 -0.213668 -0.497361
N 1.70407 10.3391 6.70079 -0.526702 -0.749493 0.380972
N 9.27816 2.29852 7.84758 -0.004679 -0.006709 0.203309
N 11.9389 5.75748 3.777 0.895881 -1.758671 -1.279807
N 2.16437 1.56288 6.59456 -0.026192 0.559637 0.871116
N 2.90259 12.0019 1.01747 -0.544975 1.208918 -0.459095
N 4.17074 11.2174 4.09022 -0.611758 0.432461 -0.317415
N 4.99138 10.6348 4.53333 0.641793 -0.359977 0.33501
Na 6.46698 2.62984 8.21851 -0.186415 0.070425 -0.501123
Na 10.5625 10.9717 7.17058 -0.672833 -0.141155 -0.173644
189
energy=-1063.84331947 config_type=nep2xyz pbc="T T T" virial="-14.836635782466582 1.78100939277156 -4.38424007067071 1.78100939277156 -11.481621168906072 1.8286697382036008 -4.38424007067071 1.8286697382036008 -14.942773765215238" Lattice="12.4 0.0 0.0 0.0 12.4 0.0 0.0 0.0 12.4" volume=1906.6240000000003 Properties=species:S:1:pos:R:3:force:R:3
H 7.48272 1.6488 0.15694 0.684428 0.161526 -0.141446
H 11.3407 10.3005 3.02963 0.063447 -0.660058 -0.735798
H 9.22622 4.5706 1.25985 -0.038326 0.842058 -0.32121
H 8.83444 2.33756 0.51623 -0.081768 -0.386663 -0.349561
H 1.98592 10.4212 3.27383 -0.071925 -0.322308 0.006893
H 4.87639 7.45611 2.18975 -0.03337 -0.022009 -0.423829
H 10.6602 12.3332 3.76279 0.624869 -1.124714 0.082731
H 7.80515 5.55568 1.2046 -0.847851 -0.055561 0.598504
H 7.03843 6.11489 5.61042 -0.274646 0.632922 0.399762
H 5.71265 9.35485 7.81179 0.559208 0.130497 -1.224484
H 12.003 11.5968 4.26048 -0.190336 0.13189 0.010401
H 0.2216 4.52914 6.97434 -0.502054 -1.781208 -1.788626
H 1.05365 2.50279 9.6013 -0.083115 -0.325584 -0.434311
H 9.27057 0.96148 2.62024 0.067886 0.094567 -0.282521
H 2.09176 10.2388 9.3128 -0.225663 -0.709527 0.021886
H 0.91877 5.76218 7.33034 0.398188 0.075028 0.48221
H 3.32469 6.12541 6.74857 -0.185809 -0.129266 -0.059519
H 6.14471 9.96128 5.3047 -0.025475 0.013358 0.189642
H 10.0125 9.18303 3.27121 0.648244 -0.53273 -0.30192
H 10.0196 5.94019 12.2384 -1.006253 0.122599 0.227189
H 8.91482 1.82014 4.56885 -0.446848 0.639617 -0.350637
H 5.47066 4.70741 8.96967 0.874901 -0.427024 -1.181868
H 5.31453 3.35551 6.00067 -1.432466 1.137939 -0.165966
H 11.893 9.11753 0.94304 -0.298282 -0.034512 -0.368936
H 6.54376 9.38893 9.16433 0.432168 -0.033208 -0.151938
H 7.0006 5.00685 9.0066 0.246637 -0.022235 -0.163855
H 0.18031 9.47446 2.89394 0.254139 -0.84445 -0.187148
H 5.18163 5.15061 5.28079 -1.188123 0.126913 -0.030368
H 10.4128 1.91684 3.15517 -0.630817 -1.214448 -0.803658
H 8.90435 0.05855 12.1843 1.042234 -0.912006 -0.051013
H 6.65026 4.86221 4.44823 -0.088739 0.756956 -0.695419
H 8.48759 5.67777 11.6631 1.225873 0.934273 0.833832
H 9.12752 3.28514 4.99595 0.064119 0.23509 0.577555
H 5.83321 2.15275 5.13193 -0.156511 0.859293 1.18099
H 9.03225 10.9533 0.23779 -0.252326 -0.697959 0.334133
H 8.79785 6.70008 9.84665 0.877381 0.433878 -0.289459
H 9.67687 4.05653 6.86358 0.429385 1.831095 0.828938
H 1.51884 3.82775 10.9679 0.232329 -0.644911 -1.738957
H 8.46835 6.00552 7.11346 0.803074 -0.105211 0.099034
H 4.15982 2.92298 3.18547 0.952812 -0.917779 -0.053004
H 7.84114 9.57976 3.5154 -0.307143 -0.361779 -0.433765
H 5.30348 8.11385 10.1102 -0.109248 -0.75459 -0.350234
H 9.1716 3.54358 2.48036 0.07818 0.100695 -0.756469
H 12.0019 7.28896 12.1429 0.482494 0.092425 0.230896
H 3.87908 4.62118 4.58239 0.503927 -0.257409 1.086689
H 7.28234 6.8318 9.97933 -0.726167 0.47641 0.13518
H 6.34928 9.06797 3.03167 1.591424 1.210094 -0.324279
H 0.04832 0.66131 8.77221 0.178907 -0.053536 1.36017
H 7.09983 11.8215 2.2444 0.123303 0.95635 0.442191
H 0.47179 9.11235 12.1205 1.020978 0.256556 -0.361876
H 7.96361 9.0902 1.23015 0.847644 -0.9441 -1.848076
H 2.71264 9.07822 3.4124 0.436049 -0.418481 0.504416
H 7.92777 0.19666 4.06583 0.055177 0.051907 -1.026713
H 6.44883 5.79731 7.07275 0.380469 -0.057502 0.346365
H 11.8127 6.65722 9.02613 -1.004848 -0.171196 0.104006
H 11.11 3.20523 1.36331 -0.329393 0.545561 -0.423316
H 1.8822 2.67083 3.06901 -0.247991 -0.251203 -0.271206
H 11.5076 0.04172 6.90108 -0.25387 -0.758899 -0.35787
H 4.32456 3.88529 0.27617 -0.02126 0.557193 0.339409
H 2.24402 4.27856 12.2767 0.738643 0.395062 0.276056
H 9.51547 6.06591 5.3797 0.533732 0.277301 -1.640382
H 3.31335 5.41137 8.58514 -0.950828 0.377594 -1.136837
H 0.09964 3.42937 0.45978 -0.407588 0.210331 0.28715
H 6.47093 0.94994 2.68926 0.24329 -0.360291 -0.08229
H 2.42029 8.2658 0.0072 -0.234262 0.398741 -0.772784
H 6.95704 8.78456 5.82134 -0.084389 -0.229757 0.049204
H 11.0399 9.42638 10.7076 0.037197 0.261862 0.226948
H 5.18564 7.18473 12.0379 0.257389 0.269743 -1.162954
H 0.61557 2.60575 4.74603 0.441072 -0.239486 -1.204098
H 6.42983 0.4481 9.56555 -0.464297 0.129264 0.156068
H 2.93142 8.24078 9.79595 -0.26568 0.072476 -0.091782
H 6.36223 3.54413 0.69627 1.039287 1.538809 0.068655
H 1.65976 11.7576 9.15375 0.532084 -0.444405 0.303598
H 4.5459 8.43959 4.28986 -0.298177 -0.296345 0.126132
H 6.94242 5.46587 2.57588 -0.0525 0.222489 0.433709
H 5.63982 6.94267 3.54444 -0.688086 0.252874 -0.598992
H 4.10527 5.45797 0.53959 0.133632 0.088327 -0.185154
H 3.48326 4.28017 9.63618 -0.700028 -0.709957 0.18863
H 7.72244 1.17901 10.1013 0.394192 0.103892 0.864623
H 3.90261 8.27764 5.75966 -0.065609 -0.401366 -0.109928
H 10.6082 10.4256 8.3823 -0.340384 0.030378 0.231874
H 2.71992 9.60505 11.7157 -0.233941 -0.181699 -0.145313
H 8.70832 5.77514 4.12104 -1.446841 -0.379939 -0.524847
H 6.16037 2.63412 3.18717 -0.162865 -0.234677 0.024497
H 4.1168 11.8341 9.47921 -1.029268 0.004948 -0.154908
H 2.94074 7.20351 7.89856 0.125021 0.469557 0.035669
H 5.44994 11.0768 9.41163 -0.787641 1.258878 -0.201284
H 11.2601 12.2781 12.2544 0.062328 1.48167 -0.049243
H 8.04558 9.16857 10.9992 0.119631 0.177307 1.193136
H 9.91359 6.26333 7.87246 0.083692 -0.152939 0.136157
H 12.0971 1.43472 6.37916 -0.529752 -0.567698 1.296394
H 3.01996 11.0924 7.1512 -0.752994 -0.342398 1.982227
H 9.26174 7.96573 3.96679 0.623041 0.187808 0.06238
H 5.91761 12.3188 6.67235 0.514468 -0.155665 1.211101
H 4.71855 6.57086 10.1235 0.56466 0.601226 -0.306311
H 11.6483 3.20978 5.14659 1.306882 -0.173384 0.307649
H 7.83481 0.2262 5.57933 -0.002415 -0.091074 0.516605
H 5.65601 2.4469 1.36646 -0.576219 -0.262945 -0.366618
H 8.92727 9.57761 9.76122 -1.325868 -0.543142 0.729535
H 3.55582 4.02187 2.25555 -0.091572 -0.231209 0.918686
H 0.029 0.47896 10.4514 -0.766173 0.195344 0.695121
H 4.08633 8.87751 8.97976 -0.540421 -0.049636 -0.42905
H 1.85466 11.9361 5.09465 -0.334424 -0.698144 -1.990626
H 5.86284 6.45896 0.83749 -0.717279 0.085847 -0.088987
H 11.8345 1.44239 0.09311 -0.434888 -0.118255 0.676918
H 1.08464 3.90295 8.77593 -0.031936 -0.402622 0.35156
H 1.52737 0.41131 3.84685 -0.260569 -0.442159 -0.490948
H 0.56749 2.2424 2.20449 0.400515 0.070961 0.833072
H 7.19735 12.1467 7.77598 -1.312855 0.338618 -0.238917
H 10.8212 8.49294 9.47774 0.024902 1.30125 0.814975
H 0.2772 5.75141 11.6525 -1.214156 1.058819 1.599842
H 3.72602 10.4315 5.93299 -0.402515 0.992479 0.230151
H 8.68584 7.90353 0.21714 -0.5783 1.325305 0.810774
H 9.57024 11.5034 7.87879 0.484779 -0.571806 0.266959
H 11.4313 6.51624 10.4837 -0.513877 0.0638 0.780397
H 10.2847 2.59423 6.91704 0.282002 -0.153577 0.154009
O 6.33981 4.54034 8.4613 -0.882427 0.100013 0.941245
O 10.7648 9.47086 9.77524 0.011032 -1.491638 -0.684547
O 10.2436 1.07872 2.6372 0.425947 0.694688 0.826067
O 11.8847 6.30369 12.0368 0.756923 -1.826804 -1.33923
O 11.6593 9.45223 2.55696 -0.052716 1.515926 0.566948
O 1.56959 3.29477 9.38457 0.295841 0.444167 -0.077059
O 1.11305 2.0495 3.04003 0.10489 0.252742 -0.044649
O 3.64654 4.59584 0.48152 0.499008 -0.897845 0.323118
O 0.28519 5.11373 7.6942 0.279703 1.513273 1.245225
O 5.91029 2.62495 6.0203 1.528789 -2.26871 -1.257349
O 1.46798 11.8651 4.14119 0.577562 1.122883 2.29934
O 5.73918 2.88019 0.45341 -0.711196 -1.385048 0.444698
O 3.86743 5.07489 9.28294 1.593836 0.288174 1.488123
O 7.10888 6.35835 6.61679 -0.134982 0.097852 -0.34115
O 6.82957 9.73548 5.95182 0.474483 -0.669447 -0.08231
O 7.31394 0.79981 9.33038 0.340264 0.154717 -1.077343
O 6.9465 5.26037 1.61388 0.485308 0.393957 -1.051994
O 6.60521 5.82668 4.2251 0.555842 -1.416013 0.112024
O 9.41147 11.5877 12.0412 -0.326772 1.408699 -0.254968
O 8.39392 8.86544 0.31058 -0.542567 -0.525417 1.427305
O 2.20773 8.78561 11.5933 0.574497 -0.271059 0.854565
O 11.7854 0.65613 11.927 0.027603 -1.613928 -0.829228
O 4.23752 8.90454 5.11677 -0.156327 0.785759 0.260126
O 3.18336 8.47111 8.88232 0.636777 -0.008774 0.66857
O 7.34543 0.34395 2.50805 -0.084926 -0.93196 -0.004868
O 0.5516 0.52126 9.62819 0.709177 0.110758 -2.285116
O 8.4383 1.66185 12.3102 -0.934113 0.308796 0.095578
O 5.48771 7.17667 10.3136 -0.446381 -0.152508 0.507535
O 8.5069 0.2865 4.8649 -0.267185 -0.219082 0.581657
O 9.50622 3.13069 6.7349 -0.501031 -1.576424 -0.508076
O 9.41589 8.93982 3.98217 -1.221818 -0.114868 0.808452
O 9.54974 6.13672 4.35406 0.828177 0.327816 2.257744
O 2.39314 11.0765 8.98291 -0.312903 1.609225 -0.21126
O 1.96008 9.47452 2.98496 -0.356466 0.859655 -0.473297
O 5.52573 1.91672 2.99333 0.376721 0.820283 0.203307
O 9.47787 5.73065 7.19862 -0.812878 0.098133 -0.575749
O 9.42624 3.67952 1.52545 0.201329 -1.342362 1.452013
O 11.0305 6.78344 9.62033 1.025297 0.053344 -1.448387
O 6.8497 12.0838 6.86075 0.61311 0.660214 -0.628369
O 8.00282 6.19989 9.98196 -0.149952 -1.127816 0.240036
O 5.65237 9.51592 8.74576 -0.125117 -0.14021 1.450471
O 3.42694 11.2976 6.33228 1.041813 -0.489039 -2.260845
O 5.01948 6.92887 0.54453 0.610455 -0.804104 1.50727
O 3.52661 3.65763 3.1917 -1.111926 1.18744 -1.040617
O 9.03499 6.00681 0.06448 0.297431 -0.653616 -1.145866
O 2.64854 6.41406 7.39464 0.071608 -0.442299 -0.611903
O 1.39604 4.232 11.8133 -1.980264 0.790398 1.415732
O 7.10069 9.75614 2.88295 -1.29118 -1.116872 0.016926
O 5.05724 7.6697 3.11601 1.127312 -0.426406 0.945804
O 0.15802 2.99358 5.49613 -2.233264 0.503871 0.612199
O 11.6471 0.94999 7.15518 0.686758 1.485607 -0.913858
O 8.91241 2.77105 4.21798 0.126962 -0.372263 -0.785615
O 12.0028 8.83143 12.3848 -1.062792 0.097746 0.586784
O 11.0252 11.4742 4.20479 0.025897 0.993022 -0.250214
O 8.00789 9.24954 10.0461 0.818476 0.373197 -1.911929
O 5.05679 11.9964 9.52321 1.505661 -1.049676 0.227275
O 10.1118 10.74 7.593 -0.316128 0.95438 -0.245905
O 4.28395 4.77728 5.50859 0.367574 0.640176 -0.940458
O 11.9438 2.84148 1.03081 1.281358 -0.487088 -0.278692
N 3.71941 0.48549 0.84001 -0.548793 0.031371 -0.185653
N 0.38945 6.41858 3.71062 -0.069917 0.242963 0.27347
N 12.3921 9.19059 6.74058 0.553762 -0.217718 0.597356
N 9.98928 2.95777 9.40369 1.141389 -0.281825 0.715099
N 2.48156 1.75234 6.09171 1.799454 1.299298 3.512971
N 0.56063 8.90529 7.6511 -0.614401 0.148605 -0.767278
N 11.0387 2.78601 9.7338 -1.360277 0.357893 -0.333928
N 0.66885 5.60829 3.01712 0.083863 -0.252047 -0.251632
N 2.95383 2.12536 7.05132 -1.558748 -1.368721 -3.495087
N 2.67353 0.61301 0.4952 0.53603 -0.0039 0.174869
N 4.72163 10.1296 11.9253 1.259956 -0.500489 2.912739
N 5.13147 9.96789 0.56182 -1.051518 0.560683 -2.837353
Na 7.53355 2.40636 7.55431 -0.517834 0.164903 0.297429
Na 9.31671 10.6353 5.53627 0.015832 -0.28966 -0.260269
189
energy=-1065.34131764 config_type=nep2xyz pbc="T T T" virial="-15.474308593946208 3.1760830395489834 -4.081177394736182 3.1760830395489834 -11.798142983588074 0.7771075848696958 -4.081177394736182 0.7771075848696958 0.1994832385711113" Lattice="12.4 0.0 0.0 0.0 12.4 0.0 0.0 0.0 12.4" volume=1906.6240000000003 Properties=species:S:1:pos:R:3:force:R:3
H 7.93133 2.70392 0.43152 1.436009 -0.939675 0.859395
H 10.5252 10.8522 2.37766 0.193893 -0.75644 -0.313114
H 10.0331 4.45853 2.65297 -0.136572 -0.477567 0.306314
H 9.01527 2.64163 1.69617 -0.088466 -0.027572 -1.166098
H 1.4644 11.169 2.79307 -0.081724 -0.305775 0.186457
H 5.26357 7.98559 2.42213 0.068489 0.140055 -0.072406
H 10.8972 12.2072 3.77727 -0.058646 0.104128 -0.045938
H 7.96782 5.62814 0.94169 -1.786531 -0.289996 0.963511
H 6.98358 6.57366 5.758 -0.154574 -0.546812 -0.380917
H 6.80023 9.33002 7.33353 0.329741 -0.139584 -0.512886
H 12.3644 12.17937 4.33914 -1.003566 0.233846 0.5494
H 0.33458 4.59978 6.78845 0.305009 -0.26258 0.494989
H 1.21125 2.36258 9.56944 -0.528186 -1.136063 -0.594663
H 9.05771 0.32717 2.76014 0.852523 -0.64334 -0.359042
H 2.64946 9.93145 8.55475 0.076219 0.222738 0.453103
H 1.38169 5.64031 7.27727 0.109417 -0.081807 0.46405
H 3.42244 6.27832 6.2473 0.382266 -0.301289 -1.127474
H 9.24749 8.56483 5.74427 0.740586 0.464002 -0.373529
H 10.2343 8.87488 3.42065 -0.333905 -0.83147 0.818181
H 10.1299 5.77245 12.1163 0.392672 -0.05998 0.51876
H 10.6009 1.30309 4.81852 0.812911 -1.83998 -0.077697
H 5.36397 4.46384 8.43655 0.024399 -0.066886 -0.09081
H 4.93487 4.11736 5.00677 -0.25388 -0.826676 -0.21611
H 11.7689 10.0892 11.7757 0.213732 -0.41173 -0.176709
H 6.88324 8.94383 8.80748 0.195918 0.418633 0.105962
H 6.87787 4.73882 8.81371 0.400418 -0.130944 0.449275
H 11.6929 9.76122 2.26546 0.554953 0.422881 -0.040691
H 4.54402 5.96571 4.19883 0.452006 0.141624 -0.068797
H 10.0673 0.77281 1.70752 0.583978 0.714187 -1.027628
H 8.62923 0.56047 0.11317 0.61319 -0.319676 -0.366311
H 6.22635 5.00566 4.37022 0.730803 0.338388 -0.533577
H 9.64284 4.27077 12.32344 -0.223923 0.603884 0.33561
H 9.43778 2.13937 5.49791 0.148175 -0.242663 0.283883
H 5.38866 2.84013 4.14644 -0.119005 0.38385 -0.338007
H 8.83268 11.3952 12.1414 -0.226183 0.178253 0.199485
H 8.30564 6.51056 9.77304 -0.03594 0.26237 0.160316
H 9.1294 3.04782 7.36924 -0.782485 -0.313582 -0.425742
H 0.86794 3.88594 11.3239 0.14707 -0.564817 -1.526294
H 8.64337 5.39934 6.86127 0.400104 -0.205656 -0.256229
H 4.26399 3.12376 2.51657 0.706164 -0.13368 0.254176
H 8.46788 9.21572 3.79979 -0.247103 -0.117412 0.026083
H 6.12811 6.30055 10.3672 0.025011 -0.371586 0.261735
H 9.99285 3.18089 3.60244 0.461612 -0.126096 -0.263685
H 11.6446 7.5359 11.4158 -0.228687 0.46371 0.334478
H 3.23668 5.22281 3.93824 0.218948 -0.223168 0.353645
H 8.64953 5.58691 10.992 -1.041847 -0.299458 -0.968559
H 6.91953 9.44286 3.45722 -0.46336 -0.519164 0.064924
H 0.0468 12.3179 8.91256 1.17293 0.275575 1.253374
H 7.31667 11.633 3.42086 0.165008 0.596355 -0.296799
H 0.59864 9.15333 11.54 -1.136053 0.045392 -0.252933
H 8.14505 9.34251 1.0786 -0.28215 -0.02179 0.092642
H 1.77337 9.64392 3.00696 -0.477245 0.888428 -0.606314
H 8.50163 11.1736 5.14335 -0.199139 -1.099643 -1.265728
H 6.75953 5.75036 7.14832 -0.118159 0.284576 -0.311299
H 11.8151 5.9216 8.35928 -1.141794 0.576741 0.716619
H 11.2579 2.64415 1.71011 0.481695 -0.165811 -0.449245
H 2.05322 2.96813 2.91246 0.307388 0.018146 -0.184068
H 10.7227 0.73811 7.33954 -0.941772 1.110056 -0.314724
H 4.56293 4.42952 0.17436 0.124613 -0.221593 -0.269735
H 1.79964 4.52155 12.3258 -0.586257 -0.329501 0.127221
H 9.29093 5.37768 4.89555 0.207355 -0.106444 0.089518
H 3.42219 5.14348 8.24681 0.264008 -0.460712 0.004952
H 12.3597 2.60839 0.56482 0.327469 0.958695 -0.533835
H 6.60987 0.578 2.83569 1.123419 -0.333816 0.652122
H 2.05835 9.74233 0.57396 -0.475976 0.436157 0.691568
H 8.67247 7.80958 6.87245 -0.310239 -0.484542 0.574982
H 11.1039 9.25058 10.0767 0.137586 -0.082304 -0.911286
H 4.98562 7.49035 12.2907 -0.209797 0.282321 -3.201413
H 0.78569 3.13365 4.8273 0.034384 -0.249479 -0.68321
H 5.72929 1.0661 9.70982 -0.480945 0.199631 0.257676
H 4.46585 7.91233 9.37002 -1.520034 0.325105 -1.238988
H 6.48828 4.21377 0.53452 0.009509 -0.97289 -0.839134
H 2.07393 11.3579 9.00015 -1.602765 0.685305 0.87002
H 3.76747 8.77049 3.86236 0.42063 0.227435 0.0717
H 6.93653 5.54962 2.32786 -0.040649 0.110035 -0.353412
H 5.89391 7.49251 3.73173 0.438152 -1.303409 0.38013
H 3.98486 5.82029 0.51031 0.305395 0.539408 0.135932
H 3.12557 3.83529 9.04685 -0.808151 -0.739288 0.489524
H 6.39876 2.36675 10.3977 -0.189661 -0.270522 0.040154
H 2.7446 8.12056 4.67013 -0.995825 -2.747751 1.254818
H 8.82849 0.01741 9.88306 0.287479 0.155048 1.272431
H 2.71744 8.59133 12.2527 0.295294 -0.510551 -0.125523
H 8.17972 5.78722 3.88621 -0.472053 -0.11337 0.190161
H 6.4637 2.65282 2.48582 1.29238 0.49255 0.749835
H 4.19699 11.7344 9.15244 -0.234241 0.898892 -0.193216
H 3.30278 7.13407 7.58902 0.348131 0.739398 0.575419
H 5.21908 11.3963 10.0944 0.606916 0.289133 0.534282
H 10.754 12.0264 12.1898 1.066695 0.306839 -0.369247
H 8.29601 8.78145 10.8797 -0.309525 -0.296631 0.263447
H 9.95172 5.38498 7.62357 0.712376 0.508138 0.587609
H 11.7777 12.2725 6.67846 -0.343164 0.058608 -0.106221
H 2.83706 11.1492 6.67259 0.143365 0.241316 0.493924
H 9.75036 7.40921 4.16403 0.03116 -0.429756 -0.739992
H 5.22985 11.9178 6.22508 0.416427 0.464254 0.869425
H 4.71581 5.60493 10.4107 0.164961 0.02034 -0.071424
H 11.6783 3.11975 5.31789 1.145626 0.254998 0.144305
H 8.19502 12.3094 5.99204 -0.523395 0.782302 0.384639
H 5.94397 2.82106 0.94317 -0.435293 0.020063 -0.500574
H 9.14415 8.70353 9.61738 -0.981671 -0.257049 0.200452
H 3.46405 4.19237 1.79021 -0.203224 0.246367 -0.199346
H 0.54592 12.2668 10.4719 -0.534975 -0.20313 -0.240834
H 4.6177 8.63263 8.00982 -1.504045 -0.430199 1.483444
H 2.32319 12.2122 4.45406 -0.6593 -0.407585 0.192663
H 5.79762 6.69509 0.87652 0.044156 0.300787 0.13633
H 12.2117 0.1196 0.2154 -0.546995 -0.330988 -0.003658
H 0.95541 3.86646 8.91042 0.21793 -0.866391 -0.008398
H 1.56806 0.85645 3.5214 -0.507031 -0.669343 0.566624
H 0.61304 2.41448 2.47449 -0.464027 -0.111941 -0.724432
H 6.20579 11.6404 7.47493 -0.989028 1.721458 -1.501495
H 10.7805 8.26611 8.81346 -0.050083 1.848882 0.783942
H 12.3409 6.17463 11.6864 -0.043085 -0.52247 0.28202
H 3.23787 10.3391 5.42119 -0.07493 0.449642 -0.082237
H 9.62352 9.27519 0.84425 0.060157 0.062842 -0.143574
H 7.4374 0.30875 9.25529 1.110005 0.215849 0.10232
H 10.837 6.02393 9.6711 0.318438 0.127182 -0.031037
H 8.51301 1.6612 7.83523 0.179018 -0.222322 0.376125
O 6.27858 4.60189 8.07073 -0.130775 -0.263836 -0.225104
O 10.6151 9.22287 9.1874 0.165795 -2.156101 -0.296165
O 9.99965 0.13427 2.40195 -1.831544 -0.471038 1.307342
O 11.4836 6.62171 11.7044 0.016146 -0.355486 -0.385436
O 10.7329 9.87768 2.26995 -0.468357 0.338969 0.008632
O 1.38685 3.28985 9.59889 0.257773 1.968448 0.481706
O 1.25522 2.45029 3.19144 0.764179 -0.383154 1.165312
O 3.72998 4.90775 0.3497 -0.492122 -0.375939 -0.324273
O 0.66353 5.05896 7.62552 -0.512283 0.139519 -0.780783
O 5.52288 3.33125 4.98587 -0.083462 0.168997 0.628121
O 1.49619 12.303 3.92146 1.263379 1.676626 -0.60133
O 6.25343 3.32137 0.0774 0.492458 1.084864 0.541948
O 3.83721 4.41172 8.78008 0.361027 1.394413 -0.317251
O 7.31253 6.43611 6.66071 0.126362 0.432609 0.439739
O 9.23108 8.57948 6.71959 -0.529975 -0.055578 0.149805
O 6.37144 1.79984 9.60929 0.588947 0.670064 -0.423601
O 7.00164 5.55098 1.30748 1.412958 0.421986 -0.320992
O 6.51964 5.81954 3.91037 -0.216009 0.256288 0.173568
O 9.08886 12.3081 11.9151 -0.283214 -0.21466 0.071353
O 8.77497 9.26127 0.35226 0.210595 0.269731 0.025821
O 2.07357 9.28335 12.1229 0.158056 0.151907 -0.267308
O 11.7467 11.8602 12.0613 -0.548293 0.265266 0.317683
O 2.93803 8.96102 4.35615 0.914053 2.174392 -1.330395
O 3.86392 8.23944 8.61 3.309755 0.457456 0.113025
O 7.4226 0.21398 3.30712 -1.113148 -0.032608 -0.470877
O 0.84285 12.3871 9.55518 -0.947392 0.167477 -1.050042
O 8.8082 2.24417 0.79177 -1.915961 1.176013 -0.205604
O 5.26452 6.29814 10.8203 -0.103869 0.408889 -0.718117
O 8.79854 11.5763 5.94262 0.346999 0.246461 0.785367
O 8.56 2.2802 7.09057 0.309376 0.402764 -0.045364
O 9.73194 8.3807 4.16697 0.117261 1.17041 -0.45036
O 9.16411 5.6878 3.9839 0.454194 0.343765 0.093695
O 2.7793 10.893 8.56727 1.562595 -0.867268 -1.326031
O 1.33944 10.2789 2.36606 0.446564 -1.209591 0.021132
O 5.56544 2.4669 2.28295 -0.56174 -1.432818 0.21931
O 9.52129 4.93208 6.89495 -0.983611 -0.477957 -0.525534
O 10.1573 3.48595 2.67208 -0.22295 0.305493 -0.036432
O 10.9642 6.36099 8.77116 1.095992 -0.44993 -0.835427
O 5.87041 12.3775 6.8361 0.470321 -1.986732 0.611361
O 8.15188 5.6112 10.107 0.333518 0.056381 0.587586
O 6.38273 9.51257 8.17594 -0.338362 -0.204709 0.229754
O 3.27533 11.2461 5.81307 0.315502 -0.509098 -0.501691
O 5.0974 7.4105 0.79558 0.428016 -0.746172 3.264476
O 3.46352 3.70177 2.63211 -1.093869 0.41831 0.542509
O 9.3979 5.21012 0.07444 0.015628 -0.322816 -0.250042
O 2.97058 6.38841 7.07843 -1.16001 -0.869324 0.601632
O 0.85186 4.27297 12.1894 0.675345 0.919985 1.150706
O 7.76268 9.89064 3.58859 0.128103 0.769453 -0.118653
O 5.43155 8.244 3.35156 -0.594727 1.252254 -0.450601
O 0.20191 3.45728 5.52183 -1.512333 0.239187 0.752751
O 11.3365 0.05181 7.52664 1.088958 -1.381407 0.41013
O 10.2176 2.16358 4.9191 -0.959649 2.310645 0.097945
O 11.9861 9.21068 11.3586 1.052023 0.725665 0.703504
O 11.3849 12.2275 4.62028 1.394503 -0.28626 -0.036572
O 8.22744 8.40269 9.98408 1.055137 0.566495 -0.436696
O 4.87792 12.2106 9.70188 -0.735911 -1.916541 -0.337004
O 8.37486 0.0481 9.05006 -0.909666 -0.262908 -1.458638
O 3.71254 5.71735 4.64307 -0.109248 -0.037097 -0.521708
O 11.9441 2.07979 1.23806 -0.912502 -0.5395 0.824031
N 4.42278 0.85953 12.3835 1.177598 -0.68344 0.125946
N 12.0339 6.84068 3.48426 1.451129 -1.702476 -0.500304
N 0.56489 8.57768 6.87505 0.282651 -0.049919 1.58889
N 10.0093 3.1646 9.40074 0.189371 -0.032023 0.310634
N 2.8704 1.57331 7.8644 -1.525004 -0.107641 -3.367291
N 0.36324 8.62932 5.79958 -0.322988 0.118918 -1.454374
N 10.306 3.52764 10.4009 0.090678 -0.251486 -0.251725
N 0.34062 5.99249 3.30677 -1.210077 1.524418 0.322693
N 2.36685 1.55483 6.85272 1.660018 0.028574 3.202898
N 3.48549 1.42246 12.31755 -1.335122 0.769176 -0.087265
N 5.73613 10.6262 0.59891 0.054853 0.694283 2.813366
N 5.73404 10.3354 11.9512 -0.00307 -0.777986 -2.722659
Na 6.26598 2.31613 6.83776 -0.007909 0.099004 0.414028
Na 9.57534 10.5121 7.71147 0.088323 0.445489 0.073414
189
energy=-1065.11824941 config_type=nep2xyz pbc="T T T" virial="-7.226224683751642 5.907145785021412 1.2265190568399886 5.907145785021412 -9.223556113792524 2.2299924571424636 1.2265190568399886 2.2299924571424636 -4.287098647509224" Lattice="12.4 0.0 0.0 0.0 12.4 0.0 0.0 0.0 12.4" volume=1906.6240000000003 Properties=species:S:1:pos:R:3:force:R:3
H 7.67409 2.24521 0.3519 -1.20899 -0.081229 0.086355
H 11.5642 10.8985 1.79957 -0.517878 1.848067 -0.098711
H 9.50831 4.17257 2.77563 -0.303874 -0.176471 -0.342618
H 8.9916 2.59521 0.96162 0.444911 -0.17905 0.941218
H 2.09363 11.081 3.13163 -0.324942 0.984479 0.442387
H 4.86359 8.40963 2.15075 -0.746201 -0.526791 -1.561859
H 10.6575 11.8262 3.84917 1.337859 0.044735 1.672724
H 7.53822 5.58359 1.03587 1.329152 -0.163205 -0.78234
H 6.43366 6.73434 5.73242 0.296815 0.165955 0.475889
H 6.84547 7.99644 8.00899 -0.265718 -0.364479 -0.711173
H 12.0642 12.0162 4.61393 -0.304102 -0.076808 -0.054255
H 12.0737 4.58087 6.27044 0.132517 -0.085711 0.468163
H 1.30747 2.75046 9.17658 -0.571779 1.035697 0.395047
H 10.0426 0.13538 2.21486 -1.028726 -0.1879 0.065222
H 2.19691 10.3525 8.68956 0.033536 0.311157 0.018068
H 0.79318 5.25805 7.12559 -1.211367 -0.220974 0.247179
H 2.60374 6.04085 6.05777 0.257742 0.787904 0.2306
H 9.72191 8.32185 5.91415 1.47543 -0.284824 -2.140624
H 10.7928 9.16402 3.63654 -0.022266 0.000598 -0.016667
H 9.53445 5.39654 11.9886 -0.203336 -1.142764 0.037021
H 10.2586 1.17237 4.66872 0.214147 -0.06563 -0.051449
H 5.10786 4.6811 8.64306 -0.760619 0.063827 -0.214238
H 5.65183 4.31628 5.27781 -0.072613 -0.13214 0.427382
H 11.8525 9.07598 0.1976 -0.686355 -0.163096 -0.149854
H 7.11655 8.47627 9.45912 -0.233744 0.713221 -1.286257
H 6.52088 5.10436 9.06684 -0.040295 -0.398634 -0.52878
H 0.11324 9.86201 2.27548 0.624339 -0.166366 0.320029
H 4.69146 6.06335 4.42264 -1.404824 -0.269574 0.651043
H 11.4078 0.84592 1.95146 -0.419657 -1.389504 0.225244
H 9.25998 0.7158 12.024 0.399054 -0.775497 0.359677
H 6.53004 5.3633 4.16163 0.018704 0.774461 -0.035143
H 8.7255 3.93079 12.1472 0.72637 -1.193608 -0.143405
H 9.43151 1.99528 5.65384 -0.302099 0.294502 0.504486
H 6.2417 3.04396 4.57124 -0.066324 0.291663 0.398858
H 9.67214 11.5544 12.3749 -0.525917 -0.214449 0.600905
H 7.77258 7.11002 11.0475 -0.976936 -1.133529 -1.144968
H 9.44699 3.49187 7.22157 -0.340039 -0.07833 0.17476
H 1.06968 3.83881 11.0455 -0.325199 0.352943 0.434079
H 8.49161 5.64289 6.38969 0.456982 -0.364761 0.147256
H 4.60358 3.10619 3.41259 0.344097 -0.690342 0.29979
H 8.38703 8.99315 3.6784 -0.366888 0.426165 0.174927
H 5.44213 6.76912 10.426 -0.13415 0.649716 -0.170717
H 9.44421 2.8887 3.53704 0.172206 -1.049776 0.547618
H 11.6263 6.89295 11.9166 -0.681451 0.473467 -0.255035
H 3.64071 4.89133 4.27174 -0.078959 0.844306 0.187726
H 7.63232 5.53089 11.1895 -0.253768 1.096094 -0.762034
H 6.82549 9.16706 3.18253 0.546238 0.217232 0.310966
H 0.32158 0.56242 8.49391 -1.136114 -0.378386 -0.58175
H 8.03782 11.3631 3.05865 0.170064 0.7244 0.257479
H 0.74658 8.92014 11.9951 0.691193 -0.314956 -0.393637
H 8.40018 9.76558 1.86784 -0.763446 -0.030978 -0.15039
H 2.28171 9.57496 3.38583 -0.292248 0.882993 -1.02105
H 8.75973 11.2081 5.64465 -0.328492 0.132248 0.109539
H 6.3232 6.01521 7.13322 -0.162169 -0.562001 0.359828
H 11.27 5.75418 8.28857 -0.371382 -0.138416 0.521427
H 11.0334 2.84882 1.47106 0.840549 -0.562051 -0.538817
H 2.13309 2.94433 3.29177 -1.635313 -0.615548 -0.275026
H 10.3226 11.8959 8.35879 0.598606 0.646048 -0.984265
H 4.25536 3.87059 0.32574 -0.555031 -0.042671 -0.08546
H 1.66187 4.45308 12.3802 1.041723 -0.052507 0.354044
H 9.66541 5.54076 4.5407 0.366807 -0.180794 1.008232
H 3.1302 5.63994 8.08082 -0.400161 -0.016912 -0.424897
H 12.2428 3.095 0.43742 0.379161 0.361762 -0.15782
H 7.977 0.5816 2.88606 -0.10651 -0.762464 0.333524
H 2.02049 9.84806 0.99139 0.315985 0.102807 0.907123
H 8.41712 7.73327 6.53885 0.024877 0.113849 -0.153748
H 11.6704 8.92073 10.051 0.940278 -0.053919 1.251921
H 4.34034 7.04785 11.9705 0.168805 0.058838 0.151856
H 0.11113 3.71084 4.35375 0.447976 -0.270243 -0.276762
H 6.00355 0.35686 9.24139 0.247133 0.02197 0.289969
H 3.69488 8.34088 9.01336 1.04238 -0.413194 0.693229
H 6.37466 3.65093 1.11194 -0.360709 -2.473732 -0.881121
H 2.01369 11.9731 8.80346 -1.492727 1.161671 0.536111
H 4.40097 8.67383 4.22986 -0.021774 0.438423 -0.283356
H 6.73991 5.89088 2.3502 -0.128993 0.194323 0.02351
H 5.70119 7.48367 3.2533 -0.42768 1.029781 -0.658618
H 3.80428 5.31507 0.49033 0.564567 2.480806 0.038199
H 2.84327 4.43949 9.0037 -1.314246 -0.739969 0.390688
H 5.98757 1.27881 10.4901 0.754186 -0.049368 -0.713825
H 3.461 7.75678 4.86749 -0.967596 -2.966584 0.35933
H 9.35959 11.8719 10.1346 -1.26623 -0.056889 -0.528291
H 2.56357 8.45876 0.48556 0.17215 0.140135 0.313225
H 8.35561 6.11676 3.98146 -1.000593 0.205613 0.114176
H 7.01238 2.39472 3.36959 1.044263 0.222149 -0.308889
H 4.21686 11.3156 8.80643 1.037624 -0.380163 -0.226173
H 2.37584 7.23702 7.16344 0.360296 0.352066 -0.273891
H 5.58325 10.3914 8.599 -0.311799 1.287151 0.368187
H 11.5276 0.10309 11.329 -1.069668 -0.170338 0.323171
H 8.68739 9.16755 11.8679 0.876444 -0.176665 -0.027814
H 9.83392 5.72765 7.11309 0.704629 0.987123 1.580175
H 10.9191 12.0107 6.87679 -0.125545 -0.072779 0.277458
H 2.97332 11.3391 6.81932 0.541776 -0.025591 -0.831101
H 10.1471 7.74616 3.73142 0.075313 -0.399948 -0.110432
H 5.59416 0.41252 5.92144 0.810871 0.311284 0.806136
H 4.10848 6.3712 9.87922 -1.600521 -2.206969 -1.231441
H 11.1023 3.58513 4.93427 0.074702 -0.082416 -0.149193
H 7.75736 12.0263 6.63904 1.26307 -1.99025 -0.55518
H 6.04161 2.2556 1.77698 0.119 0.342706 -0.382482
H 9.49317 8.45794 10.5631 0.034524 0.718619 0.78394
H 3.91047 3.9509 2.37981 -0.884768 -0.083726 0.478383
H 0.74357 0.51554 10.0051 -0.201204 0.446533 -0.138929
H 4.17659 8.79285 7.55652 -0.138591 -0.253665 0.579814
H 2.18066 12.29431 5.01887 -0.742026 0.3291 -0.618163
H 5.24598 6.47443 0.77063 -0.426562 0.625543 -0.286322
H 12.302 1.14103 12.1618 -0.205795 -0.374944 -0.295867
H 0.4926 3.99933 8.72336 -0.632762 0.34224 -0.839619
H 1.37532 1.02432 4.02345 0.280161 -0.885229 0.676258
H 0.74608 2.61864 2.44428 0.213059 -0.034808 -0.000725
H 5.54851 12.1 7.254 0.454931 0.238883 0.531074
H 11.1238 7.94996 8.9455 -0.045796 -0.484484 -0.002063
H 12.0896 5.5018 11.7034 -1.333427 -0.352686 0.004006
H 3.39435 10.448 5.60895 0.046368 -0.485411 -0.187524
H 9.84559 9.79862 1.74637 0.561179 -0.21256 -0.709597
H 7.98416 12.3995 9.63257 0.326199 -0.27518 -0.330021
H 10.7836 6.02239 9.75941 0.354189 -0.189271 1.527617
H 9.28159 2.17667 8.13043 0.196967 0.269266 -0.379957
O 6.03781 4.59186 8.37065 1.128316 0.537219 0.783223
O 10.9904 8.78216 9.41178 -1.58062 0.530552 -1.261367
O 10.9899 12.37499 2.2345 1.419232 2.040298 -1.075403
O 11.2263 6.02512 11.6716 1.737295 -0.199152 0.102079
O 11.6223 9.95894 1.91712 0.363548 -2.046636 -0.035551
O 1.12439 3.71933 9.39288 1.634777 -1.941478 0.30565
O 1.15852 2.59105 3.32848 1.598186 0.701885 0.184141
O 3.47908 4.43436 0.52683 -0.06978 -2.779233 0.258948
O 12.3126 4.77609 7.23988 1.05019 0.818606 -0.036593
O 6.44644 3.76352 5.30213 -0.307082 -0.108365 0.121363
O 1.3806 0.10854 4.44228 0.474479 0.279281 -0.222649
O 6.21336 2.64437 0.83043 -0.226336 2.684458 1.440804
O 3.50491 5.0825 8.78726 1.324915 0.636492 0.180441
O 6.62183 6.83619 6.72338 0.194854 0.007718 -1.152334
O 9.10665 8.40779 6.59706 -1.484425 -0.026331 2.271459
O 6.51143 1.09979 9.67305 -0.946321 -0.006346 0.407496
O 6.66645 5.69731 1.38289 -1.456646 -0.23215 0.778911
O 6.45853 6.34344 4.02851 -0.213364 -0.677866 0.156267
O 9.78484 12.2933 11.7754 0.013754 0.735259 -0.857684
O 9.0718 9.80242 1.15807 0.152291 0.244298 0.158458
O 2.22093 9.31974 0.21667 -0.11207 -0.492922 -1.314182
O 0.0088 0.42782 11.5005 1.336238 0.289913 0.058075
O 3.61691 8.66182 4.82853 0.306635 2.917845 0.027093
O 3.42184 8.63171 8.14942 -0.94081 0.294764 -1.45432
O 8.53755 12.2202 3.13687 -0.382476 0.053847 -0.333882
O 1.05316 0.73477 9.08066 0.845763 0.741357 0.925786
O 8.62963 2.1804 0.17094 0.774155 -0.032817 -0.490999
O 4.51577 7.11074 10.2624 2.07118 1.569112 1.511229
O 8.39268 11.214 6.54156 -1.023636 1.934521 0.258514
O 8.94365 2.66198 7.36012 -0.080286 -0.268385 0.076894
O 10.1603 8.62293 4.13837 -0.010146 0.028859 -0.232649
O 9.21927 5.77992 3.73308 0.721065 0.212777 -1.415563
O 2.57351 11.2352 8.57455 2.073475 -1.641875 -0.835771
O 1.94807 10.2386 2.70032 0.393812 -1.878725 1.039197
O 6.08779 2.18475 3.4007 -0.923142 -0.410659 -0.262722
O 9.41354 5.30092 6.39439 -1.394359 -0.9094 -1.450738
O 9.45811 3.198 2.617 0.164556 1.454851 -1.171768
O 10.5081 6.07167 8.85588 0.426389 0.131267 -2.052124
O 6.05243 0.42645 6.80457 -0.899315 -0.00556 -1.666548
O 7.25354 6.31218 10.6403 0.455874 0.701094 1.092738
O 6.91831 8.8022 8.52984 0.300124 0.211166 2.21333
O 3.39206 11.3667 5.90151 -0.577551 0.494992 1.101529
O 4.35598 6.88492 0.54629 0.557759 -0.141451 0.198073
O 3.74345 3.57532 3.28801 0.39404 0.373797 -1.022416
O 8.68461 4.88023 12.0827 0.156083 1.89206 0.392944
O 2.11024 6.35848 6.85347 -0.088884 -0.861054 0.047141
O 0.8667 4.09131 11.9956 -0.919098 -0.179368 -0.946931
O 7.68139 9.62941 3.42065 -0.310623 -0.250761 -0.405189
O 5.35194 8.43119 2.94942 1.728642 -1.017314 2.042978
O 11.8339 4.22379 4.82008 -0.822887 -0.043851 -0.019546
O 11.1402 12.0924 7.82514 -0.497129 -0.132926 0.419547
O 9.86257 2.0608 4.79121 0.29348 -0.345795 0.404903
O 12.2233 8.61898 11.8125 -0.098584 0.411766 0.67989
O 11.1043 11.8201 4.7607 -0.83488 0.130957 -0.678034
O 8.6525 8.7309 10.9969 -0.844892 -0.788057 -0.724845
O 5.23829 11.3325 8.70944 -0.828376 -1.357327 0.010295
O 8.72252 11.8078 9.34651 1.019392 0.322675 1.146614
O 3.73714 5.7897 4.72747 1.701458 -0.394488 -0.766171
O 11.7909 2.40629 0.97391 -1.09704 0.516725 1.261539
N 3.31441 1.30638 12.0178 0.65038 1.751998 0.440073
N 1.346 6.3022 1.79632 -0.525986 -0.175022 2.371871
N 0.5131 9.82269 6.56057 0.824479 1.174306 0.065223
N 10.9328 2.67082 10.1167 -0.653861 -0.123007 0.24448
N 3.10084 2.21893 6.52298 -2.395542 2.122151 -0.295921
N 12.3169 8.90773 6.46746 -0.775305 -1.223445 -0.095944
N 9.88207 2.35595 10.283 0.646593 0.218369 -0.564015
N 1.12236 6.21077 2.89111 0.489935 0.220774 -2.349465
N 2.26282 2.96345 6.40847 2.492599 -2.148374 0.235085
N 2.93485 0.31537 11.7534 -0.641118 -1.721099 -0.454718
N 6.00861 10.212 12.0887 2.264636 -0.459295 0.465838
N 4.95117 10.4042 11.8985 -2.067712 0.435081 -0.48213
Na 6.65063 2.53524 7.61476 0.03022 0.023256 -0.250553
Na 9.08022 9.84639 8.21002 -0.303725 0.023773 0.148699
189
energy=-1065.6065509 config_type=nep2xyz pbc="T T T" virial="-14.668557200972911 -0.2444184356625935 -0.5102334508724553 -0.2444184356625935 -5.085805115514789 -0.07894600039854156 -0.5102334508724553 -0.07894600039854156 -7.271112279998748" Lattice="12.4 0.0 0.0 0.0 12.4 0.0 0.0 0.0 12.4" volume=1906.6240000000003 Properties=species:S:1:pos:R:3:force:R:3
H 7.7794 2.97032 11.608 -0.856763 -0.179464 -0.284401
H 11.671 10.4933 2.24386 -0.200788 0.029039 0.506318
H 9.06988 4.04243 2.35498 -0.004079 -0.304667 0.228731
H 8.54447 3.05327 0.59432 0.298223 -0.063209 0.375683
H 3.70065 11.0126 3.111 0.772516 0.662811 -0.112567
H 6.80291 7.53396 0.77112 0.052316 0.146327 0.044772
H 10.4246 12.139 5.70029 -0.076831 -0.103016 1.350216
H 8.06627 7.13217 10.9088 0.472698 -1.102535 0.284352
H 6.25732 6.04539 4.47889 -0.193597 0.559933 -0.726993
H 5.44047 11.4742 8.31603 0.111822 -0.766117 -0.14923
H 11.4528 11.4134 6.65202 -0.330112 0.495458 -0.025849
H 0.14496 3.76515 6.25624 0.473553 0.696462 0.656916
H 1.6658 2.38605 9.31965 -0.281465 -0.480628 0.534138
H 10.9717 12.3267 1.99393 -0.37115 0.706486 0.057081
H 3.15575 11.4017 10.2779 -0.375146 -0.477387 0.3524
H 1.34507 4.84869 6.26537 0.125901 0.28862 -0.299193
H 3.24298 4.81948 5.03673 -0.059176 1.304107 1.02535
H 8.49759 9.13302 4.04377 -0.503851 -0.278789 -0.096427
H 10.4404 8.75449 2.8361 -0.36973 -1.006199 -0.073019
H 10.2417 5.88853 11.024 0.26034 0.168852 0.165111
H 7.81851 1.03617 4.21532 0.257773 0.307976 -0.174627
H 8.95704 7.12618 7.12632 -0.006215 -0.259485 0.211304
H 4.17042 3.15379 6.43185 0.444523 -0.040455 0.013258
H 3.13357 9.46443 11.2582 -0.274831 0.095892 -0.433154
H 6.61793 10.4594 8.57654 -0.045086 0.052627 0.048296
H 8.38165 8.38563 6.47484 -1.178697 -1.300739 0.607093
H 12.3671 10.0304 3.59662 0.145326 0.328627 -0.695617
H 4.98906 3.71994 4.24177 0.463452 0.264556 -0.239801
H 9.81484 11.4518 1.48847 -0.588481 0.159198 -0.220762
H 9.04927 1.47109 11.5863 0.52118 -1.405569 0.532203
H 4.5247 6.48269 3.05834 0.276609 -0.271825 -0.206699
H 11.7597 6.01655 10.3046 -3.043601 0.136007 0.779252
H 7.16815 2.35645 4.74929 -0.334762 0.893112 1.646253
H 3.49045 2.87995 7.83779 -0.352212 0.281059 0.319438
H 8.66848 0.0069 12.213 0.114098 0.339679 -0.293291
H 8.80523 9.90784 10.288 -0.001597 -0.081111 0.78623
H 6.88441 4.31357 5.88459 0.560478 -1.519849 0.965391
H 1.52189 5.64561 11.528 -1.196526 -0.80306 0.273552
H 9.775 4.90099 6.36801 -0.195716 0.700978 -0.174501
H 5.81338 2.03815 2.78582 -0.063865 0.08444 0.201362
H 8.24508 8.90037 0.0453 0.137779 -0.500949 -1.421812
H 6.0139 6.1972 9.23311 0.864987 -0.583337 -0.94174
H 8.38411 2.68626 2.90213 0.476488 0.200485 -0.465552
H 0.16643 8.6876 1.40684 -0.402122 0.465283 0.799205
H 3.46259 3.05829 4.05417 0.282431 0.128835 0.475388
H 9.09488 9.61598 8.8776 0.20362 0.933179 0.355127
H 8.6283 8.80569 1.49559 1.522494 -1.019059 1.852116
H 0.15376 0.88758 10.1221 0.169892 -0.820451 -0.511332
H 7.78221 10.7349 1.06083 -0.09022 0.316569 -0.178942
H 3.34337 9.34524 9.67403 -0.206885 -0.382498 0.149343
H 8.48363 4.83806 11.5635 -0.241048 -0.715122 0.533288
H 3.90963 9.52628 3.57859 0.685015 0.293105 0.524832
H 8.4667 11.4591 4.55436 -0.045535 0.063714 0.588711
H 7.25637 6.52025 5.70614 0.479929 0.842918 0.108143
H 11.6387 5.60946 7.22392 -1.95062 0.908463 0.201235
H 10.4699 2.38429 2.15755 -1.135833 0.211112 0.548982
H 1.42894 1.78517 3.72942 -0.042039 -0.00988 0.260518
H 11.7593 11.1442 10.5931 -0.357155 2.103591 -1.001414
H 2.10026 7.24262 2.76298 -0.284867 0.078994 0.372723
H 0.59446 6.30648 0.11992 -0.709359 0.992642 0.90683
H 9.29827 5.07011 4.11234 0.860195 -0.163344 0.67857
H 2.99334 4.17422 10.3339 -0.192037 1.825539 0.771882
H 11.4606 2.2504 1.04492 0.290975 -0.501444 0.440458
H 6.87479 12.0212 0.90347 -1.598644 0.902065 -0.295813
H 3.80986 8.10831 0.77912 1.227644 -1.261768 0.103407
H 6.9424 9.36623 4.56195 0.466265 -0.243314 -0.4148
H 11.4358 9.1558 9.09819 -0.956821 -0.273423 -1.269396
H 4.40029 5.87879 10.7937 0.863057 0.978248 0.234064
H 11.9687 1.9017 5.10078 0.58715 0.487002 -0.852319
H 5.87362 2.12242 11.5633 0.548445 -0.536453 -0.410644
H 5.2778 6.73462 6.36921 -0.983666 0.873242 0.272872
H 4.90679 3.88173 1.22415 0.128672 -0.350038 0.635751
H 2.44493 0.40686 10.64 1.247161 -0.897698 -0.477896
H 5.53585 8.01362 3.64467 -0.130544 1.0011 1.263635
H 7.3938 8.43644 10.4445 -0.130163 0.044821 -0.204123
H 5.87064 6.65202 1.93099 0.209956 -0.907071 1.065967
H 2.58801 6.19527 3.91523 -0.723678 0.24068 0.634876
H 3.65736 4.60214 11.7416 -0.799941 0.741547 -0.562643
H 5.99812 3.57708 11.7016 -0.506261 1.380119 0.349007
H 5.17816 8.43931 5.14329 -0.356684 -0.14012 0.197905
H 8.11936 0.75203 10.1052 0.38192 -0.319534 1.00213
H 3.09909 9.24879 1.49616 0.016429 0.185039 0.028608
H 8.24606 5.82394 3.39509 0.923212 -0.002004 -0.535319
H 4.1864 2.35786 2.70627 0.382254 -0.737185 -0.589624
H 5.0321 0.23237 12.1259 -0.629544 0.64695 0.441616
H 3.09253 6.36804 5.80841 0.180508 -1.298483 -0.453614
H 5.28275 1.44613 0.88864 -1.137565 -0.067652 1.044958
H 12.2432 4.05868 11.807 0.059232 0.181412 0.198033
H 12.24705 8.87041 11.1918 0.85256 1.222357 -0.823827
H 10.267 3.62197 5.76428 -0.960277 0.532809 -1.244869
H 10.6946 12.3275 10.9195 0.047811 0.209641 -0.095081
H 4.56378 7.73942 9.4019 0.365131 -0.548682 0.822362
H 9.70407 7.24348 2.91248 0.30251 0.791295 0.074355
H 4.31376 0.37517 9.17929 1.431868 0.151941 -0.827088
H 7.0122 6.44593 7.96494 -0.306006 -0.042967 0.403153
H 11.1002 1.64837 6.305 0.232195 0.649731 -0.060008
H 9.49513 12.0785 3.65949 -0.625763 0.830379 0.929135
H 5.34405 5.36264 0.83953 -0.13581 -0.377082 -0.249277
H 1.07501 9.74505 10.4549 -1.620828 -0.967701 0.008602
H 2.39696 3.06621 2.56578 -0.725499 1.2491 -1.123506
H 0.76176 1.66665 11.1684 0.610427 0.434412 -1.015291
H 4.38892 7.71997 7.35624 0.331972 -0.160219 -0.573494
H 1.77905 11.0957 4.11975 -0.591441 -0.478745 0.759547
H 5.71041 6.70188 11.5607 -0.767428 -0.687666 -0.238779
H 10.8921 3.31498 11.6511 -0.985185 0.142921 -0.189671
H 1.58333 3.51405 8.26603 0.373371 0.14866 0.247508
H 0.82359 12.2029 4.5392 -0.276637 -0.268554 -0.018804
H 0.00461 1.59692 3.15767 -0.345898 -0.200015 0.16326
H 4.92069 1.39096 8.09452 -0.08452 -0.62406 -0.414531
H 10.7093 8.0056 8.28346 0.299114 0.848844 -0.104284
H 1.33236 8.37733 0.50635 0.962542 0.08758 -0.16306
H 4.9841 9.05468 8.62106 0.565237 1.040319 -0.112773
H 7.86196 6.021 0.12853 -0.135477 -0.703666 -0.318408
H 6.90524 0.80279 9.17987 -0.805662 -0.320581 -0.289356
H 10.694 5.80781 8.45965 -0.470118 0.28884 0.334126
H 8.13746 3.42322 6.30153 -0.999911 0.344886 -0.379188
O 8.08859 7.54687 6.98414 1.406574 1.531814 -1.1477
O 10.7964 8.99072 8.3095 0.595256 -0.606983 1.420686
O 10.4097 11.5627 2.23194 0.397687 0.231099 0.054475
O 0.38066 8.29359 0.55673 -0.511718 -0.83532 -0.815217
O 12.1252 9.74914 2.68015 0.199768 -0.895274 0.551223
O 2.20301 3.08351 8.90106 -0.021327 1.075481 -0.88319
O 0.51597 1.37302 3.97085 0.154787 -0.024997 -0.374785
O 2.67528 6.51369 2.99441 1.109905 0.012086 -1.419664
O 0.57661 4.50921 6.77346 -0.816392 -0.901351 -0.075902
O 4.34138 3.04367 7.39499 0.663383 -0.462444 0.094062
O 1.0007 11.2428 4.71592 0.620887 0.287943 -0.724911
O 4.84039 4.56695 0.55002 0.054803 0.094319 -0.574164
O 3.10717 4.98725 10.966 0.743417 -2.670437 -0.222285
O 6.67421 5.85322 5.34013 -0.402137 -1.445762 0.3765
O 7.91611 9.52779 4.72129 0.4377 0.65274 0.570948
O 6.30867 2.89569 11.1068 -0.512896 -0.5059 -0.565686
O 8.21027 8.08252 10.8121 -0.374222 1.384993 -0.168283
O 5.50827 6.38534 3.01429 -0.314355 0.929996 -0.495146
O 9.22456 0.45732 11.4989 -0.716419 1.336102 0.184565
O 8.47001 5.77251 11.774 0.441772 1.069492 -0.101573
O 3.09061 8.69944 0.68172 -1.05143 1.33288 -0.034936
O 11.8207 3.17454 11.7914 0.677137 -0.491112 0.397437
O 5.41746 8.83491 4.27312 0.150744 -1.149396 -1.494402
O 4.58741 7.46351 6.40332 0.469473 -1.084991 -0.262532
O 7.76291 11.7352 1.00309 1.908319 -0.882003 0.304258
O 1.01498 1.36346 10.2525 -0.641374 -0.011919 1.966674
O 8.65394 3.09399 12.0192 1.239449 -0.268822 -0.442959
O 6.49108 5.77112 8.44204 -0.532461 0.448293 0.961222
O 8.95817 12.3182 4.50237 0.855211 -1.675287 -1.511338
O 7.13962 3.38975 6.32502 0.37835 1.283635 -0.910685
O 9.59817 8.22303 2.76295 0.446119 0.393928 0.168758
O 9.20897 5.5947 3.28952 -1.880162 0.294229 -0.161122
O 3.33209 12.3023 10.6007 -0.489997 1.76083 -0.09338
O 3.27942 10.1732 3.20982 -1.321271 -1.001054 -0.673727
O 5.07703 2.29307 2.19526 -0.311814 0.485851 0.281828
O 9.53513 4.33191 5.60322 1.617506 -1.287925 1.238889
O 9.00895 3.06941 2.19394 -0.904358 0.397957 0.645099
O 10.7054 6.0356 7.50627 2.186131 -1.294887 -0.61116
O 5.08743 0.48626 8.47976 -1.782706 1.488842 1.597608
O 8.74125 10.3619 9.45197 -0.052514 -0.720902 -1.382558
O 5.66079 10.4954 8.42222 0.699908 -0.012498 0.019678
O 4.28951 8.38922 8.74961 -0.959835 -0.334435 -0.156322
O 5.14759 6.58073 10.7402 -0.057509 0.07279 -0.42509
O 2.65786 2.41809 3.18605 1.235517 -0.876685 1.049985
O 10.7238 6.10626 10.2099 2.767899 -0.17658 -0.904238
O 2.6186 5.60297 5.35809 0.562353 -0.387381 0.026379
O 0.57115 5.59911 11.885 1.988771 -0.261625 -1.381904
O 8.00354 9.19953 0.91646 -1.711078 0.984003 -0.459926
O 6.48003 6.61876 0.79257 -0.198792 0.798923 -0.081026
O 11.4058 2.4041 5.74861 -0.630208 -0.765211 1.092942
O 11.4667 12.1344 10.3288 -0.071725 -2.570508 0.648083
O 7.3862 1.89268 3.9556 -0.117179 -0.700976 -1.716219
O 2.79071 9.76672 10.3848 -0.013695 -0.01941 0.467519
O 10.772 12.1205 6.64949 0.233741 -0.408649 -1.47478
O 0.0595 9.52471 10.4462 0.733568 0.002967 0.965744
O 5.61429 0.8539 0.19351 1.155938 -1.020003 -1.638998
O 7.85591 0.92529 9.20073 0.138088 0.529364 -0.97062
O 4.1932 3.5573 4.73966 -1.367959 -0.048808 0.092207
O 11.2089 1.81824 1.90391 1.416245 -0.261541 -1.276836
N 1.25479 0.36132 0.72696 0.98468 -0.743384 0.609287
N 0.12543 4.25746 3.21366 -0.049625 -2.444991 0.759924
N 1.9436 6.82997 8.16966 0.335364 -0.257932 -0.06082
N 9.58314 3.24305 8.81143 0.376026 -0.036886 -0.089405
N 12.3903 8.0514 5.3286 0.897947 -0.782783 -0.300206
N 1.02017 7.37918 8.41599 -0.295549 0.125227 0.136323
N 10.602 2.85156 8.62133 -0.418061 0.06886 0.17697
N 0.14118 5.30788 2.92673 -0.163016 2.664812 -0.765772
N 11.5936 8.70794 5.70172 -0.889446 0.71771 0.117024
N 2.07045 12.1649 1.193 -0.966285 0.730613 -0.541249
N 4.59757 0.28948 5.11872 -1.01588 2.695754 -0.167171
N 4.96966 11.669 5.18729 1.058316 -2.581718 0.302559
Na 6.5059 3.50179 8.42688 -0.361344 0.116778 0.181967
Na 9.68396 12.1865 8.53926 0.016712 -0.239292 0.38454
189
energy=-1064.95946981 config_type=nep2xyz pbc="T T T" virial="-12.935148652577922 3.0326497952312836 -2.7376197617853015 3.0326497952312836 -10.440102793735623 0.44011740710576747 -2.7376197617853015 0.44011740710576747 -2.804844054256113" Lattice="12.4 0.0 0.0 0.0 12.4 0.0 0.0 0.0 12.4" volume=1906.6240000000003 Properties=species:S:1:pos:R:3:force:R:3
H 8.1851 2.85615 11.2084 -0.877875 0.44188 -0.14309
H 11.0815 10.6163 1.70348 -0.005633 -0.310535 0.038792
H 7.60959 3.7769 2.10616 -0.221302 0.927126 -0.071931
H 8.73829 2.60489 0.26665 -0.04081 0.543167 -0.986455
H 2.53861 10.3618 2.50997 -0.142404 -0.121703 -0.283691
H 6.6364 8.30517 2.31637 0.695632 1.066962 -1.231343
H 10.9699 0.17954 5.71457 -0.081897 0.351146 -0.352825
H 7.73063 6.07902 11.9542 -0.676737 1.082899 0.496453
H 6.91324 8.06546 4.74411 -0.083631 0.239472 -1.873098
H 7.37204 10.098 8.11332 -0.175218 0.343648 0.245382
H 12.341 0.85025 6.20995 1.06734 -0.514489 0.251815
H 12.0929 4.3416 6.39268 1.174763 0.697953 0.540136
H 1.20681 2.99858 9.51331 -0.797314 -2.010101 0.161059
H 10.5406 0.46718 1.84923 -1.053517 -1.343088 0.630953
H 3.36757 11.977 9.73773 -0.006359 -0.263525 0.235074
H 0.97251 5.45069 6.52392 -0.393429 -0.473244 0.253092
H 2.90347 5.16383 5.5023 -0.088715 -0.060273 0.157133
H 9.26435 9.61865 5.12572 0.147495 -0.604079 -1.417786
H 10.4411 8.8057 2.98297 0.475673 0.175066 -0.440499
H 10.2795 6.34041 11.5399 -0.359101 -0.463822 0.259366
H 8.19194 0.79447 3.96026 -2.221194 0.862218 -0.673405
H 8.81311 6.31767 7.40889 0.547598 -0.113517 0.514612
H 3.99871 4.10949 6.73048 0.001498 -0.494833 -0.282086
H 2.92797 9.69029 10.5412 -0.411084 0.984742 0.692546
H 7.02129 8.9065 7.17579 -0.496621 -0.41989 -0.746721
H 7.26454 6.08793 7.65951 0.122982 -0.229977 -0.306007
H 12.3811 9.8625 2.27238 -0.771586 -0.066239 -0.93207
H 4.77558 5.27242 5.25597 -0.565564 -1.573112 -0.146539
H 9.17584 12.007 1.59417 -0.028602 -0.190921 -0.367012
H 9.25077 1.36069 10.8114 -0.003089 -1.017908 -0.044841
H 6.33593 4.84015 3.46103 0.04665 0.424343 -1.277872
H 11.4945 7.16616 11.183 0.892544 0.62131 0.169583
H 6.90448 1.71699 4.35705 0.335105 -0.150547 -0.236577
H 3.05184 3.82524 8.05034 1.384631 -0.4614 -0.965382
H 9.02895 12.34397 11.4252 0.083369 0.263994 -1.154147
H 8.02784 8.05297 9.16238 -0.025839 -1.829093 2.364115
H 5.77811 3.42667 5.34523 -0.154693 -0.937454 0.663059
H 1.50852 5.14209 11.5783 -0.67224 0.572132 0.912278
H 8.83535 4.81306 5.94443 -0.476428 0.247053 0.388703
H 5.49715 1.11817 2.48965 -0.116638 0.435761 0.100281
H 7.44681 8.42328 0.39557 0.812424 -0.058517 0.520165
H 6.7927 5.81599 9.46036 -0.560804 0.201453 -0.642001
H 7.87545 2.30133 2.50557 -0.016162 0.70043 -1.006843
H 12.0243 8.41179 0.7274 0.300356 -0.049868 -0.271301
H 3.80535 3.58532 3.91005 0.642226 0.506946 1.406613
H 9.07674 7.47278 10.1852 0.773458 -0.040704 0.386494
H 8.50628 9.07512 1.51636 -0.754261 -0.614324 -0.355828
H 0.46355 0.62862 10.0602 -0.669447 -0.705099 -0.567836
H 7.62795 10.756 0.38711 -0.576125 -0.795922 0.239976
H 3.44298 9.68387 9.21923 -0.360316 0.493859 -0.734584
H 9.61937 4.3203 12.36338 -0.379863 0.017493 0.472227
H 2.68114 8.9185 2.98915 0.265396 -0.659653 -0.162427
H 8.76694 11.8559 5.3452 1.033152 -0.013646 -0.89238
H 7.63331 7.20609 5.86088 -0.255031 -0.44207 0.253949
H 11.1633 5.85072 7.71282 0.310946 0.472341 -0.558265
H 9.8595 2.34499 2.38383 0.385046 0.685843 -0.544387
H 1.64605 2.65373 3.26055 0.576558 0.16107 0.09155
H 11.7578 11.0949 10.0185 -0.118319 -0.063466 0.083132
H 2.34003 5.39321 1.11355 0.46475 0.472802 0.316997
H 0.44979 6.14669 12.3386 0.203523 0.305987 -0.173396
H 9.27854 5.38527 3.94037 0.023268 -0.303118 -0.288946
H 2.75052 4.05465 10.0526 0.070534 0.991679 0.064411
H 11.1124 2.37467 1.31392 -0.393479 0.530605 -0.083511
H 7.20203 12.3428 0.22582 0.079256 -1.210385 0.003147
H 3.43245 7.9966 12.1517 0.21321 0.53489 0.302346
H 8.45127 9.16866 6.3385 1.153669 0.910183 -0.95547
H 10.6912 9.14907 9.3287 -1.654832 0.261097 -1.199195
H 4.18282 6.01717 11.4097 -0.627653 -0.195771 -0.366571
H 12.1718 3.15477 4.79168 0.819649 0.238153 -0.960339
H 6.25306 2.09387 11.1106 -0.207632 0.530642 -0.125196
H 5.06187 8.09237 6.11238 1.57097 -0.001104 -0.730705
H 5.63484 3.49571 0.9288 -0.925021 1.230561 -0.213663
H 2.72499 1.00414 9.9496 1.518779 -1.263102 -0.175798
H 4.38713 7.85891 3.25138 1.415455 0.120954 -0.306808
H 6.95295 6.05027 0.85115 -0.275894 0.093651 0.468228
H 6.54233 6.85201 2.951 -0.244876 1.28654 0.167367
H 2.97298 6.29115 2.26017 -0.283813 0.818406 0.655941
H 3.77635 3.68427 11.1417 0.034638 0.816172 0.328376
H 6.1813 3.71381 11.1685 -0.066148 -0.588335 0.139296
H 3.55084 7.82852 4.53694 -0.039385 -0.056902 0.397499
H 7.96847 12.1545 9.30129 0.6219 0.464136 1.602862
H 2.86257 9.19365 0.75414 0.20554 -0.54768 -0.460718
H 8.0207 5.58051 2.95878 1.328691 0.265333 -0.007972
H 4.2383 2.06874 2.04597 0.256887 0.27682 0.908161
H 4.86026 0.63984 11.1831 -0.460307 -0.330649 -0.521291
H 3.06934 6.53618 6.12535 -0.199113 0.364593 0.202022
H 5.20343 1.08167 0.25061 0.143525 -0.256651 0.268919
H 0.10661 3.62958 12.3822 -0.104121 -0.282866 0.482211
H 0.02073 9.31922 11.2197 0.93086 0.245592 -1.108922
H 9.78913 3.68741 5.5004 0.131902 0.036192 -0.532421
H 10.8337 0.0316 9.90601 -0.36246 -0.473719 0.396229
H 4.37621 7.91725 9.8792 0.11175 -0.470707 0.564518
H 9.45493 7.6203 3.06054 -0.329952 -1.11478 0.22758
H 4.81251 0.91456 8.60501 -0.513766 -0.148004 0.644189
H 5.42378 6.29788 8.95758 -0.466331 0.313588 -0.050577
H 11.4225 2.24719 5.74703 -0.387259 2.08426 -0.00994
H 9.7589 11.8479 4.03456 -0.48666 -0.10756 -0.142408
H 4.88261 4.89577 1.02961 -0.082109 0.347433 0.857987
H 1.00216 10.0758 10.0462 -0.412022 -0.899589 0.669815
H 3.38445 4.26821 2.60217 -0.001166 -0.318226 -0.150971
H 1.0625 1.68217 11.0344 -0.286692 -0.213195 -0.143193
H 4.13441 8.0232 7.22435 -0.587187 0.057865 1.307861
H 2.51083 1.55024 6.82185 -0.893576 0.09889 -1.061991
H 5.46924 6.67179 11.9089 -1.148313 1.0831 -0.781475
H 11.4623 3.0226 11.4961 0.262361 -0.76349 0.955054
H 0.83763 4.1091 8.47599 -0.498277 0.528685 -1.170638
H 1.84208 1.65319 5.3135 0.155674 -0.141984 1.036961
H 0.17452 2.17451 3.14923 -0.173123 -0.218552 0.017154
H 5.32631 1.45729 7.24074 0.426816 -0.334092 0.729697
H 9.8822 8.38497 8.24904 0.282674 0.508323 0.099062
H 1.08774 8.19617 0.20039 0.244892 0.031755 -0.20237
H 5.37073 8.73184 8.96812 -0.375555 -0.478207 -0.293032
H 9.42843 5.4262 1.16171 0.014775 -0.410291 1.509798
H 7.0052 0.04134 8.15813 0.389511 -0.055844 0.018025
H 10.6502 6.42057 9.01532 -0.226029 0.22964 0.766295
H 7.26804 3.31363 5.58189 1.922375 0.53394 -0.04826
O 7.99034 6.01247 6.99282 0.129903 0.035002 -0.22264
O 9.87991 9.25951 8.70454 2.060682 -1.421785 1.484528
O 10.0719 11.959 1.99254 1.177598 1.207782 0.117736
O 0.16358 7.9125 0.05659 -0.34178 0.336749 0.57469
O 11.5805 9.74915 1.69107 0.977916 0.373338 1.051805
O 1.4199 3.85229 9.19601 0.922967 1.396676 0.210593
O 0.96513 2.12936 3.7161 -0.333461 0.17284 -0.278556
O 3.16771 5.61013 1.62629 -0.403562 -0.68195 -0.717694
O 0.22499 4.97593 6.99787 -1.004471 -0.39456 0.073932
O 3.8965 3.5544 7.5683 -1.569356 0.208257 1.590196
O 1.7489 1.30955 6.23711 0.443593 0.108848 -0.046532
O 5.0136 4.13101 0.47655 1.307367 -2.07969 -0.938012
O 3.32009 4.45894 10.7563 0.06295 -1.179319 0.037546
O 7.08506 7.99302 5.6779 -0.068867 0.483713 1.641963
O 9.16254 9.8149 6.04468 -0.935598 -0.107 1.773392
O 6.5574 2.96008 10.6663 0.015863 0.134266 -0.092425
O 7.04374 6.60984 0.0571 0.733449 -1.303866 -0.507698
O 6.61672 5.20674 2.57888 0.144496 -0.07968 1.334702
O 9.24955 0.38477 10.5412 -0.124521 0.487867 1.694952
O 9.57728 5.25481 0.23951 0.260851 0.655279 -1.793285
O 2.96644 8.86905 12.2136 -0.60923 -0.038965 -0.162564
O 12.0047 2.77391 12.2927 -0.010486 1.227473 -1.46468
O 3.4906 7.82769 3.57196 -0.722079 -0.654183 0.483646
O 4.12942 8.06043 6.27019 -0.761315 -0.151229 -0.581677
O 7.90082 11.678 0.44434 0.491101 2.314357 -0.298213
O 1.15051 1.30426 10.1391 0.602583 1.176777 0.745825
O 9.01817 2.79044 11.7036 0.795083 -0.658091 1.143676
O 6.10825 5.65211 8.7539 1.120673 -0.172494 1.090811
O 9.42169 12.363 4.79361 -0.629552 -0.160702 0.512104
O 6.50643 2.756 5.65277 -2.068625 0.409428 -0.306377
O 9.51849 8.58156 3.10943 -0.489545 0.931221 0.23206
O 9.06328 5.82432 3.09651 -1.159582 0.265693 -0.405457
O 3.63755 0.50755 9.87466 -1.185752 1.141343 -0.133998
O 2.28389 9.45833 2.25997 -0.730447 1.632321 -0.022842
O 4.84589 1.34369 1.80868 -0.010726 -0.393383 -0.748477
O 8.95433 4.13915 5.26408 0.021168 -0.238063 0.109031
O 8.14027 3.01741 1.80018 -0.141034 -2.019164 1.128068
O 10.512 6.5043 8.06356 -0.017143 -0.459906 -0.349326
O 5.62428 1.18074 8.14283 0.134142 0.224257 -1.481417
O 8.16354 7.34076 9.93071 -1.444504 1.687938 -2.589101
O 6.8769 9.2589 8.05828 0.262795 0.166468 0.86714
O 4.51585 8.22012 8.96928 0.908068 0.749685 -0.163766
O 4.54578 6.91393 11.4928 1.746186 -0.918026 0.563067
O 3.4385 3.38734 3.0506 -0.958229 -0.570811 -1.578298
O 10.6632 6.87923 10.8212 -0.608333 -0.233577 -0.580851
O 2.37791 5.88705 5.93007 0.042986 -0.041463 -0.42322
O 0.95195 5.31629 12.3924 0.8543 -1.401003 -0.705649
O 7.64225 9.14862 1.02818 -0.005294 0.396643 -0.196202
O 6.45765 7.88331 3.14153 -1.017571 -2.680486 1.13651
O 11.4831 3.26381 5.44376 -0.840057 -2.591347 1.144163
O 11.5576 11.9094 9.50193 0.375576 0.607481 -0.310662
O 7.28403 1.19344 3.58942 1.902713 -0.511091 0.877107
O 2.84141 10.2712 9.73761 0.529899 -1.246137 0.474213
O 11.3999 0.7352 6.38347 -0.469406 0.155908 0.329712
O 0.13161 9.64686 10.2812 -0.557555 0.60579 0.378648
O 5.60139 0.76915 11.7956 0.538433 0.563655 0.179759
O 7.85586 11.9839 8.38246 -0.769121 -0.629227 -1.943778
O 4.37864 4.34991 5.3031 1.400345 1.826635 -0.443475
O 10.8067 2.17292 2.22348 0.496492 -0.923046 0.402167
N 1.7975 12.3132 0.24973 1.051316 0.188302 -0.910439
N 12.3581 6.31341 3.76124 -0.020933 1.762173 0.744287
N 1.13222 7.24645 9.86812 0.318789 -0.332905 -0.317222
N 9.93391 2.62603 8.39126 0.210961 0.072301 0.120984
N 1.28176 9.80198 7.03397 0.831281 1.344346 0.17315
N 1.87142 7.41772 9.06378 -0.19513 -0.279088 0.124102
N 10.7909 2.66467 9.08945 -0.243079 0.055321 -0.174306
N 12.3419 5.32307 3.29812 0.022718 -1.688318 -0.786841
N 0.69547 8.89043 6.87421 -0.905885 -1.272188 -0.30945
N 1.03803 12.1283 1.01828 -1.005625 -0.198498 1.048178
N 4.61556 11.243 3.63521 0.689294 1.932969 3.045405
N 4.8469 11.8532 4.55697 -0.727163 -2.001994 -2.929452
Na 5.96154 3.405 8.37563 -0.04454 -0.0212 0.093424
Na 10.1974 11.113 7.83042 -0.177059 0.840387 -0.520226
189
energy=-1065.3937303 config_type=nep2xyz pbc="T T T" virial="-1.7623736621981327 -1.9681521124380454 0.7697294539913273 -1.9681521124380454 -12.337841357129625 -1.9837175885491838 0.7697294539913273 -1.9837175885491838 -7.579660953247675" Lattice="12.4 0.0 0.0 0.0 12.4 0.0 0.0 0.0 12.4" volume=1906.6240000000003 Properties=species:S:1:pos:R:3:force:R:3
H 7.7013 2.55904 10.7835 -0.39132 -0.074496 -0.34665
H 11.1104 11.2128 2.95262 0.244445 0.743011 -0.104372
H 8.09296 4.08797 1.3822 -1.189878 1.491063 0.72668
H 8.37024 3.02162 12.1079 0.026075 -0.193893 1.099963
H 1.61742 10.5369 3.36122 -0.245652 -0.273681 -0.859295
H 6.10428 7.9082 2.53358 0.02041 0.31462 0.065408
H 9.65467 12.1491 5.44965 0.197362 0.186386 0.114547
H 7.33897 6.93089 12.177 -1.743094 -0.85136 0.446341
H 6.20753 7.5482 4.84309 0.713135 0.062904 0.241586
H 6.31564 9.57495 9.71621 0.245932 0.179421 0.312098
H 11.075 12.2915 4.69976 -0.802702 -0.368755 1.459659
H 12.2739 4.49247 5.57763 0.981912 0.448528 0.865506
H 2.32214 2.36129 9.17732 -0.75202 0.831987 -0.336432
H 0.0761 1.00109 3.66126 2.828641 0.858867 1.529009
H 3.10002 10.8844 11.2318 0.484628 0.521659 -1.2104
H 1.2403 5.15798 6.1891 0.684442 0.641666 -0.304397
H 3.49201 5.72745 5.72511 -0.328279 0.134811 0.205511
H 8.93774 9.10366 5.38863 -0.380966 0.994152 0.356875
H 9.63304 9.34483 3.44639 1.487293 0.21504 -0.644424
H 10.7299 5.0801 10.6652 0.221191 0.117487 0.430896
H 7.89695 1.25714 4.2238 -0.250811 0.449061 -0.008765
H 9.15863 5.94644 6.99051 -0.32477 0.026822 -0.141479
H 4.53814 4.35584 6.53462 -0.227155 0.26869 -0.646037
H 11.815 8.7577 11.366 1.277266 -0.46046 -0.59085
H 7.10658 10.0687 11.0173 -0.306447 -0.267465 -0.247869
H 7.94042 6.07582 7.94131 0.181765 0.194226 -0.10652
H 11.8565 9.89784 3.18664 0.063918 0.083177 -0.18819
H 5.2509 5.73927 4.52593 0.439953 1.211438 -0.390196
H 11.3987 1.38341 2.85112 -0.469395 -0.29447 -0.578633
H 9.41451 0.77298 11.264 0.863389 -1.499718 -0.481252
H 6.55503 4.42247 2.64293 -0.271088 0.065604 -0.049139
H 9.55935 3.97346 10.6991 -0.0608 0.16147 -0.435287
H 7.45649 2.79477 4.47553 0.095377 -0.629616 -0.003203
H 3.67825 3.85171 7.80045 -2.384057 -0.637624 0.66894
H 9.41625 11.5708 11.3836 0.113594 0.523908 0.181685
H 8.31307 7.32264 9.80671 0.790397 1.941157 0.334379
H 6.09607 4.2671 5.4017 0.620946 -0.589372 0.171166
H 1.61221 3.88047 0.09482 -0.294856 -0.06961 -0.074628
H 10.0733 3.60912 4.95107 0.194217 0.361116 -0.607786
H 6.15233 1.6264 2.72086 0.637828 0.575457 -0.860218
H 7.03312 8.49184 1.13355 -0.136262 0.962337 -0.175475
H 6.32019 6.6421 10.0181 0.205474 0.171673 -0.07139
H 8.40488 2.77491 2.18348 0.171288 0.886175 -0.938793
H 12.0581 6.64686 11.2306 0.464958 0.589814 -0.059572
H 3.98403 4.11045 3.74994 -0.746398 0.102977 -0.811636
H 8.7934 5.79109 9.86805 1.083676 -0.359589 0.684411
H 7.75897 9.17716 2.27763 0.051298 0.317961 0.582927
H 1.34839 0.38305 9.14136 -0.021254 0.526175 0.74184
H 7.22876 10.5572 0.68022 -0.248085 0.705341 -0.795055
H 0.88914 9.00026 10.7539 -1.009268 -0.840381 0.14162
H 9.60489 6.3365 0.18741 0.270335 -0.028146 -0.267889
H 2.28419 9.17364 3.07615 -0.320349 -0.292306 -0.246803
H 8.11776 11.0567 5.52783 0.236726 -1.023633 0.027826
H 7.17473 7.25098 6.11579 0.806421 -1.227036 0.109008
H 11.5423 5.34246 7.0315 0.806956 -0.213934 0.0389
H 10.4584 3.47991 1.55897 -0.378539 0.000391 0.029994
H 2.16272 2.90945 4.15194 0.005749 0.443456 -0.406437
H 11.1176 12.2472 9.60867 0.384227 0.069555 0.041872
H 3.01262 6.22493 0.99803 0.500426 0.802988 -0.334508
H 1.42191 4.70961 1.29967 -0.038635 0.616936 0.470707
H 9.57488 5.69773 3.75533 0.635947 -0.861584 0.508996
H 2.75737 4.25567 10.4146 -0.025755 -0.72895 -1.230765
H 12.0638 3.57554 1.78224 -0.741009 -0.423435 -0.103981
H 6.69712 11.9699 12.3225 0.659969 -1.659825 -0.22976
H 2.99292 9.01243 12.3686 -0.966849 0.651047 0.092488
H 7.63129 9.23629 6.10624 0.954042 0.424649 0.415054
H 11.5057 8.57281 9.22078 -0.158844 0.319695 -0.21372
H 3.64998 6.80774 11.4275 -0.027078 0.032434 0.109575
H 12.2807 2.30534 6.9771 -0.761936 2.221853 0.024459
H 5.56157 1.65037 10.5905 -0.075279 -0.080469 0.353774
H 4.75115 7.42168 8.62164 -0.754342 0.474327 -0.826321
H 6.07553 4.63035 0.11008 -0.768552 -0.241537 0.172465
H 2.83321 12.1184 10.2916 -0.584749 0.810965 -0.239128
H 4.14787 7.53568 3.69246 -0.942643 0.191664 -0.367404
H 6.61703 6.15864 0.9235 0.100351 -0.810374 1.060719
H 6.26943 6.33 2.91991 0.119383 0.353843 -0.523899
H 2.57089 6.48659 2.53316 0.244459 0.26691 -0.266347
H 3.63874 4.25326 11.7384 -0.413095 0.40011 -0.593157
H 5.81003 3.1847 10.5133 -0.445415 -0.52596 -0.036847
H 2.92836 7.6351 4.6756 -0.121845 -0.320972 -0.533367
H 9.30623 11.7747 9.43354 -1.070142 -1.484544 -0.27158
H 2.02777 9.94274 0.86258 0.354476 -0.425025 -0.903099
H 8.16055 5.64819 2.95708 0.328015 0.203473 0.009983
H 4.78738 2.02163 2.47064 -1.949664 0.655816 0.350717
H 4.57599 12.37194 11.5045 0.497423 0.659478 0.269245
H 3.01244 6.59865 6.91716 0.659544 0.677273 0.994816
H 5.1744 1.02595 0.24855 -0.411862 0.151758 0.632488
H 11.699 0.77043 11.7544 -0.286419 0.088209 0.677772
H 10.3392 8.26853 0.49402 -1.651474 -1.557233 0.627697
H 10.8649 3.8364 3.50502 -0.548882 0.239912 1.130758
H 11.9394 0.54918 8.41132 -0.448536 -1.52756 0.556173
H 4.48866 10.7944 9.1766 -0.303638 0.030071 0.335218
H 8.89305 7.90115 3.68277 0.608065 -1.30414 -0.591094
H 6.15316 11.7417 7.5349 0.617138 0.325955 0.917543
H 5.1786 5.75203 9.57147 -0.230132 -0.292271 -0.227668
H 11.7611 0.91369 6.38332 -0.095826 0.375157 0.231937
H 7.4577 12.2929 6.10351 -0.323836 0.481113 0.880186
H 5.33746 3.43155 0.84072 0.368804 -0.093037 0.148465
H 11.2078 9.42131 1.18845 -0.639811 -0.8651 -1.453755
H 2.90842 4.3621 2.45677 1.092284 -0.821766 1.647771
H 1.00174 1.05279 10.5464 -0.072957 0.288172 -0.123258
H 5.00967 7.71693 7.1196 -0.821205 0.247859 0.325245
H 2.58146 11.7558 4.65479 0.530148 -0.254584 0.221311
H 4.84302 7.01236 12.359 -0.192077 0.215204 -0.129071
H 0.16274 2.10459 12.2704 -0.718454 -1.018419 -0.356734
H 1.70494 3.62762 8.36024 -2.146355 0.342351 -1.174052
H 1.60447 0.52475 4.66895 0.000752 -1.092747 -0.452476
H 0.86367 2.71275 5.1699 1.493113 -0.381325 -1.089773
H 7.6532 12.0463 8.19377 -2.034892 0.340195 -1.072173
H 10.8593 7.77123 8.06513 -0.039511 0.989409 0.324428
H 0.16895 5.39286 11.9921 0.57811 -0.385014 0.419322
H 4.70755 9.5546 8.22387 -0.13113 -0.046143 0.015127
H 8.99946 6.80304 1.4928 0.273709 -0.154062 0.673139
H 8.33783 10.4574 9.28243 -0.972444 -1.393112 1.443491
H 10.5425 5.36746 8.26616 0.628499 0.316729 -0.456887
H 7.26815 4.52507 6.42473 0.323855 -1.16623 -0.649183
O 8.17088 5.93519 6.99214 0.165252 0.125214 0.196365
O 10.8601 8.68227 8.47295 0.294934 -1.432311 -0.208202
O 11.8308 0.56313 3.17057 -2.622489 -0.302647 -1.152332
O 11.7846 5.83554 11.6786 -0.871793 0.061701 -0.304444
O 11.0172 10.2638 2.85355 0.15075 -0.936171 0.09056
O 2.41755 3.3121 8.85553 2.363228 -0.954764 1.567546
O 1.43106 2.31822 4.44602 -1.534319 -0.432907 1.262828
O 2.43221 5.95017 1.72594 -0.765859 -1.097838 0.716028
O 0.46236 4.61914 6.39352 -1.709205 -1.469302 -1.146143
O 4.49923 4.12125 7.46446 2.917643 0.408844 0.154719
O 1.65407 11.9227 4.4956 -0.109478 1.496852 0.420969
O 5.34899 3.97362 0.03809 0.098267 0.173474 -0.692415
O 2.79591 4.56923 11.3106 0.568911 0.141812 1.89207
O 6.42956 7.74321 5.78844 -1.336478 1.311661 -0.014701
O 8.55152 9.65191 6.14489 -0.830603 -1.557636 -0.336945
O 5.80935 2.372 9.96896 0.608257 0.944835 -0.306958
O 6.43068 6.54574 0.05919 1.904759 1.631347 -1.305898
O 6.93565 5.18501 2.18693 0.08274 -0.257884 0.39058
O 9.93787 12.3239 11.0257 -1.186145 1.403717 0.635384
O 9.12142 7.0824 0.5673 -0.304793 -0.190337 -0.323884
O 2.30753 9.74575 12.3182 0.80816 -0.366815 0.67505
O 12.2944 1.49515 11.5414 0.656732 0.968294 0.050031
O 3.15062 7.67777 3.71612 1.186302 0.080248 0.723206
O 4.2793 7.83053 7.79861 1.590142 -0.48098 0.038883
O 7.28449 11.1406 12.2589 -0.173095 1.16413 0.526178
O 1.70696 0.97298 9.84543 0.417002 -0.851631 -0.865867
O 8.55045 2.75061 11.2024 0.383906 -0.646003 -0.674849
O 5.36519 6.66251 9.82043 -0.136614 -0.289657 0.145113
O 7.98869 12.0035 5.35223 0.370303 1.192127 -1.329486
O 6.93192 3.70331 5.94389 -0.402559 1.27385 -0.100485
O 8.88091 8.85649 3.75821 -1.77637 0.55534 0.408966
O 9.00181 6.19412 3.17938 -0.948217 0.956067 -0.549438
O 3.50659 11.4543 10.4702 0.047541 -1.419735 2.005567
O 1.5937 9.77656 2.71745 0.299158 0.6309 0.878323
O 5.57753 1.93078 1.96806 1.141241 -0.829621 0.38907
O 10.5858 4.25493 4.42602 0.560683 -0.535007 -0.132267
O 8.68339 3.34707 1.39571 0.856815 -2.268508 0.451891
O 10.9256 5.8984 7.52539 -1.778804 0.254639 1.189329
O 6.80598 0.07045 7.69461 1.072526 -0.716387 0.339336
O 8.09396 6.42961 9.66155 -2.223138 -0.989968 -0.825786
O 7.06939 9.36126 10.3149 0.28949 0.106957 -0.319997
O 5.11067 10.3897 8.55145 0.424775 -0.331488 -0.482368
O 3.86785 7.18424 12.2944 0.112286 0.08413 -0.081279
O 3.26628 3.68704 3.14641 0.278432 0.843636 -0.230674
O 9.89938 4.78092 10.2407 0.008126 -0.45318 -0.442081
O 2.70043 6.1641 6.12925 -0.23089 -0.764587 -1.38505
O 0.97381 3.96337 0.85122 0.371159 -0.246562 -0.74782
O 7.00095 9.32205 1.67276 0.343666 -1.529404 -0.312877
O 5.9362 7.25555 3.22108 -0.774864 -0.457437 0.774325
O 0.04834 1.39836 6.90025 0.522929 -2.501857 -0.028319
O 11.7522 12.0667 8.89189 0.06326 1.342091 -0.923748
O 7.61334 2.0868 3.77441 0.202029 0.037304 0.347107
O 0.08202 8.42754 10.6398 -0.297434 1.077962 0.8052
O 10.642 12.0749 5.60129 0.664904 0.568164 -1.521831
O 10.974 8.93224 0.33348 2.218726 2.91875 0.588432
O 5.29595 0.62085 11.7881 0.028514 -0.981107 -0.705229
O 8.8321 11.1183 8.82932 1.603491 2.917557 -1.073695
O 5.08926 4.87558 4.85231 -1.389424 -1.514076 0.343525
O 11.1935 3.23622 2.14784 1.156774 -0.017208 0.144215
N 2.79873 1.37233 1.07228 -0.759682 -0.421678 0.631923
N 0.19792 6.93845 3.78791 -0.29406 -0.044781 -0.294044
N 1.56594 9.43341 6.12258 0.174053 -0.142464 -0.015556
N 9.2999 2.57597 7.67735 0.073319 -0.031156 0.0526
N 3.84033 0.56583 7.34898 0.988127 0.76699 -0.120012
N 0.60845 9.81927 6.50945 -0.233553 0.072509 0.04486
N 8.24839 2.51625 8.00919 0.515861 0.091803 0.031127
N 11.9938 6.78748 2.87197 0.238388 0.053933 0.308279
N 2.89886 0.00323 7.36107 -0.973091 -0.653446 0.027943
N 2.07635 0.91789 1.78459 0.734524 0.381962 -0.78037
N 4.93898 11.0344 3.4321 1.043842 0.312235 4.076333
N 4.65171 10.9574 2.39306 -1.106834 -0.257837 -4.036646
Na 5.9577 2.41293 7.67869 -0.167391 -0.183444 0.027291
Na 10.4814 10.5815 7.32739 0.06424 -0.257386 0.209919
189
energy=-1065.3227747 config_type=nep2xyz pbc="T T T" virial="-9.759886727594434 3.465174867658988 2.2839837148765882 3.465174867658988 -8.426646577662176 -2.6735609254655324 2.2839837148765882 -2.6735609254655324 -4.977215689280738" Lattice="12.4 0.0 0.0 0.0 12.4 0.0 0.0 0.0 12.4" volume=1906.6240000000003 Properties=species:S:1:pos:R:3:force:R:3
H 8.22551 3.04134 11.1913 -1.860233 -0.139957 -0.229842
H 10.8488 9.86005 1.84755 -0.780204 0.618461 -0.291892
H 8.89428 3.73287 2.35053 -0.06718 0.104668 0.508827
H 9.44461 3.64808 11.8011 0.306953 -0.372094 -0.42363
H 1.39957 10.4102 3.09741 -0.111662 0.549399 0.262248
H 6.29541 8.19916 3.65339 0.7146 0.527974 -0.708622
H 10.1533 0.25653 4.93904 -1.098067 -0.072601 -0.471003
H 6.91913 6.32216 0.02316 -0.938318 -0.162829 0.566256
H 6.31252 7.93217 6.10048 0.289047 0.374872 0.505904
H 8.26954 10.0838 9.27974 0.257679 0.063419 -0.043744
H 11.5315 12.1154 5.18254 0.947377 -0.430328 -0.469717
H 0.70101 4.01314 6.07555 -0.065947 0.026766 -0.141019
H 2.05473 2.72024 8.90524 0.38429 1.849821 -0.07052
H 10.1983 12.0005 1.60754 -0.246606 0.510345 -0.536422
H 3.98604 11.4734 10.0141 0.69036 -0.005449 0.552973
H 1.65843 5.26937 6.39931 0.875389 0.913784 -0.877651
H 3.4696 5.71188 5.94792 0.194443 -0.343433 -0.675394
H 8.88843 9.23748 5.24909 -0.289488 -0.342276 0.266852
H 10.0691 8.66673 3.28616 0.260764 -0.295967 -0.364214
H 12.1699 5.06733 10.6384 0.368122 0.568027 1.455225
H 7.26713 0.54819 4.08341 0.525222 0.286595 -0.631542
H 9.37674 6.49435 7.33595 0.798144 0.072618 0.392933
H 4.90668 4.58078 6.71136 -0.051743 -0.40625 0.854372
H 12.2798 9.61594 10.6378 -0.037178 0.472204 -0.119501
H 8.87023 8.59998 9.21287 -0.061644 0.661094 -0.184975
H 8.1005 5.67674 7.99392 0.872702 0.131278 -0.665719
H 12.2348 9.33547 2.33626 -0.641593 -0.986853 -0.380576
H 4.81091 5.07526 4.73605 0.404211 0.344638 -0.71394
H 8.94596 11.0744 1.23885 -1.03846 0.374738 -1.311024
H 9.40996 1.18088 11.0478 0.157456 0.062723 -0.305749
H 6.19312 4.52429 2.75291 -0.713561 -1.372556 -0.084455
H 0.29374 4.76154 9.25112 1.454106 -0.555927 -0.688068
H 7.05175 2.01403 4.55346 -0.269574 0.103014 -0.27344
H 4.01872 4.00448 7.81084 0.3667 0.29544 0.66279
H 9.00842 12.1104 11.3384 -0.0531 -0.316921 0.223883
H 8.71227 7.15473 10.7191 -0.626676 -1.331825 1.606945
H 5.9695 3.6028 5.50981 -0.024021 0.05464 0.155204
H 1.56216 5.27964 11.824 1.183725 0.357655 -0.190061
H 9.34447 4.78626 5.8913 -0.244971 0.304681 0.329389
H 5.51108 1.67122 2.83792 0.451311 0.256868 0.811545
H 6.97774 8.18933 1.13404 -0.277964 -1.121319 -0.503595
H 7.5577 5.75086 9.98888 0.005323 -0.551469 0.273059
H 8.24838 2.2472 2.71539 0.060225 0.646979 0.098011
H 11.2695 8.11185 0.665 0.048427 -0.798855 0.136623
H 3.45051 3.76906 4.22156 0.315215 -0.143596 0.566056
H 9.07325 5.87086 11.751 -0.280704 0.696736 -0.382187
H 8.11089 8.69104 2.08664 0.722432 -0.509256 0.626155
H 0.79508 0.77086 9.31165 0.968136 0.091467 -0.458337
H 7.3853 10.5512 12.3259 -0.184096 -0.456105 0.098861
H 1.3386 9.48838 10.7775 0.643473 -0.224422 0.238405
H 10.8071 5.80972 0.33416 -0.368227 0.43226 0.465018
H 2.1076 8.98507 2.93836 -0.309711 0.213887 0.001299
H 8.3346 11.1062 4.94394 0.075564 -0.599558 0.021291
H 7.21192 7.29567 7.19177 -0.351945 1.346425 -0.492094
H 11.9694 6.03085 7.19254 -1.271217 0.977063 0.64429
H 10.0101 1.85804 1.6216 0.738757 0.370522 -0.197522
H 1.27603 2.5548 2.96584 -0.649894 -0.717472 0.994782
H 0.15444 11.1549 9.45006 0.475959 0.6259 -0.860708
H 3.27785 5.54622 1.3935 0.369813 0.166593 0.420875
H 0.84078 5.53527 0.77816 0.389223 0.335257 0.49904
H 9.25313 4.87591 3.88967 -0.082998 0.24814 -0.488506
H 2.8052 4.61323 10.0947 0.932326 -0.171742 0.858978
H 11.1827 1.63002 0.47972 -0.611398 -0.117036 0.852879
H 6.90046 12.0313 12.0937 0.083291 -0.15724 0.448408
H 2.55071 8.12596 12.0307 0.304626 0.563297 0.776687
H 7.94863 9.3246 6.49618 -1.930262 -1.616438 0.986531
H 11.5004 9.38433 9.10622 0.135718 -0.129414 -0.064482
H 3.55477 6.75248 11.1303 0.604316 0.310046 -0.004167
H 11.8629 2.54982 4.57641 0.542891 -0.009629 -0.746386
H 5.77776 2.12886 11.1605 -0.562314 -1.775895 2.418715
H 3.99258 6.55164 8.64452 -0.085624 1.213535 -0.362084
H 5.25589 4.84029 0.41556 -0.315285 -0.026609 0.162299
H 3.13107 0.285 9.79504 -0.746898 0.952445 0.119013
H 4.2675 7.79715 3.75026 -0.614532 0.382191 -0.155413
H 6.32365 6.08001 1.62292 -0.3067 -0.685167 -0.925427
H 6.03504 6.64893 3.9252 0.089381 1.160924 -0.002104
H 2.96888 6.63576 2.63985 0.125105 -0.373301 -0.916516
H 3.56486 4.4482 11.6279 0.196044 -0.220746 -0.145074
H 5.51014 3.41357 10.3961 0.741109 -0.901448 0.067067
H 2.97625 7.43176 4.41257 -0.652212 -0.402937 1.297775
H 8.67645 12.1157 9.39947 -0.029663 -0.06174 0.297271
H 1.65438 9.19222 0.55698 0.678523 0.010203 0.65581
H 7.91899 5.31798 3.08873 0.519189 0.398389 -0.173429
H 4.09825 2.47484 2.71014 -0.014567 -0.016672 0.304492
H 4.78458 0.80005 11.7952 0.62822 -0.527803 0.840345
H 3.17758 6.85243 6.89455 -0.056281 0.69222 -0.313492
H 5.52237 1.17561 0.84863 -0.557168 -0.484145 -1.704663
H 0.2332 3.53591 11.6987 -0.061777 -0.137963 0.424917
H 9.68845 9.69536 10.7116 0.270906 0.629758 0.269986
H 10.306 3.61392 5.31476 -1.705753 0.860478 -0.223113
H 11.3825 12.0802 9.60831 1.18453 0.312398 -1.381652
H 4.5951 8.92758 10.2804 -0.205264 -1.175275 0.772509
H 9.2847 7.29463 3.52131 -0.187344 1.434134 0.060402
H 5.16866 0.36953 8.78514 -0.036154 -0.003743 -0.476714
H 6.34323 5.27916 9.06276 -1.171416 0.111497 -0.315522
H 11.3533 1.87666 5.83543 0.073985 -0.039494 0.040614
H 8.76848 11.4548 3.40918 -0.210898 -0.031704 0.381351
H 4.63485 3.49236 1.04564 0.336678 -0.611103 0.574708
H 10.6147 9.00021 11.6274 0.410035 -0.28489 0.468895
H 2.64027 4.44357 3.12293 0.007139 -0.44529 -0.460655
H 1.14251 1.71816 10.385 0.078247 0.697675 0.768494
H 4.62947 7.9599 8.54277 0.470104 0.372028 -0.289774
H 1.42081 11.7517 4.58078 -0.407923 0.192261 -0.277151
H 4.61856 7.13128 12.1378 0.407877 0.275961 0.163315
H 11.6454 2.979 10.6273 0.585188 -0.252353 0.84985
H 1.71387 3.99076 7.96901 0.18132 0.126163 -0.209463
H 0.44241 0.17873 3.66237 0.7902 -0.618513 0.069034
H 0.09308 1.8547 2.25434 -1.139728 -0.203125 -0.538958
H 5.63414 0.24042 7.21772 -0.639317 -0.377505 -0.303367
H 11.2992 8.20818 8.13809 0.143591 -0.653875 -0.482976
H 0.01437 7.81148 12.2054 1.178973 -0.332986 -0.357871
H 5.86045 9.64449 9.66626 -0.334473 -0.220917 0.306843
H 9.43284 5.39696 1.14915 0.276835 0.400985 1.600744
H 7.38991 11.8384 8.46271 1.175943 -0.164492 0.369445
H 11.3762 6.09294 8.62017 -0.320293 0.519546 -1.027799
H 7.57362 3.46393 5.88361 0.183884 0.524964 -0.602997
O 8.60516 5.96188 7.14655 -1.561816 -0.463047 0.178267
O 11.0134 9.11483 8.32239 -0.493134 0.573008 0.056619
O 9.69108 11.1927 1.80255 1.295127 -0.399062 2.043171
O 11.522 7.47064 12.3241 -1.082514 0.706343 0.507184
O 11.3089 9.02755 2.02051 1.158828 0.356769 0.680292
O 2.30129 3.7315 8.71948 -0.453923 -1.955829 0.634112
O 0.45989 1.98185 3.13026 1.533357 0.746841 0.189956
O 2.64917 5.8832 2.0528 -0.677069 -0.11274 0.273079
O 1.00786 4.6559 6.73259 -1.454122 -0.520802 0.68441
O 4.89564 4.45101 7.74292 -0.403371 0.012625 -0.665254
O 0.65716 11.6481 3.98155 -0.306747 1.254171 0.470319
O 4.45702 4.23324 0.46784 0.016698 0.383756 -0.224145
O 3.36056 5.01152 10.8427 -1.415734 0.643321 -1.50117
O 6.73628 8.16361 6.97281 0.02559 -1.691199 -0.13199
O 8.624 9.77077 6.03228 2.561221 1.837731 -1.502011
O 6.08448 2.60285 10.4322 0.267443 3.089224 -2.798431
O 6.08019 6.20094 0.56381 1.307421 0.69118 0.314307
O 6.46036 5.40377 2.94299 0.361513 1.99939 0.291684
O 9.51928 0.26351 10.7125 0.109368 0.446392 -0.227286
O 9.99026 5.26932 0.38535 0.269262 -0.937139 -1.705501
O 1.67131 8.50147 12.2912 -0.824613 -0.234275 -1.104678
O 12.2497 2.70118 11.362 -0.571351 -0.190318 -0.801165
O 3.26152 7.86085 3.60871 1.369629 0.213708 -0.547529
O 3.82323 7.48918 8.33316 -0.381453 -1.962561 0.636888
O 7.68791 11.4591 12.2694 0.035345 0.43339 -0.326007
O 1.57689 1.35447 9.6004 -0.895546 -0.891302 -0.358507
O 9.15806 3.04513 11.0754 1.517551 0.329428 0.665548
O 7.27009 5.17053 9.23446 0.791343 -0.074744 -0.164097
O 8.3338 11.7772 4.24017 0.518912 0.091066 -0.336179
O 6.69986 3.05641 5.93952 0.16352 -0.606775 -0.009982
O 9.21801 8.30829 3.60073 -0.29684 -1.353032 0.179937
O 8.96941 5.35247 3.04224 -0.502293 0.227456 -0.176633
O 3.98201 0.04158 10.1763 0.314619 -0.870695 -0.680514
O 1.37748 9.57546 2.62734 0.53773 -1.037672 -0.675357
O 4.89125 2.12452 2.25031 -0.320707 0.096867 -0.919274
O 9.39009 4.12708 5.17749 1.804273 -1.394951 0.855519
O 8.93271 2.76725 2.22534 -0.243639 -0.999696 -0.461299
O 11.2618 6.54589 7.71428 1.635624 -1.488235 0.398037
O 5.82942 0.59642 8.07819 0.646086 0.13937 0.948514
O 8.32334 6.39603 11.2643 0.730903 1.267146 -1.131331
O 8.46436 9.25657 9.80519 -0.395724 -1.277737 0.158027
O 4.95298 9.75816 9.99475 0.581175 1.479555 -0.839639
O 4.01188 7.56314 11.503 -0.703045 -0.906525 -0.359904
O 2.80543 3.53754 3.49323 -0.54906 0.190471 -0.617053
O 11.914 4.96105 9.73641 -1.721972 0.215641 -0.702723
O 2.89353 6.5016 6.01687 -0.116882 -0.425474 0.510252
O 0.79323 5.06871 12.344 -1.125475 -0.821309 -0.550868
O 7.32363 8.93177 1.602 -0.582266 1.588052 0.01834
O 5.86499 7.62078 4.27303 -0.635038 -1.893742 0.289622
O 11.6508 2.74593 5.50179 -0.262833 0.19705 0.305935
O 12.1526 11.9434 8.93617 -2.047638 -0.694734 2.386004
O 7.08462 1.46153 3.73428 -0.661666 0.06385 0.478816
O 0.70018 9.80621 10.1189 -0.977784 -0.11369 0.390537
O 10.7977 0.13191 5.63436 0.090475 0.157974 0.910184
O 10.4597 9.90713 11.3268 -0.199706 -0.399425 -0.705961
O 5.63461 0.79293 12.3109 -0.567771 0.65249 0.783454
O 8.29099 11.4834 8.73205 -1.149614 0.905071 -1.028307
O 4.49024 4.31386 5.21364 0.285142 0.07454 0.795381
O 10.8557 1.35192 1.37469 0.364162 -0.348828 -0.922725
N 2.33303 0.71804 0.93399 0.095491 -0.543831 0.004605
N 11.5043 6.58451 4.56281 -1.069888 1.721238 1.634738
N 1.35296 9.49711 7.13702 0.074137 -0.16156 -0.042173
N 10.5411 2.29393 8.2696 -1.098731 -0.080905 -0.325071
N 2.41709 1.15276 5.49699 -0.13505 0.351818 1.124457
N 1.86616 10.4049 6.77419 0.015301 0.10132 -0.053889
N 9.48851 2.22279 7.92132 0.962262 0.142477 0.444329
N 11.9954 5.8747 3.89871 1.234878 -1.729308 -1.663367
N 2.19263 1.49908 6.5295 0.241314 -0.292797 -1.102753
N 2.56051 12.0348 0.98735 -0.105561 0.516266 -0.096888
N 4.21649 11.1622 3.79772 1.108451 -0.759898 1.582162
N 4.82674 10.7642 4.64587 -1.087334 0.785402 -1.559651
Na 6.71163 2.6638 8.12388 -0.318322 0.355319 0.423478
Na 10.38 10.9621 7.29351 -0.379013 -0.093413 0.021578
189
energy=-1064.99723365 config_type=nep2xyz pbc="T T T" virial="-2.931759805575143 -5.970764313530698 -3.789098613641548 -5.970764313530698 10.333929110353683 1.941543240431543 -3.789098613641548 1.941543240431543 12.79897453702765" Lattice="12.4 0.0 0.0 0.0 12.4 0.0 0.0 0.0 12.4" volume=1906.6240000000003 Properties=species:S:1:pos:R:3:force:R:3
H 8.19647 3.0056 11.5177 -1.045417 0.07628 -0.542969
H 11.1875 10.1612 2.51692 0.158654 0.76332 -0.433706
H 9.36139 4.37376 2.47195 -0.087395 1.141115 0.32009
H 9.13389 3.23066 0.34615 0.015936 -0.001482 -0.330616
H 1.71493 10.4823 3.25133 -0.331652 1.465075 1.503169
H 6.14922 8.47344 3.55436 0.96669 1.123618 -0.853825
H 10.539 12.1319 5.52821 -0.094519 0.171574 0.027011
H 6.65845 7.32613 12.2228 0.419803 -0.132062 -0.669983
H 6.44698 7.79889 5.81981 0.300693 -0.234389 -0.412307
H 8.30912 10.0597 10.252 -0.979098 -1.263813 -0.912234
H 12.0427 11.961 5.54442 -0.43761 0.182483 0.242666
H 0.1844 3.92221 6.63866 -0.35013 0.201289 -0.074264
H 1.99176 3.19439 9.04006 0.053784 -1.397223 0.640625
H 10.7447 0.07655 1.73844 -0.966414 -0.999715 -0.453012
H 2.87787 11.3664 10.246 -0.256093 -1.345752 -0.050404
H 1.20841 5.06019 6.46656 0.797193 0.603103 -0.645319
H 3.42373 5.34759 5.48444 0.388749 -0.760202 -0.067027
H 9.17838 9.52458 5.32867 -0.484199 -0.039351 1.034451
H 10.0693 8.60195 3.41044 0.345842 -0.394958 0.064874
H 11.2596 7.09851 11.7045 0.654353 -0.379823 0.345621
H 7.98883 0.75827 3.0452 0.413465 -0.881484 0.350817
H 9.53583 6.29625 7.49092 -0.219352 -0.408786 -0.345763
H 4.77564 4.12378 6.86412 0.239056 0.425662 -1.121627
H 1.14155 9.5406 10.7974 -0.501372 -0.213517 0.490311
H 7.8283 9.79545 8.81395 0.112128 -0.388863 0.447617
H 8.08822 5.6034 7.57927 -0.299721 -0.913708 0.815345
H 0.09772 9.36624 2.90529 0.615538 0.307369 -0.110322
H 5.30209 5.37335 5.00428 -0.114128 -0.388785 0.183898
H 9.51986 11.341 1.37652 -0.086641 1.059009 -0.269124
H 9.38713 1.35716 11.6074 -0.35125 1.092537 0.277534
H 5.57254 5.12451 3.02711 -0.390283 -0.646163 0.054698
H 10.281 7.82775 10.93 -0.366897 0.592417 -0.397871
H 7.25114 1.82401 3.79676 -0.425042 0.846381 2.345057
H 3.88755 4.1781 8.05692 -1.882789 0.323724 1.077869
H 9.23267 12.201 11.7999 -0.037926 0.184442 -0.116867
H 7.79438 7.57579 10.2089 -0.359708 -0.269293 0.141818
H 6.09468 3.38148 5.31562 0.207134 0.297379 0.228035
H 1.79286 5.16871 11.8673 -0.913159 -1.162595 -1.072275
H 9.13366 4.58728 5.86357 0.318348 0.556645 0.585326
H 5.82718 1.79879 2.11153 0.414001 -0.448944 0.425085
H 6.76215 8.57036 1.62722 0.102162 -0.290083 -0.590136
H 7.30162 5.58461 9.2455 -0.850572 0.997539 1.252598
H 9.0918 2.90587 2.67159 -0.330222 -0.435938 0.095067
H 12.2479 7.20906 1.82829 -0.835151 -0.139202 2.780213
H 4.11892 3.85309 4.09165 -0.577939 0.342603 -0.204287
H 7.97963 6.30574 11.1226 1.066319 -0.383892 0.721545
H 7.99546 8.67779 2.6769 0.314116 0.165265 0.175607
H 0.76232 0.90197 9.73305 -1.249818 -1.093379 -0.933893
H 7.47702 10.5602 1.32929 0.234064 0.334252 -1.141786
H 1.24063 9.64888 9.30571 0.755249 -0.163842 -1.231424
H 9.60067 6.1489 0.98541 -0.14695 -0.0274 0.111033
H 2.33512 9.01452 3.10004 0.255558 -0.534938 0.588958
H 8.68601 11.3386 4.79011 0.49432 1.101481 -0.64801
H 7.68775 7.18249 6.75832 -0.691 0.995967 -0.788931
H 11.7059 5.74655 7.85482 0.668662 -0.588599 -0.529993
H 11.063 2.51395 1.53332 0.08252 -0.466765 0.536443
H 1.74964 2.6857 3.14861 -0.877584 -1.313629 0.847832
H 12.0516 11.4904 9.92456 -0.264806 0.661294 -0.402618
H 2.70389 5.47493 0.74748 0.199268 -0.327967 -0.950009
H 0.51316 5.60614 0.07871 -0.691456 -0.474067 -0.145579
H 8.58955 5.17624 3.96991 -0.375286 -0.516328 0.70911
H 3.18501 4.77235 10.3121 -0.382674 -0.414601 -0.815694
H 12.2246 1.87183 0.79417 -0.362682 -0.042608 -0.260687
H 6.78805 11.4571 0.20605 0.845173 0.034347 -0.095967
H 2.59004 8.45042 12.0096 -0.050577 -0.139102 0.18095
H 7.98045 9.34035 6.27 -0.007044 -0.403839 0.158076
H 11.5201 9.30827 8.95469 0.054315 -0.268715 0.110851
H 3.61706 6.85357 11.0496 -0.071483 -1.482518 -0.311398
H 12.3091 2.59941 4.63976 -0.276358 -0.393235 0.408653
H 6.1197 1.58454 10.7164 0.662087 0.43006 -0.330973
H 5.07766 7.47512 7.31555 1.433626 -0.039822 -0.045527
H 5.72929 4.55336 0.85565 -0.004018 0.323906 0.128307
H 2.89356 0.41638 10.0594 -1.758885 2.537828 -0.043085
H 4.02382 7.88513 3.73191 -1.260503 -0.78287 -0.574698
H 6.04855 6.79648 1.16911 -0.376764 -0.06039 0.084658
H 5.86118 6.88883 3.41756 -0.293235 0.985933 -0.187224
H 3.0356 6.40673 1.87215 0.371999 1.268922 0.954723
H 4.21578 4.69185 11.5262 0.114448 -0.049554 0.041901
H 6.21241 3.06545 10.8729 -0.284117 1.152747 0.477339
H 2.88774 6.90296 4.17746 -0.440953 -0.021895 0.265367
H 8.47122 0.08948 9.57926 0.274788 0.983734 1.594157
H 1.93707 9.50657 0.6622 -0.08429 -0.690174 -0.344031
H 7.58437 6.0031 2.97608 -0.685368 -0.864202 0.239919
H 4.41287 2.48193 2.53598 0.547482 -0.796067 -1.597656
H 4.67814 12.2828 11.0946 0.872699 0.620846 0.590513
H 2.88089 6.38476 6.43807 0.43863 0.794746 0.583467
H 5.20094 0.53235 0.04547 -0.613345 0.68484 1.368642
H 0.14985 3.62033 11.5861 -0.555634 -1.14181 0.051439
H 9.50383 9.8286 0.03384 -0.272145 0.187288 0.67843
H 9.99832 3.35507 5.27615 -0.365945 0.661734 -0.05978
H 10.8885 0.11966 10.1668 -0.201803 0.302512 0.645849
H 4.12247 8.8769 9.92114 -0.049243 -0.319119 0.414036
H 9.0895 7.34476 3.79812 0.236585 0.541476 -0.198699
H 4.81473 12.184 8.66488 1.427699 0.468922 -0.43547
H 6.32483 4.64902 8.23659 0.832748 1.220112 1.325227
H 11.4823 1.80874 5.71394 -0.247166 -3.325774 1.130576
H 9.55379 11.6539 3.51972 0.598035 -0.391241 -0.901642
H 5.41465 3.08884 0.72714 -0.802858 -1.539532 0.933834
H 11.0185 10.0207 12.0715 1.732269 0.695349 1.163338
H 3.19973 4.22095 2.77135 0.537225 -0.107178 0.224151
H 1.18608 1.85253 10.687 -0.336634 1.032218 1.104326
H 3.88694 8.3198 7.78183 0.074828 -0.689744 -0.163658
H 1.3942 11.8256 5.12743 1.041805 -0.27959 1.108574
H 4.56888 7.70286 11.9362 -0.189167 -0.027762 0.083821
H 11.3372 2.48411 11.2024 1.001542 0.547211 0.436445
H 1.48116 4.30755 8.22228 -0.327054 0.83749 -0.386365
H 1.1041 0.38699 3.97811 -0.161781 -0.46545 0.011177
H 0.31246 1.9411 2.76485 0.42984 0.192441 -0.074357
H 5.47043 11.7775 7.33507 0.37413 0.388247 -0.020366
H 10.9244 8.53786 7.72646 -0.097928 0.85974 0.727913
H 0.7154 7.84176 0.78531 -1.084361 -0.859056 -0.763251
H 4.61112 9.93902 8.90734 0.51748 0.203492 0.064623
H 8.24969 5.37641 1.08716 -0.140796 -0.025719 0.520386
H 7.28186 12.0827 8.64667 0.094288 0.009189 0.156793
H 11.1945 6.63082 8.99446 0.057433 0.379417 2.600578
H 7.66328 3.17862 5.73897 -0.437322 -0.05879 -0.741881
O 8.73247 6.00535 6.96961 1.081698 0.987126 -0.964275
O 10.8812 9.39026 8.22991 0.178041 -0.810011 -0.493049
O 10.3539 11.5487 1.82153 0.934169 0.45402 0.64309
O 12.3486 7.16807 0.91485 1.737426 0.692847 -2.56622
O 11.5394 9.34325 2.87226 -0.765688 -0.970293 0.400321
O 2.19697 4.10181 8.85633 0.703703 0.400005 0.210955
O 1.03562 2.02513 3.45405 0.724165 0.874703 -0.322622
O 2.82121 5.50511 1.68189 -0.302026 -0.925562 0.470053
O 0.48008 4.76669 7.0337 -0.536847 -0.993597 0.135647
O 4.78256 3.9969 7.83218 1.616573 -0.603042 -0.34332
O 0.93037 11.8501 4.31053 -0.442285 0.809452 -1.164549
O 5.51578 3.87269 0.1897 0.49796 1.745162 -1.412514
O 3.54676 5.24538 11.0637 0.050574 -0.161823 0.799684
O 7.02485 7.9629 6.58357 0.141484 -0.519606 0.772348
O 8.76835 9.91668 6.15384 0.591694 0.45303 -1.38029
O 6.55398 2.39513 10.2867 -0.444434 -1.662898 0.078239
O 6.08154 7.574 0.5494 -0.783256 -0.168104 0.278191
O 6.00722 5.7414 2.44358 0.942713 0.621076 -0.336828
O 9.60311 0.49373 11.2264 0.135896 -1.77073 -0.467405
O 8.82757 5.85248 0.49366 -0.049303 0.27769 -0.98541
O 1.73049 8.86555 12.3345 -0.1639 1.140027 0.667068
O 12.2467 2.62495 11.5623 -0.347008 0.247868 -0.194474
O 3.04923 7.578 3.49497 1.828275 0.729444 0.303987
O 4.13348 7.49744 7.29982 -1.563038 0.642386 0.326672
O 7.67661 11.1643 0.52062 -0.541529 -0.550937 1.088916
O 1.55571 1.38078 9.94269 1.354421 0.428722 -0.453585
O 9.08867 2.89956 11.8203 1.076104 0.096802 1.011964
O 7.24159 4.87689 8.61163 -0.917666 -2.224025 -2.027221
O 9.08632 12.0867 4.23005 -0.92629 -0.880732 1.859645
O 6.78648 2.73515 5.61144 -0.052986 -0.494906 0.601142
O 9.19515 8.33878 3.76006 -0.177949 -0.048806 0.24405
O 8.50657 5.86983 3.31268 1.039448 0.586459 -0.526397
O 3.4625 12.077 10.029 2.320945 -1.18782 -0.298308
O 1.97156 9.8027 2.6658 -0.134003 -0.890759 -2.23929
O 4.92681 1.91681 1.78154 -0.928102 0.817951 0.998046
O 9.1377 3.86114 5.22034 0.401809 -0.606382 -0.295395
O 9.6282 3.5162 2.15253 0.314805 -0.976137 -0.639159
O 11.1245 6.47112 8.0814 -0.993148 0.619404 -1.868488
O 5.66538 12.3349 8.11035 -2.189275 -0.650636 0.564037
O 7.38071 6.7302 10.517 -0.373103 0.923812 -0.67247
O 7.76481 9.40869 9.7082 0.846665 0.99768 0.661126
O 3.82725 9.55204 9.29174 -0.558696 -0.214851 -0.336611
O 3.72514 7.72695 11.418 1.193392 1.833907 0.261905
O 3.51313 3.47876 3.34621 -0.142552 -0.300729 -0.30395
O 10.8327 7.04704 10.8425 -0.131729 -0.046534 -0.115246
O 2.58909 5.8131 5.72845 -0.769028 -0.163207 -0.439406
O 0.84161 4.86368 11.905 1.342143 2.122473 0.865742
O 7.26818 9.15827 2.2181 -0.088152 0.900968 0.430269
O 5.65895 7.77507 3.95454 -0.980324 -1.815769 1.163954
O 11.6235 2.64115 5.3627 0.583319 3.568348 -1.226726
O 11.6361 12.3252 9.56943 0.760765 -1.182063 0.125995
O 7.37624 1.47954 2.94034 0.11174 0.354654 -2.285774
O 0.62321 9.80386 10.0014 -0.258633 0.463348 0.858807
O 11.3013 12.2309 6.14062 -0.046024 -0.045114 -0.639737
O 10.1889 9.72841 11.784 -1.729372 -1.000703 -2.008934
O 5.48473 0.27266 11.583 -0.222177 -1.072606 -1.574179
O 8.23478 11.9739 8.82907 -0.019422 -0.56307 -1.513972
O 4.81367 4.55532 5.21295 0.562474 0.221812 -0.007674
O 11.669 1.73319 1.59737 -0.345932 0.31194 -0.267859
N 1.05245 11.8729 0.01396 -0.873147 -0.431033 -0.615692
N 12.1038 5.59902 3.45815 1.585704 -1.107589 0.479379
N 0.34404 7.91604 5.38486 -0.477797 0.015916 -0.974328
N 10.366 2.45231 9.13017 -0.519018 -0.689439 0.438681
N 3.06428 0.44593 6.34448 -0.134258 0.587179 0.024366
N 0.80113 7.94459 6.38237 0.443642 0.176141 1.00735
N 10.8233 3.24108 8.5186 0.387588 0.757037 -0.626771
N 0.60228 4.99471 3.73598 -1.706205 1.054002 -0.495708
N 2.81218 1.51497 6.19631 0.146471 -0.380944 0.108306
N 1.82229 12.3057 0.6667 0.821099 0.479537 0.706305
N 5.31847 11.1969 3.7401 0.693414 0.283489 -0.967787
N 4.66375 10.9578 4.58792 -0.64231 -0.294559 0.919789
Na 6.23098 2.37035 8.03843 0.275297 -0.230446 -0.083719
Na 10.2707 11.4684 8.00358 -0.220054 -0.290229 -0.56146
189
energy=-1064.83041236 config_type=nep2xyz pbc="T T T" virial="-6.930873344606118 -5.215993424884709 1.5882735738908274 -5.215993424884709 -11.962901406186477 3.812910936040927 1.5882735738908274 3.812910936040927 -9.147263860467977" Lattice="12.4 0.0 0.0 0.0 12.4 0.0 0.0 0.0 12.4" volume=1906.6240000000003 Properties=species:S:1:pos:R:3:force:R:3
H 8.54745 2.57025 11.0984 0.279543 -0.210459 0.621836
H 11.1248 10.3647 2.10369 -0.292707 1.983682 -0.63682
H 8.60858 3.9638 2.18622 0.160008 0.661141 0.490984
H 9.28257 2.63833 0.12379 -0.469993 0.495291 -0.524499
H 1.5994 10.8179 3.25034 0.343958 -0.292282 0.034149
H 5.83167 8.52797 3.80456 -0.235561 -0.66176 1.059951
H 10.3546 11.7595 5.20842 -0.65909 0.080405 -0.709283
H 6.62236 6.93365 12.2724 -1.044228 0.687874 0.671248
H 6.27394 8.20274 5.95652 -0.365777 -0.441093 -0.478804
H 8.10426 9.6412 9.43433 -0.042025 -0.245907 -0.076932
H 11.9202 11.7515 4.92118 -0.510587 -0.070593 0.651594
H 12.0804 3.59051 6.51564 0.579145 0.923324 0.721642
H 1.88169 3.00742 9.23091 -0.68736 -0.240098 0.021105
H 10.7976 0.39461 1.80705 0.037399 -1.009075 0.182927
H 2.87055 11.0955 9.69416 0.858659 0.103222 0.110269
H 0.75607 4.8127 6.33316 -0.572684 -0.370122 0.721248
H 2.89881 5.08657 5.57165 -0.070973 -0.353281 -0.160921
H 9.01018 9.05831 5.05614 0.820585 -1.5031 -1.399424
H 10.0049 8.59313 2.94541 0.395218 0.178559 0.311748
H 12.37099 5.95942 11.19 0.035599 0.011641 0.77364
H 7.45773 0.93186 3.55546 0.138616 -0.191512 -0.994863
H 9.13316 6.33731 7.67863 0.552704 -0.066283 0.575323
H 4.35911 3.99944 6.90029 -0.389793 -0.307246 0.04132
H 11.7009 10.5806 11.5391 -0.317409 0.284008 -0.525604
H 9.03183 8.46154 9.56529 1.13516 0.007632 -0.59011
H 7.59859 5.96285 8.12691 1.605407 0.243893 -1.403338
H 0.07361 9.64975 2.66303 -1.475542 0.271037 -0.576788
H 4.89839 4.87875 4.87625 -0.416182 -0.288457 0.048165
H 9.70522 11.7654 1.37977 -0.530961 -0.049501 -0.609712
H 9.74996 1.00285 11.1007 -0.019175 1.000289 -0.021266
H 5.72413 4.92177 2.98838 0.504339 2.731502 -0.61536
H 0.5921 5.31874 9.97746 1.158659 -0.779347 -0.389274
H 6.8145 2.03954 4.28043 -0.260951 0.514589 -1.173795
H 3.45339 3.85274 8.2859 -0.061343 0.064597 -0.771011
H 9.09415 12.0729 11.3772 -0.300543 -0.62683 0.49354
H 8.40103 6.8602 10.7782 -0.63872 -0.537507 0.046547
H 5.87389 3.44734 5.45197 0.72465 -0.607433 0.500783
H 2.4081 5.00245 11.7482 1.882092 0.103586 -0.682977
H 9.16413 4.86108 6.30627 0.014021 0.144793 0.231359
H 5.74156 1.87316 2.24022 -0.491202 -0.297909 0.131093
H 6.7715 8.93517 1.36014 -0.576129 -0.05434 -0.328461
H 7.55043 4.99844 10.0626 -0.949786 -0.258001 -0.877871
H 7.98513 2.53801 2.00738 1.387599 0.580544 0.4811
H 11.731 8.32036 1.35207 -0.276196 0.276117 -0.286363
H 3.6507 3.46288 3.93849 -0.158358 0.120338 -0.593562
H 8.90986 5.92526 11.8473 1.049569 -0.773789 1.096353
H 7.79119 8.80422 2.41052 1.036867 -0.344819 0.818826
H 0.63121 0.83145 9.5073 -1.394598 -1.182236 -1.230425
H 7.83061 10.8788 1.38264 0.135484 0.580475 -0.488662
H 0.51602 9.73384 11.392 -0.351963 0.955506 -1.10672
H 10.76 6.54136 0.53772 -0.082386 -0.728632 -0.425633
H 2.35822 9.38629 3.03109 -1.579933 1.575115 -0.862315
H 8.35616 11.2383 4.22629 0.293084 -0.933623 0.166492
H 7.28003 7.66723 7.05581 -0.451419 0.551499 -0.21175
H 11.3115 5.39036 7.42325 0.006268 1.462595 0.702912
H 10.5959 2.55499 1.8613 -1.378787 0.394433 0.756148
H 1.65826 2.37086 3.58182 -0.118708 -0.08018 0.145902
H 11.8939 11.1984 9.20746 0.354552 -0.86646 1.068903
H 4.21163 5.62169 2.20528 -0.330227 0.311544 -0.947133
H 1.5493 5.21419 0.60298 0.349842 -0.113498 -0.606361
H 8.69691 5.23157 4.05048 0.646926 -0.10283 -0.755926
H 3.73531 4.23493 10.2706 0.681763 1.909261 1.479095
H 11.8168 2.39247 1.00109 0.139894 -0.430676 -0.066632
H 7.18478 11.9453 0.53288 -2.269953 0.982043 -0.927448
H 2.52545 8.82873 11.939 -0.52507 -0.176748 0.380504
H 7.95601 9.59049 5.95391 0.622797 0.212927 0.155303
H 11.3155 8.79952 9.42489 -0.285576 0.377753 -0.297122
H 3.57183 7.34119 10.6387 -0.396692 -0.795331 -0.619333
H 12.1345 2.492 4.91082 -0.107547 -0.757167 0.346268
H 6.56536 1.14331 10.9078 -0.216523 0.347861 0.248117
H 3.72875 6.01208 7.76225 -0.320562 0.757759 0.45915
H 6.29322 4.64328 0.41949 -0.391922 -0.775419 -0.954671
H 2.58832 0.09675 10.0819 0.40995 0.587546 0.184395
H 3.84997 7.57986 4.07284 1.093927 0.323791 0.109042
H 5.80774 6.96764 1.24201 0.044928 -0.351744 -0.265084
H 5.80546 6.992 3.77296 -0.259972 0.110629 0.930561
H 2.84376 6.10151 2.46069 -0.601446 0.807377 0.544423
H 4.69721 4.63195 11.5475 -0.515408 -0.030479 -0.626768
H 6.65481 2.73083 10.9009 -0.51326 0.165187 0.486517
H 2.55836 7.04469 4.64219 -0.302991 -0.161409 -0.194232
H 8.76178 11.9035 9.15146 0.360105 0.611325 0.795637
H 1.97908 9.63096 0.85397 -0.497627 -0.567965 -0.491857
H 7.61338 5.5511 3.01287 -0.400268 0.712253 -0.527278
H 4.19813 2.22993 2.05039 0.161475 0.068116 0.290608
H 4.5586 12.0413 11.1937 0.898853 0.815434 -0.119681
H 2.16981 5.91316 6.65941 0.469626 0.786054 0.778718
H 5.12885 0.43816 0.0058 -0.158374 0.705968 0.745924
H 0.55453 3.68099 12.1714 -0.634528 -0.125266 -0.725352
H 8.86187 9.27182 11.9581 0.805302 -0.287229 0.020412
H 10.1021 3.84738 5.45102 -0.641665 0.334894 0.215411
H 10.8629 12.3136 9.58914 0.095012 -0.448707 0.378484
H 4.64976 8.95643 9.36975 -0.318522 -0.43883 -1.231798
H 9.49185 7.16305 3.18238 -0.497574 -0.563346 0.122557
H 5.35784 0.43302 8.93363 -0.826216 -0.365968 0.656229
H 6.01288 5.03403 9.66902 0.818504 -0.361029 -0.401452
H 11.3257 1.67048 6.05161 0.149468 -0.319226 -0.475636
H 9.40163 11.9221 3.16816 -0.336381 -0.332337 0.351196
H 5.48031 3.38476 0.56913 -0.820307 -1.789917 1.096509
H 10.3171 8.65339 12.1473 0.998252 -0.937376 -0.655502
H 3.20003 4.12694 2.50672 -0.509291 -1.333435 0.903368
H 0.76986 1.61867 10.7619 0.164039 0.492134 -0.105828
H 3.03395 7.44658 8.03551 0.767686 -0.69529 -0.185919
H 1.47557 11.9611 5.32526 0.290778 -0.391703 0.60087
H 4.36334 7.88052 11.7621 0.816154 -0.013273 0.616588
H 11.3662 3.45432 11.8108 0.562162 -0.097805 -0.206618
H 1.18547 4.02486 8.16057 1.048701 -0.20986 1.168846
H 1.04728 0.41153 4.12437 0.00851 -0.885484 0.138286
H 0.22191 1.92645 3.06719 0.012118 -0.051053 0.284177
H 5.39913 0.27341 7.39282 -0.088291 -0.185712 0.249857
H 10.7797 7.87449 8.28852 -0.036541 1.107425 0.297388
H 0.46423 8.00143 0.35694 -0.767991 -0.18776 0.004383
H 5.44208 8.75003 8.03736 0.636879 -0.290723 -0.769748
H 10.1452 5.42964 1.37169 -0.479599 -0.313713 0.307315
H 7.46038 11.6324 8.42301 -0.933657 0.426622 -0.337426
H 11.2605 5.88265 8.92218 -0.480167 0.734 -1.076115
H 7.51398 3.58585 5.44099 -0.259516 -0.47254 0.482177
O 8.21481 6.3078 7.37228 -1.945003 -0.611533 0.964004
O 10.6759 8.81844 8.68093 0.790775 -1.806449 -0.021749
O 10.5008 11.8257 1.91707 0.268117 1.783462 0.067823
O 11.905 7.76656 0.54604 0.630236 -0.192095 -0.081167
O 11.4932 9.55203 2.39813 2.157343 -2.626656 1.421554
O 1.90604 3.92639 8.91867 -0.685087 0.283625 -0.960994
O 0.83931 1.8467 3.85467 0.210092 0.865735 -1.269353
O 3.27961 5.54803 1.80592 1.338532 -0.427563 0.418309
O 0.10017 4.40926 7.01178 0.22383 -0.824892 -1.423925
O 4.34797 3.74499 7.86251 0.359728 0.156649 0.255441
O 1.10322 11.8173 4.45928 -0.032329 1.273195 -0.936899
O 5.84574 3.92893 12.28 1.543347 2.202905 0.35637
O 4.01219 4.997 10.8969 -0.618413 -1.458339 -1.278207
O 6.61542 8.3915 6.84438 1.202852 0.115083 0.520203
O 8.83536 9.8364 5.55427 -1.515133 1.069244 1.558311
O 7.12159 1.92124 10.675 0.178957 -0.133423 -1.090884
O 5.87792 7.4081 0.35997 1.127328 -0.485427 -0.426838
O 5.89648 5.91707 2.72122 -0.48992 -3.044137 0.526059
O 9.62285 0.12186 10.716 0.120629 -0.246044 -0.272862
O 10.1914 5.71174 0.45539 0.837859 0.979251 0.157263
O 1.71305 9.04047 0.0964 0.910443 0.662209 -0.073246
O 12.2201 3.00846 12.0065 -0.069265 -0.139934 0.41098
O 2.93129 7.43789 3.82814 -0.950398 -0.014829 -0.121282
O 2.87948 6.48818 7.87879 0.187779 0.307895 0.694863
O 8.02598 11.685 0.8112 1.881147 -1.700376 1.081653
O 1.24877 1.39387 9.94076 1.072884 0.647157 1.195257
O 9.40767 2.7524 11.5526 0.625298 -0.343866 0.255053
O 6.8887 4.70477 9.33119 -0.117103 0.663385 1.190756
O 8.6738 12.0446 3.82953 -0.001364 1.392687 -0.048976
O 6.79289 2.99344 5.76483 -0.741818 0.829489 -0.657412
O 9.41662 8.06406 3.51502 -0.2378 0.598052 -0.388314
O 8.58912 5.45766 3.08115 -0.103871 -0.313793 0.889099
O 3.36149 11.8927 9.98438 -1.323183 -0.643838 -0.39131
O 1.76999 10.1116 2.57361 1.272892 -1.850303 1.10213
O 5.00023 1.9108 1.57915 0.173071 0.194749 -0.692099
O 9.34378 4.48237 5.43664 0.234764 -0.530383 -0.37829
O 8.83834 3.06398 1.91403 -0.979473 -1.4229 -0.816833
O 10.9128 6.15286 7.99889 0.27327 -1.120829 0.621318
O 5.94135 0.41216 8.18262 0.70673 0.234518 -0.752972
O 8.19822 5.99421 11.2024 -0.775593 1.445634 -1.010881
O 8.13424 8.71276 9.74579 -1.117293 0.297146 0.742243
O 4.54581 8.77863 8.39435 -0.737463 0.564417 2.096361
O 3.74007 8.1667 11.0835 -0.020485 0.645572 0.046034
O 3.14761 3.24647 3.06771 -0.029641 0.678858 -0.212954
O 12.2409 5.81663 10.2602 -1.279312 0.717586 -0.709038
O 2.07357 5.58515 5.75197 -0.492076 -0.633162 -1.513592
O 1.53026 4.88458 12.0812 -1.690396 0.26203 1.804683
O 7.08647 9.39844 2.15206 -0.33992 0.273709 -0.382583
O 5.61171 7.79058 4.44678 0.503591 0.376188 -2.26128
O 11.4596 2.53753 5.63827 -0.314884 0.648513 0.0584
O 11.557 12.0464 8.96018 -0.218952 1.346288 -1.59332
O 6.90099 1.71954 3.31619 0.481025 -0.405946 2.17475
O 12.3155 10.3452 10.82 0.795208 -1.614348 1.746639
O 11.2123 11.8682 5.61542 0.511962 0.050087 0.362837
O 9.65748 9.20667 0.12609 -1.876214 1.340458 0.572573
O 5.34441 0.19281 11.5051 -0.641177 -1.266882 -0.329757
O 8.35455 11.3146 8.51674 0.567922 -0.906028 -0.307973
O 4.47607 4.03768 5.14798 0.592189 0.759018 0.312831
O 11.3831 2.0157 1.83656 1.173734 -0.340355 -0.328394
N 1.70534 0.29112 0.32401 -1.303161 -0.401033 0.387413
N 12.172 7.08901 4.0672 -0.299424 1.167913 1.565756
N 2.76296 9.73644 6.07533 -0.008452 0.204325 0.26859
N 10.243 2.71849 8.73218 0.154347 -0.180123 0.062376
N 3.68193 0.71637 6.17638 0.596736 -0.310265 0.180485
N 2.72742 10.4735 6.89996 -0.10327 -0.299569 -0.217667
N 9.69449 3.61065 8.38307 -0.217302 -0.062694 0.016216
N 12.389 6.42141 3.22934 0.391951 -1.314465 -1.476335
N 3.00846 1.53171 5.8734 -0.461705 0.511898 -0.154818
N 0.6542 12.38391 0.53014 1.53303 0.358868 -0.310127
N 4.47211 10.3852 3.44194 0.046242 -0.119447 -0.118729
N 4.7178 11.4399 3.65095 0.082408 0.332138 0.106913
Na 6.29909 2.69161 8.15001 0.375804 0.388486 -0.066367
Na 10.2199 10.5683 7.37297 -0.045281 0.220641 -0.296079
189
energy=-1064.37247674 config_type=nep2xyz pbc="T T T" virial="-1.1280567102470533 4.73203564010812 4.6802697218486 4.73203564010812 -9.682297351260626 3.66534831847356 4.6802697218486 3.66534831847356 -3.386335969160294" Lattice="12.4 0.0 0.0 0.0 12.4 0.0 0.0 0.0 12.4" volume=1906.6240000000003 Properties=species:S:1:pos:R:3:force:R:3
H 7.75753 3.2551 11.4432 -0.828154 -0.289237 -0.605319
H 10.9869 10.1747 1.63964 -0.271394 1.103394 -0.395242
H 8.11561 3.66195 2.39258 0.375279 1.412226 0.074061
H 8.39432 3.00347 0.45872 -0.300011 -0.289609 0.734723
H 2.81132 10.2213 3.12766 -0.465117 -0.193923 0.104319
H 6.53936 8.10415 1.07406 -0.36788 0.059817 -0.896404
H 9.8341 11.7549 6.04375 1.304102 1.152362 1.104199
H 8.74011 8.48107 10.5054 0.321696 0.898481 -0.366833
H 5.90509 6.07021 4.91459 0.691862 -0.274061 0.7748
H 5.89369 10.9204 7.77375 -0.259424 0.535042 -0.183669
H 11.2869 11.5508 6.5628 2.402991 -1.717771 -0.429556
H 0.30236 3.42538 6.34058 -0.444355 -0.100646 -0.990152
H 1.82563 2.68677 9.12386 0.485927 1.415529 0.317708
H 10.8368 0.0554 1.74646 -0.150086 -1.182896 -0.957722
H 3.50838 11.728 10.9577 0.165931 0.577361 -0.578536
H 1.35274 4.72705 6.32741 0.472239 -0.161963 -0.796584
H 3.35888 4.77676 5.6244 0.785104 -1.144535 -0.470553
H 7.82642 8.75364 4.28135 0.357439 0.187223 -0.106308
H 9.80587 8.98575 2.83236 -1.134735 -1.288632 -0.083701
H 10.1714 5.87194 11.1777 0.766005 0.348532 -0.751576
H 7.05313 0.77399 3.97891 -0.167703 0.530965 0.508859
H 9.15992 7.15318 6.90904 0.533701 -0.228408 -0.048634
H 4.38011 3.06147 6.81741 -0.343674 0.03924 -0.043587
H 3.43402 9.45449 11.9323 0.421875 -0.412753 -0.277263
H 6.83689 9.98935 6.84064 -0.91888 0.229227 1.658913
H 8.00496 8.03936 6.24875 0.131633 -1.248343 0.879019
H 12.2396 9.96774 2.49933 -0.57292 -0.293264 0.119419
H 5.13385 3.04667 4.89825 0.535193 -0.231898 -0.411828
H 9.53895 11.8646 1.21096 -0.445681 -0.065579 -0.372734
H 9.49669 1.61355 11.3603 -0.558483 0.940303 0.963154
H 4.82393 5.81595 3.3147 1.401673 1.474326 -0.017511
H 11.6208 5.79503 10.3698 1.262288 -0.33527 0.692142
H 7.09257 2.36258 4.45707 -0.332414 -0.847678 0.271067
H 3.68421 2.89976 8.28506 0.279647 0.596015 -0.657248
H 8.94658 0.09609 11.6962 0.80526 1.850682 -0.873387
H 7.81122 10.4572 8.66857 0.799743 -0.601087 0.087204
H 6.84131 4.12604 5.65673 -0.06782 -0.085736 0.133465
H 1.84902 5.28607 11.5598 -1.974963 0.178179 -0.843963
H 9.87066 4.9017 5.86471 0.226452 0.196701 0.33271
H 5.42726 2.04765 2.86162 -0.810768 0.303307 -1.485974
H 7.83934 9.18686 0.10383 -0.562422 -0.006861 -0.453399
H 6.94965 5.31528 9.28791 1.195262 -0.256929 -0.634237
H 7.84132 2.23259 2.55108 -0.869688 -1.192734 0.405372
H 0.4169 8.46167 1.04239 0.082737 -0.433642 -0.474198
H 3.35888 3.31594 4.28975 0.501654 0.047653 -0.985253
H 9.30228 9.75926 8.98711 -0.963234 0.203876 0.123532
H 8.01166 9.26523 1.62925 0.001907 -0.021166 0.346435
H 0.44944 0.93589 10.2831 0.617312 -0.046945 0.251747
H 7.60563 11.1873 0.70465 -0.267786 -1.036913 0.067097
H 4.02852 9.31285 10.4192 -0.329485 -0.25765 0.265581
H 8.9144 4.71662 12.0036 -0.386563 -1.255621 -0.014596
H 3.37941 9.00257 3.76845 0.705419 -0.331046 0.931947
H 8.12442 10.9741 4.88527 0.307393 0.906626 -0.440325
H 7.02932 6.28438 6.07973 -0.301646 -0.218243 -0.150412
H 11.536 5.42008 7.0201 -0.328389 0.210118 -0.425619
H 10.1874 2.31421 2.13469 -0.405232 0.459835 -0.135775
H 1.15478 2.37404 3.50884 0.364177 -0.251449 0.535167
H 0.06334 11.1146 10.3331 -0.508696 0.968814 0.090047
H 2.36798 7.37691 3.24704 -0.018473 -2.766235 -0.460971
H 0.76096 6.1736 12.2085 -0.408543 0.342438 -0.093196
H 8.81004 5.13337 3.82315 -0.606668 -0.184424 0.524811
H 3.12286 4.32774 9.97666 -0.595533 -0.54823 -0.914873
H 11.2964 2.41099 1.00994 -0.026504 0.173307 0.039845
H 7.10734 0.22129 0.51286 -0.211239 0.278979 -0.291965
H 4.26934 7.93317 1.03215 0.290962 0.091261 -0.370252
H 6.3909 9.03893 4.77074 -0.465669 0.055404 0.265866
H 11.4137 8.95345 9.55084 1.513948 0.513548 0.062286
H 5.07756 6.05996 10.7361 -3.106004 -1.300613 -0.583768
H 11.824 2.10283 4.84704 0.248632 0.309477 -0.412545
H 6.16802 1.96127 11.0875 0.014396 1.061822 -0.905071
H 4.77725 6.49392 6.96165 -0.058009 1.014628 -0.435977
H 5.02723 3.55667 1.05288 0.100369 -0.810222 0.584193
H 2.71979 0.64872 10.5932 0.487857 0.045997 -0.037844
H 5.02532 7.7104 3.90234 -0.480703 0.643146 1.772648
H 7.9257 7.42006 11.0428 -0.584321 -0.404022 0.163655
H 5.87571 6.93842 1.84387 -0.061308 -0.173547 -0.882309
H 2.35909 6.10983 4.15331 0.116779 -0.277887 -0.088261
H 3.84643 4.40679 11.3818 0.396278 -0.403522 0.260867
H 5.79375 3.40061 10.6523 -0.239604 0.126805 0.226968
H 4.44908 8.41971 5.48134 0.192703 -0.736484 -0.283903
H 8.47704 1.20951 9.60855 -0.071156 -0.048167 -0.375596
H 3.15597 8.81219 1.73092 0.228411 -0.198424 -0.380312
H 7.30795 5.55198 3.18017 -0.389824 0.370647 0.864907
H 4.01668 2.76728 2.56473 -0.384111 -0.36918 -0.328665
H 4.82272 0.87804 11.571 -1.450213 -0.424807 -0.041381
H 3.10768 6.16073 6.12671 -0.231478 0.731207 0.474956
H 5.15655 1.36152 0.73041 -0.892875 0.501356 0.096236
H 12.3881 4.03851 12.0245 -0.445809 0.267767 -0.473222
H 0.30785 9.02272 11.222 0.981673 0.572992 -0.932814
H 10.0575 3.46456 5.16995 -0.355658 1.979216 -0.075664
H 11.424 11.8712 11.2657 0.881381 0.744732 -1.861415
H 5.44257 7.79171 10.1375 -0.090622 0.038786 -0.958157
H 8.992 7.57893 2.6014 0.209736 0.121866 0.251872
H 4.45105 0.03612 8.96615 0.520655 -0.611911 0.275751
H 7.67806 5.91177 8.08166 0.16918 -0.444503 0.052712
H 10.9748 1.6853 6.09421 -0.383666 -0.721243 0.461177
H 8.76378 12.0838 3.91006 0.14276 -0.41454 0.095622
H 5.47357 4.93628 0.53676 0.306664 0.956239 0.32852
H 1.61139 9.55811 10.5054 1.014819 -0.083693 0.201079
H 2.62876 4.30618 3.06022 0.001333 0.00685 -0.008901
H 0.76656 2.28735 11.0029 0.533292 -0.947741 -0.533703
H 4.38755 7.60215 7.93151 -0.109369 0.45954 0.646479
H 1.46475 1.72436 7.11789 0.622487 0.466122 0.397407
H 6.07874 6.51873 11.738 0.280568 0.027252 -1.13282
H 11.1248 3.36661 11.2618 0.49769 0.368794 0.440894
H 1.52456 3.65225 7.98804 0.09558 1.098746 -0.231328
H 0.66733 0.93508 6.17216 0.127761 -0.415554 0.289287
H 12.1607 2.07113 2.91155 0.52519 -1.047151 1.225145
H 4.84621 0.94319 7.90442 0.774165 -0.469021 -0.353721
H 10.5802 7.64724 9.74718 -0.030515 1.048395 -0.050898
H 1.74398 8.13251 0.25488 0.363417 0.004736 0.222374
H 5.66291 8.90541 9.02973 -0.412321 -0.492263 0.053061
H 8.6333 5.92995 0.50912 -0.272048 0.260857 1.191355
H 7.38279 0.47459 8.87681 0.010032 0.278372 -0.415004
H 10.4709 5.54769 8.04412 -0.581558 0.183718 0.390714
H 8.19513 3.44895 5.77844 1.294689 0.567969 -0.284814
O 8.20709 7.20513 6.79704 -0.471338 1.66062 -0.764275
O 10.519 8.65935 9.59082 -1.383781 -1.964299 0.071111
O 10.4726 11.6139 1.30407 0.400182 2.102608 0.807023
O 0.77969 8.01551 0.24177 -0.616522 0.25558 0.521679
O 11.4404 9.51185 2.172 1.172728 -1.373929 0.787453
O 2.15085 3.5829 8.75355 -0.669957 -2.802654 0.907677
O 0.38977 1.77588 3.70077 -0.282263 1.05679 -1.351928
O 2.42044 6.3409 3.20011 0.092021 2.983434 0.036224
O 0.69514 4.17244 6.79229 -0.727361 0.456368 1.223423
O 4.53838 2.92224 7.79652 0.513248 -0.737807 0.130728
O 1.03457 0.87365 7.07475 -0.557203 -0.167539 -0.774717
O 5.23112 4.06741 0.25289 -0.283586 -0.048876 -1.064153
O 3.46757 4.90889 10.6497 0.257029 1.170402 1.151616
O 6.22957 5.76028 5.83992 -0.300134 -0.180876 -0.736608
O 7.34014 9.17498 5.01989 0.109087 0.143975 -0.075138
O 6.30307 2.64653 10.3324 0.193287 -0.717445 1.100723
O 7.84123 8.36207 10.8364 0.622073 -0.43142 0.427547
O 5.62119 6.45013 3.36985 -1.772596 -0.580538 -0.188809
O 9.51437 0.70683 11.0804 -0.635867 -2.485069 -0.196187
O 8.97821 5.6822 12.0675 0.264418 1.414171 -0.700319
O 3.52153 8.53258 0.84744 -0.71645 0.072984 1.036625
O 11.7963 3.24124 11.9587 -0.017715 -0.529683 -0.061291
O 4.6634 8.63219 4.54714 1.209777 -1.135141 -1.554594
O 4.21647 7.319 7.01846 0.358233 -1.381695 -0.459481
O 7.92067 12.099 0.63848 0.141537 0.717084 0.04523
O 1.20691 1.56694 10.4554 -0.809466 1.140445 0.079857
O 8.58402 3.21838 11.926 1.215737 -0.067649 -0.869574
O 7.64735 5.07891 8.60023 -1.391502 0.73939 0.824498
O 8.54109 11.8878 4.83127 -0.565689 -1.062342 0.220295
O 7.2726 3.21807 5.70516 -1.669308 0.065914 0.348541
O 8.88942 8.52055 2.83314 1.383533 0.787105 0.164942
O 8.23714 5.3241 3.04672 0.639762 0.090602 -1.562921
O 3.62905 0.24466 10.5772 -0.844507 -0.845081 0.193582
O 2.55334 9.29836 3.31518 -0.340433 0.974041 -1.128177
O 4.78476 2.28444 2.09707 0.902153 -0.118383 1.696267
O 9.52881 4.37621 5.11846 0.667548 -2.025081 -0.214172
O 8.32634 2.81943 1.97008 0.862079 -0.064393 -0.130576
O 10.6037 5.74201 7.10526 1.053161 -0.262183 0.406875
O 5.12978 0.05009 8.24602 -1.00258 1.131227 0.22216
O 8.71716 10.5559 9.0702 -0.021809 -0.251432 -0.108871
O 6.45407 10.1234 7.76593 0.821752 -0.535732 -1.487038
O 4.97955 8.29573 9.40572 0.787882 0.808274 0.369299
O 5.96696 6.29975 10.7497 2.577265 0.883865 1.829634
O 2.7807 3.37 3.25833 -0.214089 -0.208797 0.860838
O 10.7053 6.01725 10.3221 -1.549817 0.548636 -0.569283
O 2.66573 5.44886 5.63998 -0.463041 0.451645 0.473877
O 0.82399 5.45439 11.5533 2.3841 -0.544027 0.726199
O 7.38541 9.5163 0.91551 0.607398 0.102476 -0.183165
O 6.00085 7.29493 0.86608 -0.050701 -0.608827 2.004697
O 11.2302 2.45316 5.58461 0.128698 0.170936 -0.22321
O 11.9291 12.0025 10.3855 -0.4776 -2.244247 1.623796
O 6.78041 1.68052 3.75268 0.390067 -0.022924 -0.19012
O 3.31554 9.69541 10.9879 -0.364671 1.092372 -0.477659
O 10.5679 12.1097 6.67995 -3.423802 0.799943 -0.890715
O 0.64825 9.53784 10.4199 -1.816265 -0.043952 0.68927
O 5.45724 0.99757 12.2818 2.492319 -0.301141 0.171808
O 8.09944 1.11663 8.69887 -0.265263 -0.485646 0.705779
O 4.28031 3.32963 5.19376 -1.480293 0.420716 0.817024
O 11.0804 2.02912 1.89456 -0.252863 -0.590737 -0.405919
N 0.85973 0.61409 0.75473 1.089881 -0.533531 -0.100244
N 11.7717 4.79916 2.52623 -1.013701 -1.688823 -1.840108
N 0.8375 7.29092 8.22343 0.523003 -0.220817 0.606834
N 10.3467 2.40413 8.19694 0.739091 0.960684 0.683236
N 0.47959 9.38948 6.14826 -1.001364 1.724816 0.935888
N 1.63264 7.29308 8.99667 -0.41908 -0.093606 -0.525998
N 10.841 3.1964 8.80084 -0.516832 -0.839478 -0.466027
N 12.2135 5.52082 3.21144 0.822839 1.833037 1.924191
N 0.9566 8.57387 5.60206 0.918764 -1.636746 -1.032163
N 1.85742 0.15155 0.5974 -0.90313 0.308477 0.378643
N 3.83777 11.9553 4.28904 -1.82488 -1.961152 -3.332713
N 4.288 0.0567 5.13313 1.809654 1.990235 3.315203
Na 6.78238 2.97108 8.1314 -0.073065 -0.035304 -0.050295
Na 10.1814 12.0137 8.91271 0.096311 0.827219 0.120233
189
energy=-1064.29982374 config_type=nep2xyz pbc="T T T" virial="-0.763600845277844 0.6807991764848003 2.8353561955014945 0.6807991764848003 6.028551738603855 -7.34262064846345 2.8353561955014945 -7.34262064846345 -1.5142899615185432" Lattice="12.4 0.0 0.0 0.0 12.4 0.0 0.0 0.0 12.4" volume=1906.6240000000003 Properties=species:S:1:pos:R:3:force:R:3
H 6.84032 2.34194 0.166 1.715495 -0.286815 -0.727089
H 11.0327 9.06098 2.23885 -0.514411 0.246836 -0.763812
H 10.3542 4.02735 3.06555 0.035138 0.00482 -0.044338
H 8.21492 2.61774 0.81512 0.054036 0.14223 -0.163004
H 1.34495 10.7745 3.27971 -0.327676 0.803559 0.429116
H 6.72739 9.47407 2.78507 -0.017882 -0.064685 0.566671
H 9.85022 12.0654 5.00133 -0.484609 1.857938 -0.584529
H 7.97809 6.74405 0.86838 0.66793 0.340916 -0.209646
H 7.20541 6.25044 5.08824 0.6557 0.19626 -1.207641
H 5.67075 8.34418 8.84694 -0.219748 -0.184663 0.16714
H 11.3688 11.6145 5.09269 -0.095102 0.397524 -0.43701
H 0.17787 4.39841 7.11356 -0.5867 -0.292003 -1.311894
H 1.26251 2.088 9.87432 0.205915 -0.190152 0.217044
H 10.6155 10.4289 11.7301 0.14768 0.024387 0.012988
H 2.35752 10.2058 8.36886 -0.111007 -1.3382 0.679513
H 1.20324 5.21072 7.99484 -0.379745 -0.161195 -0.366624
H 2.96836 6.37165 6.68608 -0.121558 -0.054783 0.858072
H 6.85111 8.80286 6.96803 0.098991 1.701775 -0.509404
H 10.4647 8.60592 3.97658 0.697758 0.470229 -0.088711
H 10.1602 7.09702 12.1222 1.150387 -0.752043 -0.335508
H 8.26524 1.21665 4.17049 0.883815 0.464125 0.476538
H 5.65149 4.33919 9.33255 0.273058 -0.900659 -0.563785
H 6.30787 4.29423 5.00408 -0.18259 0.507339 0.395028
H 0.11843 9.13175 10.6444 -1.41338 1.339167 -0.434852
H 5.33846 8.68558 10.4524 -0.4279 -0.383613 -1.364794
H 6.78259 4.29995 10.1737 0.723919 -0.173652 0.012945
H 0.01441 8.84011 2.81042 0.039343 -0.116557 0.240119
H 4.89773 6.53345 5.63398 0.460642 0.219543 0.007733
H 11.555 11.2729 10.8012 1.034164 0.958006 0.256953
H 8.70224 0.98577 11.5674 -0.309649 -0.782936 -0.15138
H 7.80867 6.33132 3.04651 -0.203857 0.832552 1.679536
H 8.88357 7.73249 11.4354 0.7745 -0.376919 1.354007
H 9.0996 1.88432 5.44319 -0.150571 -0.212237 -1.254907
H 6.59637 3.8631 3.58686 -0.136922 -0.125682 -0.636692
H 9.10596 11.8579 11.526 0.045116 -1.953497 1.418119
H 7.5083 6.35213 10.3606 -0.122324 0.321763 -0.103777
H 9.09666 3.3957 7.16174 0.346071 1.450028 0.184779
H 1.13546 3.83724 11.3471 -0.096263 -0.288923 0.517546
H 7.79504 4.52887 8.40757 0.42013 0.710044 -0.134308
H 4.46106 3.9204 4.22296 0.131691 0.199262 0.052426
H 9.0312 10.5815 3.59983 -0.713782 0.590926 -0.360157
H 2.08179 6.64169 11.5489 1.029292 -0.237526 0.089149
H 9.74787 2.6081 3.33451 0.04173 -0.180685 0.221332
H 12.2074 6.94108 11.3512 -0.879089 0.115691 -0.395095
H 3.9668 6.01375 4.54432 -0.315466 0.127211 0.413711
H 6.9359 6.0803 11.7968 0.152496 0.344702 1.267304
H 8.07363 11.843 3.02869 0.536427 -0.936651 0.156232
H 0.10751 0.62928 8.94316 0.024578 0.015437 0.379368
H 6.88664 2.00703 2.75128 -0.039208 -0.97087 0.188096
H 1.11411 8.75837 11.6567 1.163017 0.402143 1.852794
H 9.41487 10.5383 1.60299 -0.672497 0.871136 0.864134
H 2.23129 9.54354 3.48142 1.299251 -0.664522 0.763112
H 7.35522 9.75593 5.19455 -0.187213 -0.765302 -1.401649
H 7.08927 5.44329 6.47636 0.975111 -0.177117 0.769106
H 11.0998 5.74788 8.49914 1.656013 -0.846478 -1.186278
H 11.3755 2.45398 1.82292 1.366243 0.457185 0.229984
H 2.1279 3.32028 3.93294 2.61196 2.00191 0.240953
H 11.0788 0.31262 6.81693 0.301685 0.758332 0.729904
H 4.13984 4.02568 0.99017 -0.50931 -0.070443 0.605149
H 1.71572 4.42733 0.30983 0.063055 -0.044421 0.0301
H 9.569 5.95918 3.74719 -0.959035 -0.351282 0.54304
H 3.63303 5.60014 8.75436 -0.402997 1.040627 -1.474361
H 0.21952 2.98391 0.9595 0.161893 0.673587 -0.436011
H 6.05949 1.17859 3.76325 0.795175 -0.125466 -0.68729
H 2.96708 8.98663 0.55961 3.063453 -0.231028 -0.211446
H 6.61597 7.31697 6.79841 -0.709471 0.494195 1.313878
H 11.1502 9.07309 9.33404 -1.039065 0.047146 -0.800505
H 4.10786 7.62144 12.3047 -0.671714 -0.363133 -0.574671
H 0.0444 3.61207 5.07194 -1.607692 0.949798 0.834372
H 6.7536 0.03444 9.03249 -1.269493 -1.032633 0.737506
H 1.92627 8.59944 9.68987 0.481237 -0.457064 -0.614349
H 5.61904 4.06798 11.8696 0.337181 0.90079 -1.109924
H 1.68335 11.6908 8.53391 1.146174 -1.215219 -0.256974
H 4.48002 9.43571 4.07376 -0.501477 -0.804353 0.054405
H 7.16751 5.55076 1.4377 0.03028 -1.516158 0.787864
H 6.99448 8.16858 3.59218 0.107854 -0.519631 0.217435
H 3.60029 5.37669 0.75721 -0.723348 0.085894 0.790639
H 3.25318 4.43305 9.60287 0.542252 0.383974 0.318046
H 8.02707 0.80097 9.5298 -0.606169 -0.560423 -0.052527
H 3.77467 8.18336 4.65791 0.338597 -1.067617 0.497091
H 9.83123 11.3113 9.40918 0.350601 -0.065857 -2.622155
H 1.86927 9.67622 1.47649 0.277974 -1.104615 -1.183996
H 10.9548 6.29774 4.09036 -0.02987 -1.21831 -0.219112
H 8.17624 4.0408 2.3885 -0.068019 -0.095381 -0.348412
H 4.05921 11.6966 8.69527 0.869736 -0.309246 -0.290101
H 2.58333 7.20148 8.00232 -0.047353 -0.32247 -0.001245
H 5.1493 10.5536 8.79533 -0.303951 1.859332 -0.258473
H 10.9737 0.52975 11.8345 -1.101125 0.138029 -0.082588
H 7.59038 8.0444 8.76905 0.819377 -0.547575 0.683209
H 9.25227 5.323 8.2965 -1.842728 -0.05038 -0.511859
H 12.2336 1.11366 6.26771 -0.641361 0.358572 0.965136
H 2.73717 11.163 6.48992 1.118868 0.432746 -0.68776
H 9.17239 8.01931 4.35556 -1.798917 -1.515665 -0.37935
H 5.02412 11.9158 5.76287 0.697846 0.678334 1.006008
H 3.46669 6.08797 10.9412 -0.239905 -0.307189 -0.735842
H 11.1394 4.62937 5.25196 0.098026 -0.166441 -0.512636
H 6.96268 10.9272 6.05406 -0.112748 -0.162662 0.588393
H 6.03063 3.78865 0.93057 1.136958 0.48813 0.728564
H 9.14911 8.01735 9.26046 -1.845106 0.270498 0.261482
H 3.62155 4.5274 3.0608 -0.070275 0.180418 0.653883
H 0.10296 0.65621 10.5937 1.153355 -0.574165 -1.052503
H 3.48926 8.33342 9.41426 0.009458 0.689925 -0.5074
H 1.70128 12.0275 5.37734 -0.063449 0.130506 -0.596482
H 5.33477 8.16631 0.52306 0.749158 0.040884 0.520439
H 12.0552 1.1774 0.40306 0.181381 -0.399976 -0.506595
H 0.91884 3.44952 9.23971 -0.129588 0.509269 -0.424855
H 1.28521 0.72945 4.40669 -0.093687 0.639096 -0.136866
H 1.10449 2.63916 3.05002 -0.595819 -0.140382 -0.588769
H 5.56106 12.065 7.21248 -0.541761 -0.573348 0.877524
H 10.5286 7.77907 8.67999 0.81101 -0.091982 -0.22087
H 11.9948 5.50078 11.749 -0.142554 -0.55225 0.235097
H 3.28935 10.6558 5.08824 -0.047789 -1.054905 -0.162717
H 9.32333 9.22338 0.81012 0.811098 0.207453 -0.197699
H 9.19209 12.173 8.33354 -0.721346 0.477769 -0.411837
H 10.7047 6.05333 9.86895 0.258087 0.076122 1.531333
H 10.174 2.1938 6.86128 -0.060815 0.500528 0.351595
O 6.46681 3.76044 9.40501 -0.971542 1.03922 -0.003988
O 10.5551 8.767 8.60757 0.735534 -0.213041 0.441704
O 10.8674 10.6297 10.7963 -0.695023 -1.689048 -0.007938
O 11.4973 6.2428 11.3559 0.995412 0.216944 0.269241
O 11.5228 8.43853 2.78538 0.637113 -0.130318 0.062755
O 1.43138 3.05021 9.96634 0.114226 0.131725 0.06926
O 1.42521 2.72501 3.95266 -2.34954 -1.931147 0.653995
O 3.48797 4.65094 1.42514 0.976629 -0.304216 -1.79421
O 0.4033 4.63119 8.01647 0.692082 0.813419 1.76899
O 6.09815 3.55936 4.41374 0.349891 -0.407661 0.13821
O 0.90821 12.39489 4.90592 -0.662311 -0.227733 0.23104
O 5.56732 3.4308 0.15988 -1.371497 -1.189231 0.694419
O 3.86622 5.20659 9.59173 0.150131 -1.745079 1.679546
O 6.58831 5.92472 5.82388 -1.18298 0.189204 0.484129
O 6.44793 8.09083 7.46433 0.456699 -2.297447 -0.682296
O 7.45505 0.59552 8.7587 1.674774 1.230632 -0.229815
O 7.08483 6.42737 1.02287 -0.808776 1.544862 -0.69769
O 7.95586 6.79267 3.93031 0.33738 -0.637402 -1.485618
O 8.97711 0.19973 10.9918 -0.09487 3.275176 -0.753688
O 9.90494 10.0054 0.97302 0.354769 -1.124211 -1.180793
O 2.06242 9.1288 0.62793 -3.526965 1.155647 0.625937
O 11.9076 0.54913 12.0151 0.702336 0.519125 0.582214
O 3.60369 9.10359 4.39493 0.412069 2.226187 -0.982164
O 2.61439 8.54928 8.97048 -1.125538 -0.085681 0.716222
O 6.77645 1.06929 3.08852 -0.488889 1.144049 0.501096
O 0.67492 0.44127 9.72561 -1.256236 0.498418 0.29825
O 7.83927 2.15478 0.049 -1.130051 -0.164081 0.510945
O 3.02438 6.44245 11.742 -0.668451 0.300638 0.587237
O 7.43053 10.0529 6.09638 0.303361 1.05506 0.531189
O 9.23365 2.52048 6.80677 -0.088135 -1.581855 -0.070803
O 9.68981 8.78876 4.5413 0.44407 1.077158 0.887484
O 10.397 5.47633 3.99967 0.723345 2.140408 -0.210817
O 2.41284 11.1256 8.11807 -1.072706 2.527019 -0.049685
O 1.50743 9.89098 2.95877 -1.118639 0.211526 -0.59936
O 7.25187 4.17471 2.117 -0.22501 -0.659598 0.734543
O 8.39639 5.03941 7.79154 0.587258 -0.995092 0.650729
O 10.0318 3.21614 2.62048 -0.117137 -0.207324 -0.27118
O 10.4013 6.18091 8.96455 -0.783261 0.294816 -0.514204
O 5.80924 12.2533 6.29588 0.000407 0.247825 -2.303572
O 6.82242 5.8787 10.8642 -0.234773 -0.735506 -1.158507
O 5.00031 8.64206 9.50795 0.856655 0.647004 1.621714
O 3.15608 11.4578 5.60105 -0.330043 0.30051 1.603346
O 4.60358 8.45019 12.3772 0.298928 0.156125 -0.060398
O 3.62944 4.4301 4.05843 -0.028526 -0.198079 -0.824607
O 9.34198 7.53947 12.3176 -2.324919 1.267171 -1.108752
O 2.67834 6.27182 7.64077 0.024571 0.544611 -1.33687
O 0.88807 4.18243 12.2623 -0.084211 0.144938 -0.492622
O 8.47557 10.9539 2.86094 -0.025401 0.429485 0.432095
O 6.43086 8.98714 3.5762 -0.071834 0.580478 -0.355083
O 11.74 4.01558 5.70514 1.925009 -1.304817 -0.447549
O 11.5639 1.16237 7.02267 0.369515 -1.37613 -1.47225
O 9.17933 1.40002 4.54609 -1.018241 -0.276424 0.035936
O 0.63343 8.39575 10.9094 0.505324 -1.369543 -0.708002
O 10.4403 11.3605 5.20365 0.986744 -1.786297 1.029811
O 8.20901 7.80511 9.53142 0.359132 0.407792 -0.353319
O 5.0467 11.5599 8.59884 -0.519299 -1.986178 1.191862
O 9.81022 11.4477 8.37298 0.419302 -0.662473 2.515559
O 4.08904 6.79482 5.16426 -0.433934 -1.032049 -0.037674
O 12.3654 2.31058 1.60881 -1.507028 -0.895684 0.132028
N 3.56955 0.14329 12.2528 0.121416 -0.192218 -2.094617
N 1.61142 5.93827 2.71186 0.146408 0.086365 0.710493
N 0.49555 8.62981 6.34121 0.17175 0.263642 0.142441
N 10.3407 3.26087 9.41633 0.847436 0.317808 -1.302602
N 2.99694 2.22063 7.24876 1.354314 1.627216 1.611206
N 12.306 7.94428 5.70993 -0.058555 -0.36523 -0.151189
N 9.7937 2.99867 10.3283 -0.679073 -0.386297 1.406297
N 0.9169 6.24129 1.9141 -0.504264 0.230802 -0.612388
N 3.56143 2.91065 7.93184 -1.333543 -1.911949 -1.937998
N 3.50468 0.24942 0.93748 -0.140021 0.192009 2.052597
N 6.34613 10.4664 0.51441 1.156295 -0.131451 -1.606736
N 6.92827 10.3044 11.9743 -1.011383 0.338773 1.636899
Na 7.05648 1.95249 7.2197 -0.291798 0.190649 -0.413918
Na 9.60756 9.66439 6.72082 0.221837 0.539488 -0.157089
189
energy=-1067.050951 config_type=nep2xyz pbc="T T T" virial="-9.496225650592612 1.763408980563323 -3.8435301791861556 1.763408980563323 -8.86103998323166 1.6402060951056656 -3.8435301791861556 1.6402060951056656 -8.31695043179637" Lattice="12.4 0.0 0.0 0.0 12.4 0.0 0.0 0.0 12.4" volume=1906.6240000000003 Properties=species:S:1:pos:R:3:force:R:3
H 7.80369 2.60588 11.0123 0.024212 -0.090043 -0.312923
H 11.6691 10.919 1.67194 0.19327 -1.833194 0.486021
H 9.0525 3.72803 2.13479 0.257022 0.423352 0.058767
H 8.54002 3.06344 12.3569 0.639253 -0.542113 -1.235004
H 2.2319 10.6344 2.75378 0.020061 1.494234 0.782999
H 6.22512 8.64258 3.40393 0.367007 -0.111398 -1.02701
H 10.0904 0.02664 4.93703 -1.746482 -0.36014 -0.302797
H 7.18496 6.24177 0.48615 1.481477 0.334414 -0.295385
H 6.50823 7.81373 5.08883 -0.821941 0.372283 -1.103235
H 6.43342 9.91951 9.41429 -1.754261 0.537336 -0.657454
H 11.5786 12.2086 4.58034 0.709568 -0.42184 -0.363026
H 0.55566 4.10039 6.20682 -0.127198 0.043526 -0.52062
H 2.03581 2.0519 8.9241 0.115024 -0.525006 0.110163
H 9.7504 12.254 1.22606 -0.767664 -0.180704 0.468242
H 3.03527 10.4967 11.1335 -0.661672 -0.077805 -0.06796
H 1.4307 5.45084 6.50237 0.568274 -0.103863 -0.353295
H 3.64087 5.87041 5.83524 -1.340828 0.275664 1.051845
H 9.53362 9.45638 5.46724 0.03764 -0.201701 -0.340502
H 10.9169 9.10181 3.0401 -1.26413 -0.528393 0.445381
H 10.7173 5.44669 11.055 -0.182186 -0.036066 0.033812
H 7.52958 0.86167 3.31398 -0.423197 1.0222 -0.104909
H 8.67258 5.28883 6.38139 -0.261391 0.185797 0.538989
H 4.80344 4.23141 6.98052 -0.603129 0.48728 -0.156908
H 12.0264 9.24118 0.20423 -0.311236 0.525491 1.179525
H 7.2159 9.31041 10.6547 0.134268 -0.049036 -0.158303
H 7.79281 5.59989 7.7426 0.372036 0.263645 -0.061591
H 0.46172 9.82188 1.97673 -0.308464 0.381948 0.253916
H 5.12852 5.37067 5.25456 -0.043116 -1.047018 -0.038183
H 10.9824 0.78854 1.40882 0.291317 0.070403 0.028047
H 9.34275 1.28241 11.4401 0.330805 -0.931276 -0.145836
H 5.77795 4.67324 3.24559 -0.545662 -0.977011 0.451638
H 9.7626 4.19578 10.7112 -0.197249 -0.497527 0.263707
H 7.3079 2.31883 3.90175 -0.165858 0.264507 0.612148
H 3.92639 3.53457 8.15444 1.076017 0.580723 -0.293711
H 10.2965 12.3753 11.9196 -0.827179 0.604482 -0.510723
H 8.13319 7.40687 9.32001 -0.271522 -0.173817 0.218807
H 5.9628 3.48272 5.69514 1.314432 -0.39614 -1.288464
H 1.60243 4.53532 11.784 0.382082 -0.222944 -0.738165
H 10.4434 5.49488 6.69755 0.49958 -0.052999 0.287917
H 5.64425 1.97507 2.1483 0.251565 -0.046916 -0.015528
H 7.3155 9.2771 1.46484 0.212221 -0.36427 -0.916433
H 6.22299 5.99327 9.65763 -0.326365 0.256665 -0.151897
H 8.53592 2.32354 2.06434 -0.081678 -0.441406 0.329131
H 12.0322 7.11406 11.946 0.208329 0.949275 0.012573
H 3.80164 3.88234 4.19581 -0.078299 0.63821 0.040869
H 8.67598 6.09838 10.0292 -0.176592 0.093371 -0.355567
H 8.21408 9.24723 2.74195 0.41101 -0.115595 -0.080168
H 0.67767 0.31292 8.79989 0.511817 -0.059225 0.031349
H 7.77721 11.1795 1.6837 -0.073438 0.272598 0.038592
H 1.10377 8.89309 12.064 -0.910705 0.039949 -0.518685
H 9.97008 6.64897 0.49642 -0.172438 0.15206 -0.789617
H 2.26352 9.11507 2.97676 -0.049867 -0.008155 0.191843
H 7.94209 11.4704 5.64598 0.257344 0.38546 -0.120799
H 7.24087 7.00213 6.14677 -0.207525 0.58368 0.471598
H 11.997 5.62406 7.90076 -0.297723 -0.423085 0.025585
H 10.9603 2.84384 1.6205 -0.32005 0.400729 -0.079656
H 1.81252 2.35379 3.73856 1.69273 1.13646 0.042661
H 10.643 12.09 8.26647 -0.673874 0.318252 0.571377
H 3.18638 6.31037 1.06446 0.516916 0.286922 -0.589233
H 1.62337 5.09486 0.81179 -0.043279 -0.426509 0.429586
H 9.27667 5.31928 3.89494 -0.261258 0.123145 0.350708
H 2.53013 4.14175 9.82899 -0.637144 0.01899 -0.246701
H 12.395 3.221 0.88732 -0.261092 0.174216 0.389503
H 7.27755 12.0949 0.51451 0.66534 0.048847 0.921703
H 3.2578 8.32314 12.0473 0.03782 -0.322888 -0.4255
H 8.26035 9.08362 6.26097 -0.53222 -0.492703 -0.270982
H 11.6449 8.59658 10.1839 1.005323 0.270227 1.410898
H 3.97559 6.56773 10.9695 0.027136 0.491125 0.438527
H 12.286 2.48958 4.79603 -0.286394 -0.200401 -0.137445
H 6.18531 1.16966 10.537 -0.020645 1.533512 -0.224272
H 5.00209 7.43431 8.37989 0.198059 -0.34099 0.353757
H 5.64318 4.4528 11.9643 -0.643606 -0.216339 0.501014
H 2.45865 11.7376 10.1029 1.4474 -1.145856 1.18132
H 3.8991 8.01101 3.69719 -0.585478 0.253129 -0.031913
H 6.05715 5.77816 1.3472 -0.034702 -0.241791 1.10667
H 5.80838 7.00145 3.38509 0.219248 0.648473 -0.2406
H 2.91905 6.69773 2.56207 -0.189141 0.337751 0.390038
H 3.41259 4.42159 10.9764 -0.038102 0.426801 0.407499
H 5.79167 2.7418 10.5831 0.801023 -1.442929 -0.529183
H 2.99427 7.43752 4.74106 -0.824402 -0.461849 1.236007
H 9.26629 11.9356 9.85221 -0.486161 -0.228939 0.04944
H 2.57171 9.17792 0.73898 0.034059 0.751233 1.085839
H 7.77791 5.55751 3.12834 0.129193 -0.648523 0.443433
H 4.21461 2.5625 2.42179 0.728165 -0.526325 -1.644185
H 4.79008 12.0827 11.7011 -0.697482 -0.505266 -0.577724
H 3.56203 7.13237 6.85842 -0.922782 -0.735432 -0.802529
H 5.15126 0.70362 0.38513 0.236455 0.075421 -0.459616
H 11.0761 1.26504 10.8252 -0.329148 -0.169277 -0.196877
H 8.30172 8.12181 0.1379 0.387465 0.732144 -0.590813
H 10.6762 4.20732 5.84313 0.767175 -1.071008 -0.307221
H 11.2727 12.3093 6.91503 0.330236 -0.124659 -0.324302
H 4.37899 10.878 9.12765 -0.126791 -0.421631 -0.331862
H 10.1028 7.76831 3.46719 0.185831 -0.171016 0.037489
H 6.00832 12.012 7.52392 0.609516 0.582059 0.227409
H 4.89588 5.36857 8.92257 1.028909 0.827128 0.948617
H 11.0303 2.04246 5.61064 0.534162 -0.133222 -0.35412
H 7.57409 0.56104 5.61848 -0.846659 0.814221 0.954684
H 4.90162 3.22771 0.35494 0.22256 0.296449 -0.337792
H 8.84317 9.4384 11.8512 0.817875 0.309396 -0.024654
H 2.99989 4.44207 2.90117 0.523319 -0.218037 0.202753
H 0.97033 0.86522 10.1739 -0.056001 0.293649 -0.017141
H 5.40688 8.12357 6.9871 -0.017473 -0.602389 0.409372
H 1.51356 11.4652 5.00942 -0.072984 0.311012 -0.034941
H 4.8434 6.79497 12.2165 0.491884 0.210659 0.020215
H 11.8024 2.40899 11.5782 0.137164 -0.979255 -1.166498
H 1.59369 3.31248 8.15145 0.345174 0.317948 -0.172785
H 1.11328 0.31337 4.08071 0.485436 0.948583 0.030211
H 0.67464 2.06589 2.70603 0.367982 -0.620139 1.909328
H 7.37047 0.0477 8.15138 -0.191282 0.007903 -0.578972
H 11.3738 7.61852 9.01401 -0.122679 -0.609082 -0.21425
H 12.3809 5.64024 12.3731 -0.233169 -0.138403 0.063481
H 4.75197 9.68657 8.00951 0.067977 1.638944 1.166014
H 9.12282 6.70826 1.70889 -0.865779 -0.124943 -0.616862
H 8.25623 10.8065 9.27135 -0.215271 -0.318737 0.571084
H 10.7738 5.42738 8.97375 0.18317 -0.08393 -0.147026
H 7.32848 3.9801 6.05249 0.101066 -0.668262 -0.841671
O 7.77602 5.56577 6.76745 0.093201 -0.560733 -0.47588
O 11.0856 8.43545 9.43873 -0.840278 0.088841 -0.90031
O 10.7054 12.2579 1.40631 0.306494 0.339791 -0.413471
O 11.6335 6.26293 12.1838 -0.400036 -0.709453 0.010211
O 11.8812 9.92471 1.82612 -0.404951 1.322548 -0.244018
O 2.35485 2.92914 8.62648 -0.293056 0.552441 -0.268017
O 1.06317 1.79144 3.63028 -2.295914 0.610518 -2.156614
O 2.88064 5.97504 1.91165 -0.450614 -0.641809 -0.072245
O 0.80122 4.78755 6.82838 -0.105744 0.088925 1.244225
O 4.8268 3.96223 7.96291 -1.121348 -0.728275 0.602754
O 1.14173 11.7553 4.17004 -0.294953 -1.764061 -0.012763
O 4.9553 3.74737 11.8982 0.413934 -0.050641 -0.371716
O 2.58616 4.7797 10.5744 0.908127 -0.559522 -0.03055
O 6.84547 7.91297 5.97698 1.054725 -0.800732 1.217653
O 9.0386 9.65933 6.27474 0.327986 0.461722 0.300577
O 6.4015 2.0575 10.0956 -1.015482 0.272154 1.214808
O 6.24979 6.11761 0.44564 -1.20039 -0.364071 -0.546171
O 6.31726 5.40897 3.01709 0.521835 2.015346 -0.623458
O 9.75301 0.37273 11.1826 0.064964 0.140874 0.654735
O 9.03708 6.88238 0.7197 0.946008 -0.563445 1.50333
O 2.63037 9.07989 12.1898 -0.082819 0.455011 -0.589019
O 11.8256 1.87038 10.7381 0.837627 1.379784 0.999827
O 2.91091 7.88899 3.8844 1.62891 0.33233 -1.232158
O 4.67251 8.00145 7.65168 0.192445 0.959057 -0.681364
O 7.9335 12.0566 1.2686 -0.571176 -0.298601 -0.855026
O 1.45004 0.55777 9.37267 -0.918472 -0.351088 0.052656
O 8.69802 2.7934 11.392 -0.460257 0.334155 1.578579
O 5.25552 6.11749 9.53505 -0.818734 -0.945981 -0.956074
O 8.11931 12.3205 5.20001 1.086863 -1.264933 -1.210078
O 6.95172 3.17909 5.57001 -1.582924 1.238824 1.606843
O 10.1117 8.72581 3.55729 0.591779 1.040555 -0.506419
O 8.82652 5.60478 3.09037 0.15337 0.195456 -0.689399
O 3.25315 11.2713 10.5821 -0.438226 1.231612 -1.151589
O 2.03613 9.82086 2.32503 0.103637 -1.683378 -0.771472
O 4.80134 2.10985 1.67181 -0.883135 0.804552 1.516717
O 10.1758 5.015 5.88469 -1.456205 1.292946 -0.409675
O 9.28449 2.86659 1.7345 -0.623526 0.646455 -0.137889
O 11.0884 5.89423 8.15856 0.32624 0.696748 0.061571
O 6.71757 0.31991 7.46483 -0.56799 -1.114965 0.715493
O 7.91176 6.48352 9.52893 0.557842 -0.209102 0.054374
O 7.24507 9.52825 9.69395 1.551654 -0.477688 0.267319
O 4.97958 10.6324 8.38034 0.06551 -1.163842 -0.509204
O 3.9853 7.06291 11.8273 0.057411 -1.143531 -0.366011
O 3.29797 3.62949 3.37371 -0.293754 -0.579668 -0.120336
O 10.0894 5.0443 10.3925 0.190173 0.644348 -0.00901
O 2.96929 6.57211 6.22827 1.482132 0.09694 -0.157026
O 1.13334 4.45951 0.24817 -0.462463 0.431387 0.761604
O 7.33742 9.48515 2.39704 0.096038 0.717349 1.083182
O 5.55958 7.97574 3.62254 -0.68085 -1.920235 0.369032
O 11.5881 2.81197 5.40523 0.076983 0.429653 0.385517
O 11.4879 12.0264 7.82984 0.458504 -0.119953 -0.237201
O 7.21916 1.78247 3.10199 0.422111 -1.125436 -0.419071
O 0.09614 8.83118 11.883 0.893944 -0.956783 -1.452707
O 10.9748 0.22264 5.19668 0.690816 0.417351 0.91947
O 8.03755 9.01425 12.1174 -1.057565 -0.851142 0.689899
O 5.51429 0.23863 11.9918 0.3919 0.403913 0.863349
O 8.97737 11.4352 9.04154 0.001068 1.206478 0.141283
O 4.55619 4.61775 5.54265 0.812345 0.626501 -0.499955
O 11.8358 2.53922 1.32915 1.074396 -0.488238 -0.082458
N 1.52456 0.96515 0.12246 0.844051 -0.414616 0.98201
N 0.889 5.97322 3.98866 1.491622 -1.67414 0.338769
N 1.04071 9.85186 6.74615 0.158483 -0.04646 0.166447
N 9.84202 2.46393 8.59618 -0.529313 0.200333 -0.519083
N 3.26251 1.44899 6.13886 -0.057751 -0.085003 -0.108845
N 1.80156 9.89341 7.54784 -0.12681 -0.033054 -0.104818
N 8.91563 2.82484 8.10544 0.49196 -0.256714 0.401226
N 0.09319 6.70505 3.84707 -1.732844 1.511416 -0.340282
N 4.18169 1.76375 5.61203 -0.019349 -0.178909 0.062696
N 2.03994 0.65088 1.05635 -0.502752 0.192017 -0.969026
N 5.36132 10.0799 4.97442 -1.671693 1.523141 -0.440157
N 4.45229 10.6061 4.59292 1.506665 -0.839655 0.697857
Na 6.38119 2.4383 7.79329 0.144555 -0.032926 0.237448
Na 10.1283 9.9132 8.23699 0.485708 -0.517153 -0.782975
189
energy=-1066.83955683 config_type=nep2xyz pbc="T T T" virial="-3.8801114280895503 -1.3094635281661622 3.680830493107039 -1.3094635281661622 -2.774153409844319 3.645939074179013 3.680830493107039 3.645939074179013 -8.143945162909727" Lattice="12.4 0.0 0.0 0.0 12.4 0.0 0.0 0.0 12.4" volume=1906.6240000000003 Properties=species:S:1:pos:R:3:force:R:3
H 8.14717 2.36932 10.8501 -0.175466 -0.033234 0.106328
H 11.584 10.9602 1.40057 -0.011687 -1.093445 0.531141
H 9.34852 4.15435 1.14399 0.318483 -1.074083 0.17901
H 9.27156 2.46306 12.0413 -0.749951 -0.051485 -0.86742
H 1.60823 10.935 3.40409 -0.246006 -0.659818 -0.09075
H 5.91428 9.16339 2.46783 0.221265 0.983721 -0.265562
H 10.1426 0.77549 5.57895 0.732526 -0.076524 -0.168012
H 7.79492 5.27306 12.2693 -1.590086 -0.649011 0.41723
H 6.37582 8.30243 5.16273 0.390279 -0.212116 0.189934
H 6.70839 8.77838 9.78812 1.065978 -0.280114 0.347006
H 11.7303 0.65001 5.2233 0.21703 -0.53418 -0.371353
H 0.21189 4.4393 6.35022 -0.565408 0.050656 0.050284
H 1.33971 2.33659 9.02773 0.785112 1.267176 -1.139163
H 10.1877 12.1859 1.38845 0.512211 0.143849 -1.266164
H 3.1733 10.3581 11.5506 -0.571512 -0.292934 0.002572
H 1.23993 5.59921 6.38554 -0.201676 -0.073392 1.286168
H 3.40269 5.78339 5.81201 -0.60157 -0.047958 -0.05741
H 9.33203 9.30595 5.42534 -0.475217 0.665834 0.818947
H 10.6569 9.81883 3.21326 -0.705655 0.274522 0.340311
H 10.2176 5.40664 10.935 -0.026895 -0.68308 -0.39684
H 7.95995 0.72999 2.76772 0.682574 -1.242375 -0.421663
H 8.29225 5.06489 6.03319 2.101638 0.159322 -0.663425
H 4.37439 4.09235 6.97872 -0.140382 -0.354361 0.184821
H 11.8224 9.18249 0.22848 0.693369 -0.414496 0.208878
H 7.48461 8.04841 10.9836 -0.000575 0.307673 0.482312
H 7.48475 5.35961 7.31891 0.075605 0.138915 0.294062
H 0.17335 10.0745 2.19134 2.772789 -0.326611 1.343293
H 5.31192 5.04866 5.52379 1.620317 1.014613 0.097562
H 11.308 0.80507 0.93765 0.691819 0.933766 0.016685
H 9.84555 0.89527 10.6618 0.136413 -1.354218 0.232692
H 6.15235 5.58256 3.00751 0.035789 -0.447859 -0.465397
H 9.62163 3.94235 10.5325 0.096592 0.125016 0.252433
H 7.31465 1.64894 3.75888 -0.476527 0.389174 1.182538
H 3.52158 3.32825 8.18527 1.053952 0.354388 -0.365059
H 10.5604 11.9322 11.2812 -0.614607 0.975188 -0.570514
H 7.59897 6.94183 9.35393 0.147083 0.026563 -0.434513
H 5.52143 3.20326 5.40293 -1.175015 0.335 -0.376064
H 1.64961 4.77979 0.32204 -1.583408 -0.227265 1.212194
H 10.0736 5.79458 6.60954 -0.292887 0.132645 -0.665692
H 6.23251 2.08373 2.04496 -0.735638 0.076129 0.248983
H 6.96323 9.34953 0.47622 -0.817848 0.703712 0.621177
H 5.86405 5.76167 9.40227 -0.366479 -0.164073 -0.002733
H 9.06106 2.88763 2.07188 -0.733422 -0.427119 0.026398
H 11.731 7.13124 11.8139 -0.119471 -0.964959 0.490166
H 3.78286 4.21116 3.95589 -0.164761 -0.081034 0.109904
H 8.20364 5.55672 9.58869 1.038184 -0.805456 0.596386
H 6.4169 10.91 0.55551 0.015626 -0.352222 -0.10382
H 0.95839 12.0017 8.94981 -0.94261 -0.719679 -0.772737
H 9.02793 11.0776 2.94206 0.008438 -0.439221 -0.08238
H 0.84085 8.66413 11.9854 -0.234792 0.249077 0.402092
H 10.3166 5.96489 0.50098 -0.18731 0.017306 0.177577
H 2.0287 9.4161 3.47524 0.327786 -0.480619 0.203348
H 8.80467 11.2898 5.33193 -0.068248 1.259183 0.26134
H 7.08907 7.0776 5.846 -0.200657 0.352015 0.335003
H 11.6873 5.93308 7.50693 1.488969 -0.684274 -0.132424
H 11.0672 2.68993 1.54191 -0.674258 0.314014 -0.533594
H 1.55257 3.25283 3.19354 0.007093 -0.662605 0.708726
H 11.0901 12.282 8.86329 0.283699 -0.545962 -0.078882
H 3.48555 6.53223 1.15673 1.795688 0.308705 -1.716675
H 1.27025 5.30812 1.77216 0.368569 0.530149 0.27883
H 9.3777 6.59575 4.34772 -0.085753 -0.399296 0.385105
H 2.23147 4.07951 10.28 0.097589 0.321998 0.560965
H 12.3586 3.31097 1.02016 0.856779 1.081792 -0.025263
H 8.09346 11.2063 1.69716 -0.730563 -0.843763 -0.438512
H 2.85636 7.99509 12.0774 0.116665 0.83952 0.650363
H 8.03127 9.18243 6.33357 0.939273 0.27596 -0.18144
H 11.5125 8.70999 10.3777 0.164128 -0.003497 0.019189
H 4.03989 6.2299 11.0716 0.297623 0.953204 0.685155
H 12.3282 3.42182 4.64869 0.299249 -0.544737 -0.938524
H 6.48094 1.29276 10.7679 -0.726556 0.523155 -0.542909
H 4.91032 7.13924 8.30486 -0.6867 -0.921859 0.494082
H 5.64243 4.35111 11.994 -0.355456 -0.562965 -0.099098
H 3.10724 11.5572 10.4849 -1.167519 0.411692 -0.355949
H 4.0326 8.27242 3.78535 -0.364898 0.020364 -0.149795
H 6.81901 5.67473 1.37088 -0.548815 -0.537498 0.839856
H 6.02777 7.71777 2.76036 0.417846 -0.505695 0.327023
H 2.90232 6.96749 2.51738 0.1717 0.741065 0.884179
H 3.34561 4.14541 11.4351 -0.747093 -0.100847 -0.360713
H 5.76618 2.65912 10.4122 -0.790048 0.779599 1.01493
H 2.99526 7.57905 4.74645 -0.35137 -0.458461 0.305165
H 9.10024 11.5698 9.52893 -0.700658 -0.047785 0.259599
H 2.32057 8.93651 0.92688 0.22295 -0.390491 -0.903459
H 8.25099 6.61742 3.23551 -1.152498 -0.470962 -0.214716
H 4.71468 2.54298 2.40746 0.188129 0.077181 -0.070676
H 5.2214 11.9295 11.7758 0.091656 0.304068 -0.000895
H 3.28324 6.98535 6.77055 -1.010227 -0.550715 -0.587131
H 5.63723 0.53541 0.46708 -0.662576 1.069473 1.242393
H 1.26609 2.68147 11.0058 0.173506 0.571982 0.920664
H 7.0428 6.61311 12.3474 -0.903869 0.700834 0.367555
H 10.4145 4.85401 5.43757 1.140676 -1.168792 -0.645336
H 11.1086 12.2532 7.29449 1.0849 -0.395651 1.072384
H 4.74907 10.2129 9.66453 -1.361807 0.635737 1.311151
H 9.49739 8.89543 3.55012 -0.838073 -1.305207 -0.266325
H 5.77036 11.4893 7.29205 -0.078866 0.225304 0.117287
H 4.68042 4.92804 8.85996 -0.343048 -1.055033 -0.771776
H 11.3716 2.88184 5.69604 -0.760557 -2.403309 0.721534
H 7.92581 12.2475 6.11517 0.341541 0.389411 -0.460099
H 4.79845 3.03518 0.02254 0.582747 0.488771 -0.068718
H 8.10126 7.69518 0.50238 -0.534716 0.083003 -0.183276
H 3.27744 4.82721 2.60444 -0.156258 -0.797892 0.331805
H 0.99238 0.6316 10.0959 0.359199 -0.046649 -0.216917
H 5.35206 7.89291 7.04291 -1.06906 -0.235028 0.369341
H 1.44965 11.815 5.42798 0.239173 -0.007613 0.288871
H 5.07257 7.15517 11.7558 0.11633 0.191293 0.130161
H 12.3151 2.07614 11.6909 1.044797 0.41802 -0.623776
H 1.57509 3.64391 7.99167 -0.843073 -0.026044 0.205158
H 1.37572 0.64711 4.46521 -0.158668 -0.30936 0.161214
H 0.43872 2.28989 2.76192 -0.502903 -0.192349 -0.568041
H 6.92882 11.9215 8.14382 0.322789 -0.102561 0.204422
H 11.2654 7.92528 9.04152 0.029235 -0.95539 -0.249236
H 12.2809 5.71114 0.00814 -1.316875 0.476888 -0.573081
H 5.00929 9.12257 8.56038 0.078853 0.810272 0.573314
H 9.59964 6.19364 1.93006 -0.221975 -0.332283 -0.751122
H 8.04509 10.3982 9.53574 -0.132859 -0.255453 0.146512
H 10.6223 5.64671 8.61746 -0.21407 -0.536313 0.766461
H 6.94718 3.39129 5.61178 -0.10004 -0.54612 -0.099667
O 7.41625 5.10098 6.37933 -2.964351 -0.039819 0.54109
O 11.1267 8.75936 9.48382 -0.15719 0.745053 0.105855
O 10.9457 12.3561 0.71098 -1.513799 -1.431941 1.136582
O 11.4843 6.13489 11.9135 1.313435 0.187257 0.378746
O 11.7183 10.0447 1.8304 -3.478166 1.271075 -2.102857
O 1.92986 3.09341 8.71204 -0.14967 -0.799922 0.7161
O 0.85478 2.63063 3.55712 1.203042 0.675034 -0.007253
O 2.76736 6.42496 1.73624 -1.566743 -0.823291 1.185422
O 0.5761 5.11163 6.97139 1.229043 0.082523 -0.915481
O 4.42813 3.68124 7.91415 -0.713405 -0.479009 -0.214439
O 0.97483 12.1796 4.68208 -0.278516 0.737492 -0.855989
O 4.94691 3.67313 11.684 -0.082366 0.121329 0.448118
O 2.3524 4.26382 11.2498 1.005275 -0.228457 -0.375983
O 6.73104 7.98338 6.02927 -0.305619 -0.159425 -0.77212
O 8.89166 9.6894 6.23892 -0.36959 -1.181177 -0.624456
O 6.34735 1.98652 10.0681 1.591331 -1.42313 -0.358052
O 6.81734 5.39084 0.09243 1.958082 -0.199608 -1.467316
O 6.80838 5.9669 2.41347 0.235945 0.865249 0.892486
O 10.126 12.3237 10.4758 0.533062 0.758475 0.24676
O 9.47143 5.77949 1.03659 0.412283 0.372726 0.713026
O 2.37495 8.83661 12.3454 0.133028 0.047634 0.282428
O 0.51728 2.09156 10.8998 -1.367559 -0.955824 0.170727
O 3.07377 8.03772 3.88189 0.82902 0.383231 -0.165135
O 4.53761 7.75631 7.64691 1.644181 0.907809 -1.108849
O 8.7931 11.6435 2.17786 0.694062 1.101742 0.416891
O 1.54535 0.17748 9.41226 0.821234 0.682935 1.025097
O 9.09726 2.31266 11.0506 0.840551 0.128913 0.938698
O 4.87179 5.74264 9.33935 1.100862 1.570709 1.234511
O 8.63233 12.2799 5.42524 -0.31997 -1.280176 0.347635
O 6.32298 2.65486 5.39342 1.370496 0.023421 0.54705
O 9.81457 9.76642 3.77479 1.555836 0.815646 -0.456306
O 8.95306 7.12612 3.65501 0.953744 0.839214 -0.244168
O 3.66144 10.9986 11.019 1.784615 -0.021683 0.199036
O 1.52257 10.0581 2.9574 0.615913 0.9388 0.08376
O 5.28058 2.107 1.7465 0.340936 -0.172967 -0.460971
O 9.75124 5.47972 5.69738 -0.186448 1.345483 0.889329
O 9.43765 3.12226 1.21238 -0.101694 1.541951 0.03941
O 10.8957 6.26312 7.9413 -1.327114 1.328177 -0.058205
O 6.30359 12.2762 7.47789 0.475806 -0.541129 -0.128094
O 7.62357 6.00525 8.97968 -1.269595 0.603765 -0.570822
O 7.5904 8.34578 10.0415 -1.26817 0.898905 -1.205201
O 5.41842 9.87042 9.10158 1.246282 -1.552125 -1.80252
O 4.13858 6.92002 11.8013 -0.351888 -1.180248 -0.928319
O 3.26716 3.97895 3.12567 0.248601 0.784421 -0.363713
O 9.61603 4.89926 10.3271 0.287772 0.52747 0.103597
O 2.70057 6.47622 6.09892 1.913703 0.460147 0.265079
O 0.90745 4.79907 1.05155 0.631243 -0.764766 -2.278365
O 6.59499 10.0867 1.06373 0.63338 -0.168333 -0.323688
O 5.85448 8.56241 3.22383 -0.591652 -0.656975 0.227876
O 11.6401 3.67268 5.28331 0.210188 2.464407 -0.17104
O 11.4699 11.7626 8.10986 -0.996551 1.41659 -1.130234
O 7.70782 1.63976 2.8938 -0.042579 1.246057 -0.602295
O 12.2473 8.56053 11.9887 -0.671057 0.337848 -0.64745
O 11.0732 1.10535 5.75687 -1.207944 0.05671 0.753925
O 7.22195 7.75081 0.06797 1.116433 -0.290406 0.111121
O 5.98875 0.0223 12.157 0.148258 -1.184359 -1.335678
O 8.36598 11.1349 8.9992 0.372205 0.220772 -0.198278
O 4.50694 4.58607 5.41115 -1.815198 -0.677322 0.163814
O 11.9046 2.46909 1.09705 0.242669 -1.190357 0.348063
N 1.59557 12.1984 0.55046 -0.608279 -0.730105 -1.3756
N 12.0414 7.5106 4.32166 0.364172 -1.679524 -1.823981
N 2.69875 10.0187 7.54494 -0.107611 0.002367 0.031649
N 10.393 2.61482 8.38287 -0.493222 -0.008523 -0.360284
N 3.10943 0.73208 6.39565 -0.649405 -0.092056 -0.666395
N 2.33395 10.3402 6.55333 0.001563 -0.133159 0.118188
N 9.37973 2.54703 7.93941 0.426896 0.012053 0.235678
N 12.1775 6.76083 3.49933 -0.238471 1.677159 1.844191
N 3.84704 0.98077 7.16909 0.557767 0.329683 0.747301
N 2.01208 0.27182 1.44519 0.667872 0.775844 1.367005
N 5.44556 12.0555 4.00451 -3.47989 -1.539199 0.281756
N 4.41033 11.6093 4.09688 3.492071 1.473793 -0.3306
Na 6.18506 2.05434 7.77035 -0.287565 0.211269 -0.061709
Na 10.1526 10.0371 8.01076 -0.236321 -0.399619 0.116376
189
energy=-1065.96760894 config_type=nep2xyz pbc="T T T" virial="-6.214552038005302 -5.9923750968776615 -3.0670414052933554 -5.9923750968776615 -14.374122178081638 7.636365459111264 -3.0670414052933554 7.636365459111264 1.5868217481373421" Lattice="12.4 0.0 0.0 0.0 12.4 0.0 0.0 0.0 12.4" volume=1906.6240000000003 Properties=species:S:1:pos:R:3:force:R:3
H 7.89385 2.66963 11.1603 -0.898965 -0.21794 -0.766105
H 11.6494 11.7808 2.98187 0.64016 -1.986259 -0.024924
H 7.37448 3.86179 1.82449 -0.042666 0.949006 0.697918
H 8.48435 2.9668 0.09794 0.000517 -0.332307 0.961467
H 2.19996 10.8719 2.57859 0.1666 0.637721 0.142529
H 6.34869 8.21294 2.72422 -0.736631 -2.416522 1.43144
H 10.451 11.6154 5.4431 0.334908 0.248179 0.757819
H 6.51998 6.40216 0.44241 -0.378513 -1.188298 0.090463
H 6.32978 7.91938 4.86145 -0.199572 -0.30232 -0.624474
H 6.25818 9.64524 9.97127 0.089834 -0.551128 -0.776549
H 11.5272 11.0037 4.62282 0.772737 -0.779163 -1.120226
H 0.72685 3.8892 5.99047 0.036098 1.599719 0.498155
H 1.29919 2.15308 8.73435 0.3806 -0.015989 0.340773
H 11.9185 1.33588 3.67629 -0.039638 -0.256322 0.241477
H 2.82196 10.9819 11.093 -0.300446 -1.666915 0.871758
H 1.22192 5.39172 6.26997 1.44867 1.54222 -0.934779
H 3.36123 5.95697 5.6589 -1.001769 0.699169 -0.420716
H 9.13881 9.4696 5.03669 -0.070925 -0.436136 -0.855707
H 10.3844 9.44826 3.06833 -1.666517 -0.917407 0.948223
H 10.4696 5.59027 10.4903 0.563951 1.121398 0.518364
H 8.32649 1.3076 4.78864 0.489573 -1.387545 -0.243587
H 8.84921 5.51796 6.91872 0.248122 0.192783 0.056953
H 4.39331 4.58699 6.70965 -0.707376 -0.665677 0.00191
H 11.634 9.5137 11.7387 0.795073 -0.286877 -1.21239
H 7.20307 9.73119 11.1016 0.083278 -0.627953 -0.243758
H 7.75138 5.83472 7.94093 -0.292401 1.076953 2.718251
H 0.3448 10.4736 2.90049 1.816421 -0.509788 -0.583188
H 4.98208 5.7357 4.84781 0.140088 0.178685 -0.14583
H 11.4415 1.42288 2.24857 -0.560877 -0.629492 0.560981
H 8.86532 0.75897 11.6968 0.062362 -0.149986 0.85956
H 6.66243 4.69965 3.80109 -0.090892 -0.664982 0.466935
H 9.68879 4.31127 10.7089 -0.332962 0.080306 -0.421169
H 7.79392 2.63312 5.08285 -1.197024 1.197314 0.41581
H 3.37736 3.6886 7.71213 0.165964 0.149865 -0.219121
H 8.24226 11.7093 12.2106 0.189067 0.614145 -0.22022
H 7.56262 7.37709 9.76131 -0.506073 0.214213 -0.473699
H 5.67178 4.06297 5.59914 1.017474 -0.653908 0.327626
H 0.84401 4.4029 12.3967 0.331124 -0.079199 -0.192628
H 9.92567 3.48183 4.56667 -0.222536 -0.849076 0.007484
H 5.79389 2.26613 1.83769 1.726995 0.663506 0.409048
H 8.011 8.13107 1.04687 -0.491493 0.771098 0.837624
H 5.77429 6.37548 9.11513 -0.35441 -0.57551 0.016207
H 7.90079 2.65555 2.65089 0.157984 -0.141214 1.072556
H 11.7421 7.60333 11.6544 -0.24584 -1.271684 -0.302284
H 3.794 4.09622 4.23994 -0.502706 -0.409649 -0.724137
H 8.30618 6.09689 9.90833 0.561484 -1.036148 0.131984
H 8.18812 9.04423 2.30668 -0.095449 -0.013271 -0.079554
H 12.2907 12.2551 9.07647 0.31181 0.159318 -0.468543
H 7.14584 10.2419 0.76032 -0.08856 -0.573053 0.005502
H 0.75011 9.26226 11.1475 -0.304626 -0.040263 0.322691
H 9.55062 7.13492 12.2839 2.702256 0.229816 -2.176125
H 2.29392 9.39311 2.78099 0.352812 -0.998418 -0.019696
H 8.38382 11.1682 5.89169 0.340379 -0.852254 -0.446864
H 7.06523 6.93484 5.85338 -0.005346 0.362089 0.319959
H 11.8159 5.28601 7.36785 -1.144877 0.380718 0.042619
H 10.2178 2.92451 1.83449 0.946257 0.239878 -0.470008
H 1.67534 3.08792 4.12139 1.30292 0.132686 -0.423577
H 11.3666 10.2909 9.25563 -0.26991 1.846331 -1.335981
H 3.43633 5.90287 0.92986 0.441528 0.242667 -0.811415
H 0.89362 5.25433 1.31499 0.573452 0.131667 0.155103
H 10.0519 5.69469 3.73298 0.53665 -1.062021 0.586291
H 1.74144 3.46468 10.4435 0.183121 0.141918 0.247213
H 11.6529 3.43649 1.29337 0.464996 1.207059 0.055432
H 6.24082 11.3838 0.0417 -0.156686 0.369339 -0.248482
H 2.82486 8.62401 11.7467 -0.135 0.065472 0.200207
H 7.94708 8.93179 5.88396 -0.919741 -0.934101 -0.013237
H 11.9393 8.146 9.33923 0.278415 -0.30881 0.87918
H 2.42293 5.96481 11.4139 0.110658 0.386566 -0.085828
H 0.8108 0.57136 7.04044 0.327275 0.376507 0.000814
H 6.11507 1.56769 10.6075 0.232738 1.475209 0.037192
H 4.08564 7.51677 7.8726 0.126533 -0.132728 0.531224
H 5.07328 4.4382 12.35735 -0.120806 0.04961 0.355848
H 2.52503 12.1464 10.2397 -1.507103 1.614434 -0.921597
H 4.25212 7.65923 3.29017 -0.856121 0.435459 0.010785
H 6.39028 5.33159 1.5817 -0.176488 0.414782 0.21319
H 6.30189 6.51805 3.42078 0.276525 1.067906 -1.041748
H 2.87911 6.3191 2.27898 0.180667 0.911375 0.657067
H 2.76934 3.7175 11.6972 -1.816028 0.305076 -0.858969
H 5.74985 3.05964 11.0078 0.105467 -0.558215 -0.407352
H 2.94215 7.43487 4.19822 0.271026 0.29578 -0.974139
H 8.86447 11.8163 10.5079 0.0079 -0.123978 -0.843203
H 2.33685 9.71063 0.42991 -0.144896 -0.438251 0.511275
H 8.51973 5.85188 3.32258 -0.702605 -0.418773 0.146256
H 4.48842 2.48149 2.77597 -0.061147 0.748003 0.194493
H 4.61944 12.286 11.2971 0.133375 0.811188 1.285433
H 3.06987 7.39221 6.22071 -0.518944 -0.574003 -0.497387
H 4.85465 0.66287 0.36423 -0.232915 -0.130056 -0.632216
H 11.2139 0.85046 11.8012 -0.037563 0.387847 -0.148958
H 10.0258 10.7775 0.1809 0.060235 0.540931 -0.171076
H 11.4743 3.77768 4.70696 0.950927 -0.827966 0.02927
H 10.224 11.3717 8.90105 1.197527 -0.436336 -0.343285
H 4.23263 10.7737 9.10114 0.453476 -0.834078 -0.657792
H 9.66405 7.98486 3.39805 -0.274033 0.890993 0.236023
H 5.93206 12.1323 8.2977 -0.306808 -0.672988 -0.073349
H 4.61793 5.44515 8.5079 0.133288 -1.132757 -0.503641
H 0.09396 12.3165 5.91952 -1.50694 -1.1347 -0.725701
H 8.09914 0.10818 6.38654 -0.724337 1.126029 1.227196
H 4.53875 3.0017 0.37865 -0.01123 0.19333 0.34499
H 11.269 10.5414 1.1519 -0.903087 -0.64759 -0.724467
H 3.25187 4.15757 2.73373 -0.082901 -0.270895 0.522114
H 12.39342 1.03728 10.0249 0.562603 0.148748 -0.740542
H 5.0578 8.0598 6.82886 -0.356929 -0.163071 -0.453285
H 2.01782 0.1102 4.4121 -0.851143 0.629232 1.609757
H 3.82891 6.10966 10.8831 0.235887 0.442746 -0.507989
H 10.9892 2.32138 11.5529 -1.4399 1.920315 0.990926
H 1.48724 3.61615 8.24528 0.292912 -0.518742 0.691063
H 3.10314 0.62804 3.40392 -0.410434 -0.278953 0.340833
H 0.98915 1.98029 5.15344 -0.122506 1.369889 -1.117347
H 7.32598 0.0778 8.81193 1.354652 -0.68518 0.802021
H 11.2041 7.09085 8.26645 0.532937 0.501997 0.510317
H 11.6472 6.02165 12.2092 0.779289 0.174924 0.522096
H 4.83612 9.68607 7.94773 -0.431412 1.401924 1.559689
H 9.47089 6.66073 1.4047 -1.160527 0.745132 -1.765414
H 8.09151 10.7491 9.62729 0.60793 0.375305 -0.324432
H 10.6507 5.1937 8.48474 -0.005042 0.138134 -0.101011
H 7.07127 4.32847 6.31819 -0.422605 -0.670519 -0.398486
O 7.89814 5.63969 7.04546 0.430656 -1.217762 -3.463924
O 11.3812 8.03968 8.57951 -0.937745 0.352686 -1.475033
O 11.3555 0.8196 3.07002 0.57771 0.641114 -0.617136
O 11.2222 6.73043 11.7013 -0.143798 0.786858 -0.678726
O 11.8299 10.6591 3.03803 -2.985938 2.964014 -0.020992
O 1.88559 2.94032 8.86538 -0.99201 0.628504 -1.325256
O 0.85687 2.80714 4.53834 -1.354936 -1.712316 2.001847
O 2.97053 5.5617 1.68712 -0.680881 -1.003291 0.330308
O 0.68638 4.70225 6.61154 -0.863983 -3.035345 0.418885
O 4.28171 3.95967 7.49323 0.446898 0.091174 1.014477
O 2.55274 12.2738 3.68322 1.349991 -0.342557 -1.89168
O 4.4806 3.6886 12.0883 0.094535 -0.244262 -0.440231
O 1.79561 3.84594 11.3575 2.206408 -0.321942 0.473717
O 6.66091 7.8244 5.79154 0.055363 0.021756 1.006193
O 8.70044 9.52824 5.90009 0.965692 0.992453 1.058977
O 6.36654 2.52517 10.4276 -0.698795 -0.627963 0.098553
O 6.14153 5.50775 0.63162 0.421472 0.848625 -0.190762
O 6.97463 5.32507 3.15493 -0.028213 0.490583 -0.445239
O 9.07417 12.1989 11.8842 -0.156869 0.22926 0.229106
O 8.96066 7.00193 0.57169 -1.983568 -1.114293 4.324547
O 2.34678 9.46488 11.8888 0.211143 0.142406 -0.397677
O 11.4798 1.60367 11.2476 1.421513 -2.598718 -0.831028
O 3.2364 7.79886 3.28972 0.316033 -0.618817 0.844677
O 4.11734 8.15262 7.1348 1.086815 0.484487 0.24068
O 7.01332 10.7935 12.3494 0.281002 -0.004012 0.505502
O 0.49461 0.62988 9.24931 -0.54173 -0.04665 0.862191
O 8.6688 2.46739 11.6968 1.149924 0.322298 -0.419771
O 4.81225 6.18718 9.07766 0.112968 1.417819 0.664704
O 8.66876 12.0948 5.76201 0.404915 -0.037169 -0.588712
O 6.53342 3.55756 5.9447 0.133154 1.39952 0.081577
O 9.54196 8.99338 3.47005 2.047886 0.022139 -1.251789
O 9.40358 6.27961 3.35902 0.214682 1.699557 -1.022214
O 3.19196 11.5162 10.4022 2.100691 0.12742 -0.269006
O 1.84493 10.0449 2.21848 0.230215 0.180539 -0.16983
O 4.91494 2.00237 2.04628 -1.532278 -1.50611 -1.007334
O 10.6164 4.14409 4.56214 -0.820376 1.45161 -0.307374
O 7.63325 2.9459 1.77723 0.015791 -0.831254 -1.343001
O 10.9483 5.71042 7.71067 0.608823 -0.843552 -0.214982
O 6.59898 0.42526 8.30945 -0.943141 1.366514 -0.934702
O 7.55616 6.45602 9.42035 -0.265782 1.19855 0.820177
O 7.10613 9.22656 10.2443 -0.260671 0.89084 0.506924
O 5.03968 10.4141 8.63546 -0.273281 -0.382162 -0.513947
O 3.13305 6.63222 11.3103 -0.455062 -0.564478 0.548009
O 3.29933 3.5327 3.51253 0.467163 0.725896 0.246415
O 9.76756 5.06654 10.0904 -0.287101 -1.155942 0.211119
O 2.62025 6.6811 5.65935 0.775551 -0.38874 0.612053
O 0.29211 4.86126 0.68071 -1.285406 -0.185447 0.29061
O 7.49504 8.84359 1.6253 0.795518 -0.507114 -0.453906
O 5.88435 7.54795 3.42409 0.645354 1.013096 -1.304783
O 0.78766 0.5528 6.06942 1.32373 1.532293 0.586213
O 11.1818 11.089 8.61179 -1.14968 -1.596521 2.287711
O 8.34087 2.1924 4.43608 0.752664 0.414713 -0.730228
O 12.2007 9.06044 10.9795 -0.478763 0.677778 0.915158
O 11.3623 11.2407 5.54188 -1.512968 0.214749 0.650254
O 10.7301 10.1552 0.39339 1.067578 0.090096 1.252974
O 5.26354 0.35278 11.9278 -0.339832 -0.730163 -0.556527
O 8.63659 11.5803 9.52243 -0.296806 -0.728154 0.308519
O 4.52803 5.00381 5.2754 0.140636 -0.12896 -0.224266
O 11.0303 2.7073 1.31991 -1.418886 -1.038647 0.388731
N 2.05274 0.72827 0.62874 -0.036951 0.010159 0.002504
N 0.0461 8.01419 5.36156 -0.026082 0.09196 -0.713551
N 1.89258 10.7074 7.75998 0.015523 -0.188753 -0.013482
N 10.2822 2.92504 7.36501 -2.481573 -0.392247 0.444354
N 5.51618 0.90061 5.64368 1.53844 -0.303233 -0.716831
N 1.80172 10.5138 6.6765 0.110268 -0.231993 -0.02606
N 9.18078 2.82211 7.55014 2.44475 0.135576 -0.348601
N 0.26403 7.98151 4.27526 -0.177618 -0.062045 0.63716
N 4.50761 1.04168 6.04439 -1.659352 0.203373 0.579291
N 1.0303 0.4025 0.89183 0.095417 0.005693 -0.143918
N 6.41889 10.9367 3.4282 -2.806698 -1.945476 -0.588526
N 5.5191 10.2878 3.21778 2.642808 2.3341 0.684129
Na 6.25995 2.74495 8.07256 -0.263359 -0.189412 0.06736
Na 10.7297 9.56638 7.04157 -0.002177 -0.261946 -0.063776
189
energy=-1065.003673 config_type=nep2xyz pbc="T T T" virial="-0.6411952739634939 2.0569514876225368 0.3419644660012799 2.0569514876225368 -1.624402614772644 0.9573957829459552 0.3419644660012799 0.9573957829459552 -6.627929670782532" Lattice="12.4 0.0 0.0 0.0 12.4 0.0 0.0 0.0 12.4" volume=1906.6240000000003 Properties=species:S:1:pos:R:3:force:R:3
H 10.7724 1.51374 11.0128 0.331793 -1.848939 -0.560395
H 11.5425 11.6239 3.05451 0.082674 1.592659 -0.815435
H 8.45054 4.65554 0.75454 -1.986053 0.342146 1.505211
H 10.5863 2.50151 12.0921 -0.043831 0.186351 1.114478
H 2.30989 10.7204 2.70631 0.181966 0.55767 0.099478
H 4.52657 8.79799 3.01355 0.227795 1.093988 0.181526
H 8.68063 1.28877 4.79845 -1.242765 0.138226 -0.008092
H 5.84578 8.82602 11.6442 0.069535 -0.311371 -0.621938
H 5.64006 7.9415 6.14326 0.850638 -1.036334 0.246777
H 6.80091 11.4897 10.6779 0.590353 -0.321253 -0.79048
H 10.4467 1.14979 3.73115 -0.070374 -0.023373 0.028702
H 0.0035 4.21773 5.57465 0.246806 -0.016526 -0.3186
H 1.57021 2.96125 8.66023 0.024488 0.025497 0.260515
H 10.7535 0.31913 1.48124 -0.271276 0.20366 -0.939432
H 3.99361 11.4917 0.7645 -0.059775 -0.552138 -2.396838
H 1.49561 4.64774 5.80304 -0.133035 -0.049603 -0.61342
H 5.95889 4.1165 7.49915 0.413012 -0.859429 -0.826193
H 9.0182 9.30804 5.5778 -0.031222 -0.51886 -0.629311
H 10.6399 9.81293 3.02046 -0.251521 0.405062 -0.550534
H 12.236 4.77753 9.64495 1.385301 -0.200357 -0.909424
H 7.08441 1.3612 4.29448 0.907362 -0.295629 1.082952
H 8.74357 3.8133 10.755 0.695369 -0.348346 0.703059
H 4.56695 2.5235 8.85657 -0.025096 0.260228 0.212464
H 11.0684 9.55456 10.7585 -0.43887 -0.011418 -0.045701
H 7.53281 10.1206 10.4177 0.146401 -1.126725 0.290922
H 7.43705 4.35609 10.2395 0.605424 -1.266604 -0.327997
H 0.11353 10.5707 3.62229 0.155642 0.140176 -0.266948
H 4.56618 6.58095 3.7493 0.12163 0.339582 -0.05171
H 11.3022 1.69466 1.9547 0.002663 2.874608 -0.844221
H 9.72167 11.449 12.3064 0.070023 -0.447292 -0.227882
H 6.78602 6.4058 1.78462 -0.265219 -1.177628 -0.455338
H 11.3792 3.95692 10.5756 -0.320074 -0.464457 0.107722
H 7.60038 2.42618 5.95774 0.040511 0.839532 -0.058678
H 5.21164 1.24472 8.2727 -0.078354 1.258458 -0.489858
H 9.34388 0.52797 0.01706 -1.638485 0.792187 0.336886
H 7.9996 7.32071 10.2672 -0.708333 -0.143864 0.183808
H 8.13981 4.02957 6.08874 -1.127168 -1.669552 0.08134
H 3.99719 3.68448 11.96 0.181323 0.409299 0.141188
H 9.42957 5.15669 6.30418 -0.133148 0.760802 -1.186862
H 6.7277 3.10137 2.55517 -1.150768 -2.696256 0.683
H 7.35491 9.88306 1.09514 -0.465468 1.046832 1.319508
H 3.98115 7.42053 11.8718 -0.789512 0.798506 0.843096
H 9.65881 5.23012 0.09082 0.876848 1.420461 -0.279674
H 1.83491 5.35013 9.62558 0.467279 0.269421 -0.238179
H 3.56358 3.19883 3.19765 -0.612288 0.062016 0.059537
H 8.69171 8.39325 9.52284 0.723518 0.697126 -1.047654
H 8.29679 10.1169 2.29343 1.20723 -0.382556 0.701704
H 1.98191 0.37142 9.16048 0.337574 0.586414 0.20269
H 7.70073 12.1674 1.05374 -0.239784 -0.413834 0.548232
H 12.3553 9.19295 10.0023 -0.161781 -0.000143 -0.401853
H 11.3843 6.02887 11.4222 -0.547433 0.881056 1.320565
H 1.19302 9.94458 2.00879 -0.442399 -0.018164 -0.975607
H 5.32245 10.5657 6.77468 0.633309 -1.270466 -1.282558
H 6.86473 7.35291 5.40987 0.862434 0.053893 -0.344375
H 11.08 5.58223 7.65856 -0.301273 0.073399 0.028167
H 12.1047 3.63893 0.8356 -1.269888 -0.200606 1.10001
H 3.49979 4.53864 4.73582 -0.995133 -0.48676 -0.652002
H 11.5811 11.5477 5.57067 0.666295 -1.019375 -0.991318
H 1.45006 5.73169 12.1685 -0.341086 -0.260604 0.345151
H 3.19874 4.77065 0.32976 0.347574 -0.406887 0.221946
H 8.74017 6.73529 4.30488 -0.352127 0.370118 0.220871
H 2.95059 2.07602 10.2948 -1.241434 -0.328569 -0.285894
H 10.5266 3.7683 1.07291 -0.500643 0.465183 -0.226125
H 7.5257 1.18475 1.68854 -0.562109 0.022793 0.293093
H 1.8827 8.0646 9.93001 -0.298622 -0.537355 -0.205966
H 8.92996 9.24083 7.10105 0.158009 -0.301772 0.354993
H 10.5236 8.62001 8.6672 -0.161311 0.65133 0.392023
H 3.32701 9.60335 12.2634 0.548097 0.899106 -0.423501
H 11.5435 3.74199 3.33385 -0.593465 -0.340133 2.189231
H 4.96265 12.3335 11.7739 0.667623 -0.287561 0.213842
H 5.85288 6.32314 10.0728 -0.265988 0.265369 0.493671
H 5.88196 4.69461 3.06473 0.057487 0.602111 -0.33782
H 5.28571 10.0322 0.01608 -0.345199 0.706315 -0.061917
H 2.98056 7.27881 2.84649 -1.063143 -0.772881 -0.404226
H 6.71114 7.72153 0.88602 -0.396478 0.648387 -1.794742
H 5.0556 7.74365 2.0557 -0.476179 0.073629 0.162833
H 1.58831 5.70732 1.34097 -0.414333 -0.040425 -0.216833
H 4.35638 1.72644 10.8708 -0.168816 0.54638 0.065955
H 6.28857 1.01562 11.9287 -0.455402 -0.701438 0.035532
H 1.60069 7.08063 3.61804 0.355063 -0.573212 -0.823577
H 9.84471 0.13659 8.64223 0.081588 0.16124 -0.180077
H 1.92409 9.14959 11.0224 -0.43338 -0.620745 -0.114999
H 7.73624 7.42831 3.33572 -0.420169 0.131718 -0.974196
H 5.48119 2.13296 2.78124 -0.960386 0.072871 -0.183861
H 3.54441 0.57749 2.71106 -0.207828 0.053882 -0.171054
H 6.04046 5.66339 7.01466 -0.167948 -0.604133 0.134354
H 4.30544 11.5553 2.83389 -1.934765 0.762454 -0.259763
H 11.7707 11.3902 9.17805 -0.311838 -0.111621 0.340902
H 9.38266 8.90328 11.7463 -0.375487 0.302423 -1.05593
H 9.81836 4.52422 4.92778 -0.286974 0.981443 0.024492
H 10.9523 0.59862 5.49495 0.324305 -0.393683 0.367545
H 3.18477 11.4016 10.6806 -0.01846 -0.264175 -1.04811
H 9.91576 8.4569 2.8432 -0.529729 0.138459 -0.108888
H 4.31699 11.7223 8.7578 -0.093743 -0.334035 -0.787342
H 4.46316 5.88489 11.7571 -0.093256 0.722768 0.045166
H 10.8076 2.83491 4.46634 -0.246508 -1.278763 -0.01537
H 6.59538 9.78195 6.23375 1.044061 -0.011005 0.134537
H 5.49039 4.46116 1.55958 1.114386 0.052308 0.575905
H 9.88802 9.21123 0.71852 1.01927 1.205053 -0.685266
H 3.85428 3.04367 1.67532 -0.131848 0.159494 -0.337367
H 0.65408 1.00301 9.26113 -0.797829 0.179511 0.076697
H 6.29629 5.43984 8.88076 0.168395 0.682165 0.509307
H 6.08071 10.247 2.8403 0.359527 -0.169558 0.168015
H 2.82439 8.78252 0.99094 -0.20722 -0.545199 -1.288716
H 11.5815 12.197 7.89857 0.061927 0.222387 -0.825141
H 1.16241 4.09541 7.64471 -0.014483 0.076803 0.737349
H 5.45567 10.0876 4.34057 0.095078 0.21429 -0.172432
H 2.67701 5.13981 3.64977 -0.684093 -0.227968 0.022724
H 5.75273 11.4134 8.80909 1.198363 -0.371256 0.335677
H 9.65967 7.46086 8.19982 0.000622 -1.45465 -0.668565
H 2.90139 6.36953 10.2596 0.396691 -0.39342 0.047846
H 2.46314 10.3569 9.72833 0.381285 0.700216 -0.436246
H 10.8063 7.44442 11.9513 0.296896 -0.655525 0.163632
H 8.42871 12.072 8.8551 -0.722388 -0.631369 0.449782
H 10.1281 5.33568 8.84101 0.175769 -0.25792 0.040812
H 5.32426 6.02537 5.01448 0.21892 0.557727 0.162349
O 8.03001 3.52323 10.1956 -1.568164 1.888367 -0.21588
O 9.66284 8.41145 8.23344 0.438223 0.603792 -0.000589
O 11.3218 0.78741 2.10646 0.429152 -3.449953 1.820244
O 1.97016 6.24392 10.0232 -0.465175 -0.036511 0.28769
O 11.5875 10.8904 3.6511 0.218257 -1.392407 1.127248
O 1.43115 3.92671 8.60055 -0.419799 0.224424 -0.598856
O 2.68802 4.30996 4.19146 1.571217 0.67824 0.87868
O 1.3684 5.14968 0.55814 0.879355 0.397102 -0.225781
O 0.61092 4.68441 6.19251 -0.108324 0.217945 0.53766
O 5.17266 2.24783 8.15491 0.462298 -1.594505 0.284453
O 5.26032 10.0897 3.36763 -0.185515 0.609443 0.566269
O 6.29217 4.54877 2.17316 -0.97347 0.361311 -0.70322
O 3.7006 2.47326 10.7267 1.668061 -0.187346 0.559484
O 6.2164 7.11414 6.08377 -1.272551 1.166456 0.148989
O 8.48405 9.60405 6.31101 -0.439652 1.2153 -0.232199
O 5.67736 0.53882 11.326 0.130453 0.754408 -0.63516
O 5.98558 9.31796 0.05126 0.480802 -0.30528 0.195806
O 6.85884 7.35396 1.73218 0.347798 0.121845 2.227362
O 10.0817 12.3425 12.3672 1.383278 -0.721946 -0.381831
O 11.0537 6.54496 12.2564 0.051993 -0.360167 -1.513623
O 1.595 8.97456 10.1038 0.15733 0.673877 0.351836
O 11.5256 12.2787 8.86795 0.24751 -0.083864 0.298525
O 2.14244 6.66287 2.90623 0.471389 1.084304 0.854408
O 6.65423 5.92316 9.72333 0.274801 -0.814723 -0.525743
O 7.77177 0.71133 0.87899 0.222994 0.573169 -0.71557
O 1.57934 1.27442 9.26224 0.598819 -0.841123 -0.155999
O 10.6538 2.4315 11.1512 -0.033672 1.551433 -0.792969
O 4.44308 6.78689 11.334 0.895762 -1.488454 -0.935477
O 5.65379 9.86872 6.07359 -1.502045 1.375713 1.130822
O 7.58373 3.28456 6.49758 0.504733 0.807975 -0.243631
O 9.93306 9.35472 2.46858 0.230121 -0.563296 0.345086
O 8.28619 7.58681 4.09703 0.637716 -0.47997 1.136965
O 4.16169 11.1921 12.1835 -0.677537 0.027153 2.496414
O 1.67988 9.98537 2.81972 0.086451 -0.408923 0.813831
O 6.4411 2.08923 2.83449 2.439784 1.909059 -0.269356
O 9.18938 5.21055 5.32353 0.939012 -1.24669 1.095388
O 9.12215 4.44424 0.15474 1.397082 -1.170231 -0.944158
O 10.1442 5.66529 7.9266 0.261435 0.12969 -0.200056
O 5.1256 11.7472 8.16786 -0.970383 0.289251 0.32918
O 8.2119 8.26514 10.3421 -0.453293 -0.444326 1.575373
O 7.34681 10.9596 10.0143 -1.000033 1.902533 0.335474
O 2.91949 11.2484 9.70335 -0.050988 0.056694 1.432432
O 2.82179 8.76921 12.3829 0.141352 0.088829 2.023483
O 3.85955 2.56465 2.50899 0.212937 -0.568717 0.273344
O 11.513 4.86445 10.2475 -1.046882 0.244383 0.642672
O 5.59716 4.99348 7.58698 -0.355676 1.257558 0.418283
O 4.1362 4.43857 0.21852 -0.878167 -0.537785 -0.35021
O 7.4732 10.4432 1.93925 -0.82617 -0.453811 -2.11487
O 4.21063 8.03697 2.4837 0.375491 -1.288822 -0.577288
O 11.3069 3.67463 4.32983 0.82022 1.700981 -1.999162
O 11.3001 12.2292 6.15273 -0.913437 1.312042 0.664141
O 7.65377 1.07532 5.0988 0.75961 0.615519 -1.657555
O 11.395 9.41484 9.84983 1.03079 0.135822 0.199136
O 10.1852 1.48368 4.61091 -0.64684 -0.743807 0.032684
O 10.0189 9.52231 12.1536 -0.901688 -1.332752 1.764791
O 3.42469 12.0252 2.54319 2.249477 -1.000861 0.480405
O 8.93184 0.26148 8.28698 0.203278 0.205027 -0.129344
O 4.96921 5.79479 4.13894 -0.020443 -0.962128 -0.078716
O 11.3218 3.32645 1.39536 1.925384 0.280575 -0.653962
N 0.19939 11.782 11.6901 0.576999 -1.113463 1.255358
N 10.834 6.59433 2.88644 0.012264 0.026814 -0.034484
N 4.68506 8.68821 9.22186 0.325444 0.709203 0.995187
N 10.2621 2.58092 7.33276 0.546734 0.036494 0.155333
N 1.78828 0.46338 6.02006 0.10539 0.361781 -0.402758
N 4.46467 8.07491 8.33945 -0.303717 -0.642726 -1.037624
N 11.2912 2.46696 6.93927 -0.324068 0.129952 0.397196
N 11.7252 5.94857 2.81451 0.136558 0.030848 0.015041
N 1.80965 1.17263 5.169 0.005853 -0.338922 0.39584
N 0.41902 11.0737 0.1231 -0.276965 1.082286 -1.225812
N 0.79531 9.64685 5.60276 0.022921 -0.405406 0.229682
N 0.73953 8.54663 5.50357 0.05261 0.217224 0.003891
Na 7.84771 2.3297 8.47694 -0.164834 -0.339016 -0.304392
Na 9.04505 12.0284 5.94743 -0.250787 -0.420366 0.612857
189
energy=-1066.73923389 config_type=nep2xyz pbc="T T T" virial="3.5666836682920238 1.1447408062010411 3.4152891827523426 1.1447408062010411 -4.467589149174084 -2.171324416448341 3.4152891827523426 -2.171324416448341 -9.219795647086775" Lattice="12.4 0.0 0.0 0.0 12.4 0.0 0.0 0.0 12.4" volume=1906.6240000000003 Properties=species:S:1:pos:R:3:force:R:3
H 8.15102 2.33052 10.6457 -0.020787 -0.035387 0.604996
H 11.5985 10.9562 1.4391 -0.353077 -0.040163 0.104079
H 9.33085 4.22234 1.50861 0.637574 -1.392633 -0.935363
H 9.06931 2.63683 11.9315 -0.188708 0.175787 1.200973
H 1.45495 10.7997 3.60198 -0.014854 0.553423 0.299559
H 6.11075 9.33794 2.70606 -0.331367 -0.938845 0.18023
H 10.1717 0.52119 5.60985 0.855619 0.362092 0.365847
H 7.58848 4.98494 12.3085 1.870293 -1.363441 -0.201205
H 6.697 7.90682 5.00581 -0.260147 0.423595 -0.129903
H 6.62048 8.81412 9.80331 0.311047 -0.168252 -0.166118
H 11.8056 0.57136 5.39391 -0.82971 0.04261 0.348717
H 0.38039 4.67478 6.09182 -0.664873 -0.614033 0.663669
H 1.52722 2.29319 8.68648 -1.000732 -1.392438 -0.146761
H 10.0974 0.0184 1.08037 -1.890595 -0.360378 0.980604
H 3.30855 10.2568 11.5627 -0.100978 -0.001351 0.468165
H 1.5084 5.50497 6.56838 0.573695 0.888245 0.412907
H 3.3794 5.73131 5.80527 -0.326068 0.219015 -0.312223
H 9.37056 9.73285 5.39734 0.282164 -0.179126 -0.71272
H 10.6223 9.85435 3.13822 -1.326092 -0.112699 0.63814
H 10.36 5.41525 10.8187 -0.096966 -0.04587 0.225518
H 8.04606 0.72954 2.63513 0.632277 -1.609024 0.088659
H 8.25285 5.18581 6.09768 2.488926 0.023943 -0.807137
H 4.50796 4.02831 6.94917 -0.339912 -0.014718 0.249911
H 11.8474 9.10119 0.47739 0.762057 -0.068097 -0.694226
H 7.40093 8.16857 11.0214 0.427394 -0.236562 -0.031431
H 7.34293 5.38709 7.25335 -0.110777 0.343479 1.277621
H 0.09245 10.015 2.30473 2.512558 -0.123942 1.123147
H 5.35054 5.13756 5.42854 -1.233508 -0.799365 -0.10597
H 11.4267 0.81005 1.02791 -0.293855 -0.62856 -0.378134
H 9.66553 0.8941 10.5425 0.850864 -1.102628 0.612417
H 6.4756 5.41364 3.1136 0.122088 -0.015665 -1.129047
H 9.606 4.04929 10.5491 0.03575 -0.382648 -0.0205
H 7.74708 1.78144 3.7963 -0.00931 -0.40381 -1.008706
H 3.64224 3.43585 8.17689 -1.172804 -0.387741 0.041713
H 10.5757 12.2475 11.3115 0.645609 0.008838 1.548371
H 7.62325 6.94966 9.0642 0.13629 0.22325 0.516058
H 5.52242 3.08856 5.24128 -2.548234 1.634664 -0.841885
H 1.44006 4.60871 0.55299 2.4616 0.039932 -2.04017
H 10.2861 5.8875 6.41686 -0.476016 -0.351272 -0.058688
H 5.99366 1.85093 2.2767 0.90726 0.112749 0.668745
H 6.71007 9.19638 0.62775 -0.043376 0.859999 -0.175928
H 5.80863 5.9265 9.44104 -0.000912 -0.132471 -0.122077
H 8.73309 2.76231 1.74635 0.35087 -0.49922 0.342698
H 11.8081 7.00541 11.9952 -0.465696 -0.707335 0.202311
H 3.88064 4.27458 3.99589 -0.185826 -0.25565 0.190115
H 8.4045 5.55404 9.20882 -0.937692 0.732943 -0.04606
H 6.17222 10.7655 0.29914 0.236733 -0.240258 0.160284
H 0.82409 12.0448 9.14637 1.103931 0.177652 0.125182
H 9.01847 11.0348 2.86014 -0.126006 -0.803106 0.303564
H 0.64709 8.66902 11.8266 1.036513 0.486608 0.710758
H 10.1871 6.0369 0.698 -0.572224 -0.165577 0.117692
H 1.97198 9.33429 3.39664 0.248432 0.108996 0.128822
H 8.65861 11.4782 5.94711 0.036874 -0.978865 0.213055
H 7.178 7.0798 6.22243 0.088718 -0.29694 -0.2272
H 11.7842 5.88607 7.72031 -0.152992 -0.257889 0.259424
H 11.064 2.78586 0.93128 0.121188 -0.579625 0.671444
H 1.86429 2.96852 3.30369 1.007743 0.7496 -0.044186
H 10.9818 12.1258 8.98966 0.50274 -0.940647 -0.426566
H 3.25714 6.56415 0.82425 -0.742991 -0.097582 1.181465
H 0.92712 5.33711 1.80739 -0.102809 -1.043091 -1.206896
H 9.29593 6.61724 4.35479 -0.814729 0.896356 -1.359991
H 2.16429 4.22737 10.3506 -0.059393 -0.202358 -0.76168
H 0.09652 3.20304 1.09996 0.983714 1.445408 -0.076491
H 7.9084 11.1489 1.66114 0.794123 -0.172031 0.715957
H 3.10157 8.33668 12.0225 0.173844 -0.563269 0.412017
H 8.18711 9.11427 6.22668 0.204604 0.090256 -0.086792
H 11.5122 8.81953 10.2953 -0.08471 -0.076444 0.392569
H 4.04334 6.54033 10.8355 -0.305685 -0.554062 -0.626399
H 12.0831 3.52678 4.35648 -0.135237 -1.077358 0.288879
H 6.06727 1.15756 10.4292 0.306417 -0.070011 0.381576
H 4.65502 6.9983 8.33026 0.135122 0.921075 -0.395037
H 5.50913 4.48157 11.7388 -0.069794 -1.264344 0.800825
H 3.05194 11.4244 10.5792 0.977808 -0.404242 0.590186
H 4.04481 8.34067 3.96821 0.944046 0.505187 -0.459766
H 6.95782 5.83822 1.47824 -0.901913 -0.375026 1.924368
H 6.12835 7.72249 2.80712 -0.244364 0.809043 0.027611
H 2.95669 7.09939 2.34415 -0.090535 -0.358521 -0.398985
H 3.25687 4.0749 11.417 0.91814 -0.196446 0.12103
H 5.7547 2.66159 10.5804 0.127743 0.011038 0.330494
H 2.98823 7.49404 4.71417 -0.390505 0.557255 -0.618293
H 8.69026 11.4234 9.87811 -0.41602 -0.76295 -1.027656
H 2.44819 9.03835 0.89764 0.156225 -0.051428 0.592405
H 7.99831 6.99844 3.39344 0.890292 -0.351608 0.033407
H 4.54285 2.4752 2.18597 0.1951 -0.094575 0.183563
H 4.92504 12.1397 11.7696 0.824127 0.039687 0.780405
H 3.14675 6.98147 6.67115 0.272098 0.686231 0.680718
H 5.77826 0.56926 0.52907 -0.398675 -1.170985 -1.978553
H 1.19984 2.79301 10.9656 -1.413418 -1.180741 0.398493
H 7.1225 6.50539 12.21475 -0.768461 0.235023 0.327068
H 10.27 4.62051 5.5021 1.424404 -1.604292 -0.721806
H 11.5374 0.1639 7.6908 0.163283 1.621732 -2.071084
H 4.90378 10.1344 9.87623 0.647692 -0.641638 -1.617636
H 9.4254 8.83947 3.58503 0.353691 0.650241 0.090837
H 5.66669 11.6231 8.01665 0.411589 -0.217607 -0.076921
H 4.66767 5.01196 8.90683 -0.018232 -0.736398 -0.597042
H 11.2916 2.59351 5.49231 0.46262 -0.129884 -0.663225
H 7.92162 0.39091 5.75327 0.172316 -0.161562 -0.253502
H 5.02496 3.18829 0.22245 0.504704 -0.015286 0.226159
H 8.15617 7.57149 0.56048 0.44617 0.172793 0.101729
H 3.23237 4.73382 2.66565 -0.29272 0.903786 -0.828798
H 1.38539 0.70197 10.0849 -0.147175 0.306587 0.383094
H 5.43268 7.64967 7.13307 0.78765 0.310211 -0.923578
H 1.49588 12.013 5.42185 -0.401606 0.381936 -0.718703
H 5.10252 7.04928 11.7548 -0.611027 0.081761 0.453688
H 0.0765 1.8957 11.768 0.670589 0.68778 -0.609629
H 1.32875 3.86119 8.3686 0.283392 -1.153674 -0.313887
H 1.28885 0.78014 4.38968 0.085399 0.377499 -0.256329
H 0.60465 2.52099 2.50242 -0.046872 -0.280807 0.603509
H 7.21315 11.8884 7.95488 -1.574082 0.087428 -0.20582
H 11.0468 7.74477 9.22629 0.332893 0.845605 -0.07183
H 12.0339 5.44896 0.1132 -0.146786 0.72391 -0.336321
H 5.05476 9.09288 8.55193 -0.360264 -0.142814 0.0774
H 9.2604 6.29215 2.01705 0.200654 -0.107344 -0.230955
H 7.73058 10.2381 9.23267 0.357166 0.431776 0.419283
H 10.347 5.78331 8.59032 1.682027 0.648156 -1.454287
H 6.88676 3.27282 5.722 0.113104 0.328199 0.036967
O 7.33717 5.23143 6.30502 -2.859708 -0.515688 -0.685151
O 11.2125 8.70551 9.38124 -0.170546 -0.793541 -0.311402
O 10.9554 12.3984 0.69889 2.131847 0.559027 -0.415994
O 11.4074 6.07242 12.0419 0.535841 0.398748 -0.00031
O 11.6565 10.0764 1.88351 -2.547244 -0.026901 -1.474417
O 1.90743 3.14581 8.75259 0.848178 2.728462 -0.014259
O 0.96272 2.65493 3.40011 -0.79589 -0.664926 0.067027
O 2.67666 6.45529 1.64535 0.92487 0.233039 -0.346886
O 0.73293 5.03662 6.9316 -0.437986 -0.448916 -0.367199
O 4.5178 3.71919 7.91953 1.211847 0.322847 -0.640006
O 0.95838 12.3128 4.65692 0.023494 -0.67062 0.655972
O 4.9746 3.60441 11.7483 -0.439078 0.997785 -0.985854
O 2.37476 4.43899 11.2581 -0.628524 0.241256 0.770701
O 6.82395 7.95275 5.96757 0.171508 -0.008376 0.218903
O 9.01187 9.65032 6.29713 -0.708641 0.035061 0.216192
O 6.34709 2.02781 10.1017 0.105377 0.087275 -0.643987
O 6.75238 5.38658 12.2416 -1.355137 1.170813 0.104032
O 6.91268 6.05049 2.51598 -0.351426 0.121343 -0.716985
O 10.0964 12.3686 10.5063 -1.390354 0.988877 -2.196649
O 9.31775 5.80762 1.15854 0.447763 0.294977 0.475018
O 2.40295 8.93149 12.3506 -0.173513 0.677657 -1.161266
O 0.48683 2.08293 10.8823 0.855353 0.415277 0.205317
O 3.10476 8.15516 3.9573 -0.645545 -1.130341 0.648559
O 4.70661 7.83276 7.7248 -1.293137 -1.056899 0.644927
O 8.65184 11.5986 2.16212 -1.020701 1.013571 -1.374575
O 1.69873 0.02571 9.45632 -0.994905 -0.515255 -0.397762
O 9.06403 2.32463 11.0266 -0.329957 0.110643 -1.596607
O 4.83724 5.88656 9.305 0.329506 0.527935 0.963862
O 8.69362 12.2904 5.43264 -0.570315 0.994649 -0.008715
O 6.23395 2.57641 5.5457 2.849956 -1.755341 0.816455
O 9.78238 9.76688 3.73587 0.917386 -0.539617 -0.694601
O 8.95358 7.21292 3.58312 0.451627 -0.87348 1.347338
O 3.78054 11.0082 11.1488 -1.248363 0.601025 -1.512459
O 1.52358 10.0886 2.95823 0.315324 -0.679398 -0.219684
O 5.25111 2.01504 1.69538 -1.074289 0.26117 -0.727409
O 9.77388 5.39474 5.71145 -0.744741 2.279788 0.267217
O 9.49406 3.20118 1.31138 -1.018853 1.82747 0.035888
O 10.9083 6.30425 7.90031 -1.277898 -0.590334 1.438863
O 6.31586 12.1882 7.55897 1.524869 -0.069578 0.496807
O 7.65689 6.02149 8.72558 0.568989 -0.89599 0.38286
O 7.44439 8.30058 10.0267 -0.598791 0.438503 -0.233644
O 5.47514 9.8148 9.08834 -0.488066 1.4012 1.853064
O 4.12458 6.95223 11.7028 1.085393 0.605951 0.428536
O 3.33807 3.95298 3.198 0.498963 -0.873292 0.302052
O 9.65328 4.98069 10.2881 0.150863 0.483545 -0.514749
O 2.67707 6.47279 6.00547 0.987742 -1.08768 -0.628081
O 0.69844 4.65712 1.10021 -1.827748 1.391982 2.828252
O 6.5143 10.126 0.96747 0.227909 -0.635569 0.363073
O 5.83159 8.55838 3.26155 0.510217 -0.139884 -0.278179
O 11.4878 3.49685 5.13417 -0.290196 0.905523 0.428646
O 11.4598 11.7646 8.16201 -0.60544 -0.587557 2.880711
O 7.77868 1.63015 2.82357 -0.821509 1.981028 0.84772
O 12.1067 8.69177 11.9918 -1.665354 -0.483768 0.092563
O 11.0437 0.93777 5.92472 0.30518 -0.199924 -0.744269
O 7.30671 7.67404 0.12918 -0.305827 0.494302 -0.348051
O 5.84783 12.3654 12.0984 -0.746653 1.136666 1.027194
O 8.28727 11.0217 9.04082 0.401003 0.338134 0.520405
O 4.5017 4.6065 5.35619 1.137219 1.093963 0.675136
O 11.9844 2.40305 1.03971 -1.542285 -1.112655 -0.534911
N 1.53236 12.1915 0.54666 0.279655 0.160716 0.381711
N 12.0914 7.47209 4.49313 -0.14175 0.783042 1.376193
N 2.78002 10.0151 7.58503 0.291033 -0.477083 1.220877
N 10.4752 2.62471 8.31987 1.72431 0.431044 0.382909
N 3.12976 0.71361 6.31084 0.246213 0.266714 0.298707
N 2.44521 10.3871 6.60982 -0.478397 0.354424 -1.129688
N 9.44563 2.38012 8.04573 -1.813217 -0.353249 -0.47992
N 12.1982 6.94386 3.53985 0.203386 -0.796106 -1.374575
N 3.84584 0.91494 7.12711 -0.199085 0.100675 -0.124814
N 2.03851 0.21635 1.43575 -0.167968 -0.132687 -0.391155
N 5.35768 12.1616 4.08118 0.480047 0.241946 -0.064028
N 4.43614 11.5615 4.1408 -0.423471 -0.349518 -0.004595
Na 6.14799 2.03803 7.74014 -0.266728 -0.083633 0.400301
Na 10.1559 10.0038 8.02125 0.078907 0.010982 0.387852
