191
energy=-1082.14434654 config_type=nep2xyz pbc="T T T" virial="-1.2403352019202882 -3.741224064409812 -0.4288598074107086 -3.741224064409812 -11.126149963312939 -1.486038860381049 -0.4288598074107086 -1.486038860381049 -2.770857051371242" Lattice="12.4 0.0 0.0 0.0 12.4 0.0 0.0 0.0 12.4" volume=1906.6240000000003 Properties=species:S:1:pos:R:3:force:R:3
H 7.0436 8.15872 4.41896 -0.04951 0.291312 0.046447
H 10.4412 2.10853 7.53516 2.415429 0.203954 -0.895923
H 7.50268 6.57402 0.87029 -1.120612 -0.706339 -1.559746
H 2.80575 9.0924 4.05869 0.009786 0.625952 0.235437
H 2.7403 3.39083 5.22136 -0.641978 0.625601 0.650378
H 10.7358 3.18036 5.52193 -0.750063 1.054571 -0.327768
H 11.7431 2.53519 6.35828 0.327154 -0.26129 0.261925
H 7.19759 6.93662 3.39293 0.075356 0.611129 0.124085
H 3.60087 5.46408 4.23658 0.131155 -0.340445 0.415231
H 7.1971 5.96679 6.91248 0.031348 0.450822 0.755944
H 6.34627 2.24698 5.78727 0.169778 -0.098144 -0.410305
H 4.19586 2.99563 4.88773 -1.845204 -0.731673 -0.639908
H 6.98095 6.30541 5.4064 1.041207 -1.10588 0.686321
H 4.0706 11.3246 4.3002 -1.090526 -0.706673 -1.231222
H 7.4666 5.69898 11.9348 0.334537 -0.140825 -0.055683
H 4.55685 6.69985 10.3732 0.327642 0.131442 -0.40925
H 7.17577 3.62245 10.1125 0.824935 -0.004902 1.532266
H 0.70212 12.1353 1.36112 0.010188 0.139384 0.046465
H 0.11176 10.619 11.8131 -1.356237 0.578149 -1.148197
H 12.1712 4.88263 8.48794 -0.287612 0.360393 0.054121
H 0.32025 2.64514 8.60563 0.593902 -0.192455 0.161225
H 0.82139 7.92095 9.17948 1.698408 0.235401 -0.341259
H 11.7758 9.62011 10.0929 -0.128866 -1.651509 -0.018837
H 10.7876 0.27044 1.52442 4.592728 -0.083045 -0.152659
H 2.97694 7.59673 3.72914 -1.032521 0.542352 1.149729
H 1.74031 1.71285 4.13939 -1.366924 -0.520458 -0.235856
H 4.88774 4.24981 8.49663 -0.568122 -0.413445 -0.027823
H 3.53562 4.62719 9.0906 0.181441 -0.448116 -0.622018
H 9.38394 11.325 2.74924 0.0901 0.386895 -0.527581
H 9.86154 1.39235 5.41779 0.578029 0.254411 -0.056847
H 3.82593 1.42608 1.98306 -0.261741 -0.10986 0.687712
H 0.18706 1.55461 4.64575 0.366018 0.254564 -0.382512
H 4.95387 6.27004 3.79216 -2.493893 -0.244119 -0.124901
H 6.51252 1.39063 7.0836 -0.522706 -0.121555 -0.124978
H 7.40361 4.0679 11.8488 0.357571 -0.253269 0.166553
H 4.21457 10.1227 9.85058 -1.096511 0.269629 -0.776606
H 9.06155 3.77702 3.28062 0.903526 1.1952 -0.522342
H 0.5963 9.55104 0.45263 -0.047407 0.021901 0.431057
H 2.62772 5.83275 10.9078 0.919096 0.183259 -1.602074
H 9.61193 12.0711 4.06949 -0.468287 -0.191267 0.397214
H 10.6932 5.36153 8.50976 0.324485 0.307877 0.504199
H 2.89226 4.41076 0.4701 0.83543 0.096806 0.367148
H 2.09573 9.69398 8.72132 0.057244 -0.158174 0.295594
H 2.52978 6.80556 9.5689 0.983631 -0.974522 0.533576
H 1.78041 7.90152 7.871 -0.5762 -1.084447 -2.738057
H 2.63835 11.187 5.59631 0.236238 0.303494 0.378466
H 10.7972 11.8699 9.76798 -0.064964 1.180535 0.195913
H 0.90799 6.08731 0.05931 -1.567243 0.441818 0.553097
H 10.8102 5.59241 5.78068 -0.233372 0.67067 0.248814
H 1.12307 8.7805 2.70153 0.145373 -0.132432 0.275212
H 8.7508 5.9045 2.51314 0.517064 -1.200532 0.441573
H 9.26568 5.27704 5.95212 0.185717 -0.059112 -0.182589
H 8.05645 12.3741 7.16344 0.046051 -0.668219 0.231393
H 0.31145 0.82692 2.47125 0.440858 -0.349743 -0.64191
H 9.09878 7.37197 2.29436 -0.433534 -0.097573 -0.271951
H 5.70737 2.17092 8.99259 0.289156 -1.049383 -0.708612
H 0.74189 7.75154 1.62147 -0.190006 -1.032128 -0.43666
H 4.00749 11.4088 6.27752 0.114268 -0.187536 0.177298
H 8.9544 4.46998 9.97481 -0.355737 -0.193275 0.590617
H 2.50246 10.974 7.87633 0.209038 -0.372609 0.138565
H 9.86943 4.41821 12.2991 -2.164908 -0.272169 -1.313551
H 3.15396 2.12862 7.86559 0.005097 -0.9703 0.490145
H 8.8737 10.1732 7.72444 0.242711 -0.728044 -0.107597
H 4.33128 5.14087 2.14244 0.031896 0.45667 0.221403
H 9.51499 1.33745 8.34024 -0.046506 -1.213484 1.25484
H 1.67407 7.59428 5.79794 0.270691 0.315902 -0.985703
H 6.54201 6.97614 8.92931 -0.168411 -0.006734 0.315124
H 5.47488 3.15113 1.82785 -0.283641 -0.05802 0.325057
H 2.98793 11.5218 3.07447 0.59157 -0.068343 0.833143
H 2.46721 11.0615 12.1599 -0.170052 0.09571 -0.225688
H 11.6878 6.89841 9.58912 0.343701 0.695496 1.360071
H 6.24777 3.25541 3.92839 -0.753296 0.085371 0.598014
H 11.7285 5.84984 0.18013 -0.11025 -0.483244 0.374593
H 8.28531 9.36902 5.84631 -0.269244 0.309233 0.046374
H 8.38212 2.02366 3.75879 0.592783 -0.39776 -1.19584
H 6.26563 10.9118 5.49709 -0.636665 -0.684756 0.138985
H 1.43067 4.15382 0.01394 -0.660654 -1.006332 0.06238
H 0.24555 7.31383 6.2832 -1.292557 0.050986 -0.362266
H 12.0587 1.18855 9.82353 0.310544 -0.073368 0.404798
H 5.8044 12.3245 5.57977 -0.251387 0.591615 0.260843
H 0.97035 3.48928 7.34993 0.321076 0.213251 0.180679
H 5.3757 5.3383 0.89663 -1.07099 -0.825016 0.804424
H 8.43831 1.15497 5.87484 -0.651171 0.188263 -0.511689
H 7.87599 6.1367 8.69012 -0.558134 1.102157 -0.220862
H 0.38623 2.18815 0.60069 0.073601 0.053352 -0.480919
H 8.14622 10.1035 4.43042 -0.256613 -0.166336 1.074741
H 10.3318 7.93539 6.37817 0.685141 -0.283752 -0.788171
H 2.849 0.70783 7.20761 0.384286 0.197138 1.243819
H 0.41742 2.16517 10.8352 -0.096917 -0.201903 -0.027027
H 11.9107 7.41069 11.1786 0.467616 -0.255712 -0.800931
H 3.3704 0.42194 1.00314 -0.502932 -0.620836 -0.482269
H 9.58096 0.66318 0.57796 0.376033 -0.093286 0.062997
H 7.71946 11.8585 8.57971 -0.43919 0.156293 1.299831
H 2.9157 4.42561 7.15714 -0.410141 0.333942 -0.235107
H 10.1399 4.79026 3.97243 -0.780252 -0.035759 -0.029131
H 5.29737 9.15188 10.3001 0.065853 -0.540383 0.094738
H 10.1234 0.81657 10.4128 -0.788858 -0.089977 0.656618
H 1.86077 5.45212 6.42118 -0.125806 -0.353906 0.394822
H 10.2309 4.35768 1.38858 -0.555815 0.103679 1.308619
H 8.58007 2.2543 11.5705 -0.621475 0.66321 -0.136664
H 6.5066 0.316 9.80518 0.029663 -0.273589 0.110126
H 8.96554 1.5899 2.31886 0.371536 0.080794 0.277332
H 6.63744 2.19775 2.20263 -0.339929 -0.08724 0.162906
H 3.97847 11.1891 11.8274 0.235212 -0.21599 -0.315677
H 11.7603 3.34607 0.21119 1.417087 -0.437502 -0.683547
H 6.02856 6.84966 10.9456 0.247217 -0.043548 0.819516
H 11.3085 8.70583 2.74637 -0.980809 -0.329026 0.910158
H 4.88969 0.9655 8.34498 -3.690997 -1.06999 -0.575123
H 12.2975 10.5218 8.94042 -0.087448 -0.090891 0.832712
H 9.12007 8.63709 8.17325 -0.613698 -0.422061 0.757966
H 10.7723 8.00008 4.85086 0.084852 -0.388421 0.159682
H 6.87668 3.83867 8.7087 0.277056 0.180819 -0.827323
H 6.50459 4.23047 5.15851 1.073494 1.456299 0.859822
H 8.0253 0.68157 11.4264 0.445815 0.871414 -0.254767
H 6.34185 11.2213 10.208 0.166029 0.44841 0.376797
H 9.32386 4.01255 8.51696 -0.039037 -1.020441 -0.318891
H 10.2027 9.51833 3.5419 -0.144203 0.783012 0.087957
O 6.42917 3.54309 9.49935 -0.819103 0.060038 -0.764369
O 9.01392 1.03819 5.1008 0.068524 -0.255552 -0.087894
O 7.33512 6.92291 8.35971 1.024875 -1.338646 0.06441
O 5.95209 3.53371 4.83931 -0.678792 -1.235193 -1.308563
O 5.42015 11.4219 5.56817 1.13147 0.148078 -0.541088
O 5.44911 7.11982 10.2267 -0.355431 0.45606 -0.30942
O 5.73036 1.2926 8.46819 3.613855 2.032945 1.874183
O 2.1153 4.50187 6.56331 0.507862 0.064398 -0.180169
O 9.49445 4.71112 3.23629 -0.140466 -1.418989 -0.164481
O 6.95354 11.9995 10.3146 -0.352581 -0.047706 -0.501813
O 9.88932 0.35395 1.46487 -5.302727 0.403879 -0.174615
O 6.872 6.23998 0.07639 0.622545 0.686164 1.339841
O 3.05573 1.1644 8.08806 -0.260032 0.78094 -1.699772
O 0.84703 10.29 12.2788 2.073231 -0.184932 1.000847
O 0.83242 1.3104 3.95163 1.030555 0.438401 0.371504
O 3.94408 3.99217 8.41549 -0.032712 1.034859 0.736783
O 2.36289 8.24249 4.22223 1.085199 -0.825385 -1.295551
O 9.26633 9.2784 7.49234 0.352487 0.855844 -1.070725
O 0.01139 6.53275 0.24549 1.584315 0.070904 -0.530674
O 0.128 0.49458 1.53297 -0.234285 0.368369 0.598465
O 10.4687 8.61868 3.3233 1.144988 -0.539602 -1.111404
O 10.1604 4.87906 5.834 -0.042187 -0.690142 0.075224
O 5.67942 2.35192 2.37226 0.652007 0.463413 -0.46126
O 3.1102 6.06068 10.0322 -2.255487 0.471867 1.199382
O 9.07404 4.76571 9.05188 -0.062473 1.007077 -0.699415
O 11.9275 7.69552 10.2255 -0.469837 -0.328568 -0.854647
O 8.79632 1.30241 11.5042 0.308292 -1.417958 0.352916
O 8.42265 6.69188 2.05564 0.151878 1.724058 0.184441
O 8.09823 11.5957 7.74793 0.420266 0.334922 -1.234442
O 1.15807 7.05217 6.40052 1.187037 -0.317547 0.770811
O 11.1541 2.32097 5.60185 1.279351 -0.288419 0.223826
O 7.39436 5.59163 6.04111 -0.775583 0.689796 -1.77562
O 3.25022 10.9348 3.8306 0.797204 0.659603 0.123361
O 4.67424 4.73504 1.33097 1.361642 0.236056 -1.432575
O 0.50226 8.59956 1.97976 -0.507481 1.020014 0.393329
O 7.6313 9.65568 5.16585 0.513055 0.027428 -0.991887
O 8.49986 2.3197 2.79617 -0.886449 -0.018179 1.13812
O 2.06953 4.83978 0.23776 0.1309 1.113067 -0.640525
O 1.78232 8.0494 8.78401 -1.304833 0.303622 3.868012
O 0.26532 2.90182 12.3244 -1.468639 0.217935 1.058552
O 2.34543 10.6354 8.79319 0.028929 0.797103 0.26202
O 10.9114 7.49187 5.69956 -0.494508 0.792777 0.764308
O 0.56292 1.58911 10.0379 -1.26406 0.890113 -0.31033
O 6.63951 7.31643 4.10967 -0.350941 -0.886954 -0.117572
O 10.6518 0.46646 9.68651 0.565686 -1.16511 -0.813181
O 3.21531 2.72692 4.72356 2.362144 0.106545 -0.002655
O 8.25201 3.96603 11.3907 -0.098779 -0.202156 0.085809
O 0.15929 3.20563 7.81961 -0.787399 -0.012372 -0.327847
O 6.66817 1.37163 6.10651 0.110753 -0.163229 0.447061
O 9.48358 11.1783 3.69326 0.240877 -0.607979 0.144734
O 3.03606 11.4511 6.45774 -0.584612 0.144174 -0.589116
O 3.07998 0.80857 1.84002 0.837207 0.458242 0.076059
O 9.5631 2.11446 7.80981 -2.752735 1.248281 0.082718
O 3.16505 11.7027 11.8939 -0.169248 -0.004013 0.232739
O 3.95173 6.06316 3.57502 2.524538 0.869309 -0.036437
O 11.8755 10.524 9.82587 0.061617 1.508085 -1.002781
O 5.0134 10.0752 10.363 0.837567 0.064408 0.588194
O 11.609 5.66448 8.7079 -0.095958 -0.472578 -0.598618
O 10.5819 4.37497 0.50735 2.340183 0.130718 0.108612
N 3.30645 8.11394 1.09083 -2.207645 0.26739 -0.170555
N 10.4248 9.94986 12.308 -0.303606 -0.964538 0.31112
N 6.93719 12.2484 1.33671 -0.169486 0.430225 -0.658753
N 0.61661 5.21967 4.0718 -0.043361 -0.817938 -0.968939
N 0.18396 10.6591 4.5913 0.03369 0.709074 0.920481
N 0.22157 11.3596 5.45426 -0.19775 -0.848991 -0.840268
N 4.38712 7.96789 1.11826 2.351864 -0.256232 0.061239
N 10.304 8.89079 0.22231 -0.080612 0.934079 -0.277214
N 0.6419 4.46929 3.25054 -0.045322 0.759594 0.773009
N 7.08087 11.5897 2.20535 -0.168783 -0.576171 0.583678
N 4.64111 2.49031 11.6114 -1.020072 -0.456204 -0.200303
N 3.64623 2.07125 11.3449 1.126381 0.594696 0.146686
N 4.21908 7.46084 7.08991 0.983567 1.793247 -1.051539
N 4.66889 8.35387 6.58532 -0.903157 -1.800425 1.051111
Na 2.21946 0.44157 10.0391 0.877903 -1.183555 -0.059356
191
energy=-1082.27391843 config_type=nep2xyz pbc="T T T" virial="-6.0890048109620984 -0.8652762488661978 -5.3192634567596775 -0.8652762488661978 -2.8360464077449548 0.6339123447738787 -5.3192634567596775 0.6339123447738787 -11.734476854234412" Lattice="12.4 0.0 0.0 0.0 12.4 0.0 0.0 0.0 12.4" volume=1906.6240000000003 Properties=species:S:1:pos:R:3:force:R:3
H 6.98731 8.09354 4.70173 1.496071 1.699474 1.26225
H 9.39902 2.6389 8.52026 -0.422998 -0.941085 -0.603223
H 6.79867 6.47689 0.80774 -0.074126 0.255099 0.088269
H 2.97397 9.43207 3.91363 0.265306 0.205754 0.027168
H 2.27979 3.57436 5.09482 0.472751 1.338943 0.186505
H 10.1929 3.51152 5.71633 1.08491 -0.246079 -0.51201
H 10.4255 2.39499 6.69815 0.344131 -0.638495 0.247383
H 7.05629 7.10244 3.52302 2.217831 -0.486963 -2.487004
H 3.6376 5.69884 4.34924 -0.361596 -0.187441 0.739305
H 7.2372 6.00351 6.70158 -0.319113 0.28598 -0.052962
H 6.75982 1.99563 6.52839 0.267053 -1.342191 0.301167
H 2.9831 2.57193 3.96081 -1.389812 0.770543 1.958472
H 6.88856 6.05488 5.13644 -0.14963 0.555461 0.242776
H 4.75653 10.9767 4.69574 -1.290633 0.625362 -0.950926
H 7.24132 5.36389 12.3169 -0.626464 0.100888 -0.115195
H 4.96203 6.42347 9.86364 -1.018229 -0.624304 -0.424779
H 7.73784 11.4334 11.2079 0.222083 0.386027 0.361381
H 12.38252 0.46157 1.15562 0.321452 -0.998092 0.080302
H 0.37788 10.921 11.8305 -0.251642 -0.210667 -0.376093
H 11.9407 4.64328 8.09778 -0.094904 -0.40279 -0.135052
H 0.26305 2.71313 9.70577 -0.095002 0.577297 -0.658624
H 1.7663 8.24474 9.35495 -1.029912 -0.137811 0.039316
H 12.1184 9.96607 9.65805 0.595357 -0.164129 0.358401
H 10.439 1.59915 0.69818 -0.306472 -0.081073 -0.60462
H 2.91657 7.86264 3.71829 1.039044 -1.08877 -0.103866
H 0.76217 1.96256 4.14361 1.237476 0.451035 0.013428
H 4.76888 3.49662 7.07759 -1.719155 0.744324 0.804462
H 3.79724 4.48894 8.22751 0.560359 0.673262 0.512234
H 11.0518 11.7091 3.38536 1.298572 0.530647 0.25913
H 9.58188 1.65684 5.19224 -1.573142 -1.186456 -1.14723
H 3.29365 0.47157 1.2941 0.095188 0.08436 -0.291299
H 11.7854 1.7665 4.62292 -0.856365 0.251026 0.284302
H 4.83309 6.6457 4.07597 0.600563 0.36488 0.1326
H 7.80532 1.20941 7.48132 -0.800848 0.062552 -1.040984
H 8.84822 3.75904 12.3799 0.20962 0.601105 -1.14133
H 3.81012 8.97814 9.83341 1.151305 0.560111 0.207251
H 9.2254 3.69487 2.13344 0.142965 0.330171 1.161594
H 0.40914 10.2111 0.83511 -0.115957 -0.646311 0.685328
H 3.0648 5.18674 9.91319 -0.176274 0.849128 -0.207951
H 9.67297 12.3222 3.76675 -0.465966 0.816059 0.979348
H 11.9918 5.98966 8.70611 -0.108441 0.615704 -0.155206
H 2.65255 4.71234 12.241 -0.00366 0.02383 -0.130218
H 2.34615 10.0593 8.55019 0.395132 -1.345243 -0.122765
H 2.97679 6.52873 8.98342 0.554981 -0.949191 0.236171
H 2.0338 8.09196 7.79696 -0.190653 0.190187 0.512049
H 1.20946 12.3201 5.53296 -0.57788 0.354751 -0.224306
H 11.1468 11.587 9.56379 0.432402 0.076029 0.508385
H 1.00289 6.878 12.104 0.106906 -0.002852 0.083989
H 10.468 5.69728 5.77097 -0.053964 0.004801 -0.090826
H 1.07148 8.67039 2.63967 -0.115994 0.297003 -0.463449
H 8.80147 6.13491 2.15411 -0.193839 0.151713 0.190925
H 8.96501 5.25194 5.6925 -0.369454 0.049093 -0.048643
H 9.24049 11.0709 8.54938 -0.36903 -0.221977 -0.734386
H 12.1353 1.55586 2.31459 0.036507 -0.632627 0.137172
H 8.86688 7.69782 2.17645 -0.250975 -0.454495 0.164129
H 5.93666 1.35153 9.1834 -0.590785 -0.457701 0.324714
H 0.18259 8.25294 1.2982 0.750879 0.627617 0.647027
H 2.58522 11.6392 5.29782 0.200738 0.12728 0.333735
H 9.0063 4.75341 10.1981 0.440928 -0.263458 0.048263
H 2.07923 11.1817 7.41551 0.467494 -0.041799 2.121885
H 9.63494 5.12101 12.3981 0.30975 0.051996 -0.557069
H 2.95247 2.52467 7.63579 0.418226 -0.200906 -0.524964
H 9.23564 9.05058 8.33539 0.155596 -0.401439 0.202515
H 3.79899 5.30236 1.81727 -0.188628 -0.229979 0.153453
H 9.78777 1.15533 8.627 0.29361 -0.75203 0.320224
H 1.55235 8.19234 5.52392 -0.676326 -0.644226 0.767558
H 6.80093 7.26369 8.59194 -0.040601 -0.369839 0.428873
H 4.40257 3.35238 2.65894 0.199819 0.307875 -0.4728
H 3.78599 11.5258 3.39119 0.450609 -0.026615 0.535652
H 3.73286 10.7863 11.339 -0.896437 0.873473 0.614502
H 11.1594 8.08942 9.31588 0.05167 -0.179065 -0.32578
H 5.25562 3.18443 5.05621 -0.351762 -0.688157 -0.241746
H 11.9109 6.75359 0.19368 0.010827 -0.01031 -0.310637
H 8.32812 9.72423 6.56334 0.679271 0.470081 0.287001
H 7.97112 1.63322 2.90341 0.308709 0.262158 -0.166162
H 6.84734 10.4556 5.47714 -1.065928 0.970452 0.164957
H 1.21218 4.59029 11.6237 0.14113 -0.391896 0.418617
H 0.16245 7.59236 6.22551 0.640997 0.173515 -0.075942
H 1.57894 0.8839 11.5227 -0.070933 0.213334 0.217435
H 6.67959 12.0115 5.61065 -0.751309 -0.577909 0.348031
H 1.00668 2.57416 8.37937 0.254577 -0.209586 -0.331805
H 5.13262 5.08565 1.21525 0.091607 -0.393005 -0.79685
H 8.14671 0.97905 5.49454 0.226873 -0.048786 -0.206975
H 7.6895 5.97539 8.66875 0.204186 -0.570537 0.694058
H 12.0744 3.08089 0.50741 0.038973 -0.683482 0.292986
H 8.92159 9.29075 5.07905 0.036737 0.379189 0.740986
H 10.5869 7.85577 6.72342 0.102653 -0.2754 0.254324
H 2.50881 1.00514 7.00309 -0.010357 1.321574 0.526792
H 1.35732 2.40138 11.4892 -0.915639 1.239946 0.817459
H 12.2258 7.88768 10.4467 0.009321 -0.369751 1.776624
H 4.03163 1.23234 2.49728 -0.305151 -0.40358 -0.404418
H 9.30541 1.05964 12.0459 0.660177 1.02144 0.852761
H 7.82531 10.5852 8.82482 -1.042816 0.100335 0.085733
H 3.2348 4.73082 6.66101 -0.96707 0.361781 -0.752811
H 9.71113 4.43897 3.5215 -0.16096 -0.339911 0.358996
H 5.05237 8.50938 10.6004 0.233184 -0.565253 -0.203006
H 9.74608 11.7267 10.2922 0.083859 0.166729 0.737644
H 2.14797 5.87133 6.11042 -0.464455 0.771667 0.551378
H 10.8159 5.44442 1.48125 -0.009122 0.213616 -0.562679
H 6.08512 3.47884 8.60637 -0.005035 -0.097701 0.138191
H 6.07115 11.7856 9.59957 -0.520887 0.59977 -0.481799
H 8.24087 1.78435 1.35945 0.414331 -0.039763 -0.181816
H 5.60362 2.43433 2.86454 1.147819 -0.222029 -0.431418
H 2.46217 11.0472 12.2884 0.436705 0.716068 -0.824304
H 11.6479 4.73333 0.25301 0.426227 -1.035395 -0.489399
H 5.94676 6.70252 11.0159 0.333848 -0.48307 0.383475
H 11.48 8.77792 3.03238 0.408354 0.019015 -0.424741
H 5.44654 0.60783 8.03007 -0.047179 -0.518788 -0.563313
H 0.93493 10.9453 9.43027 -0.802059 0.009202 0.435673
H 9.05013 7.48481 8.42435 -0.10389 0.381723 -0.046701
H 10.8406 7.96182 5.15806 0.476108 -0.610842 0.756366
H 7.52568 3.67488 9.10055 0.314737 -0.129284 -0.047403
H 6.20938 4.04999 5.83857 0.731215 0.692344 0.381667
H 8.39749 11.4222 0.24951 0.08031 0.031136 -0.006409
H 5.94542 10.2848 10.0458 -0.429869 0.042899 -0.140016
H 9.78326 5.20468 8.892 1.579503 0.605445 -0.646616
H 10.2939 9.68952 3.44214 0.376776 -0.611218 0.06969
O 6.88885 2.98931 8.83861 -0.727193 0.287034 0.024976
O 8.80447 1.04416 4.75854 1.502261 1.323211 0.711408
O 7.50601 6.76283 8.15325 0.234853 0.341978 -0.929087
O 5.73289 3.1965 5.90236 -0.269676 0.175525 -0.059401
O 6.14545 11.1791 5.57181 1.499677 -0.752274 -0.478044
O 5.71549 6.96098 10.1059 0.733719 0.760918 0.458248
O 5.30952 0.59733 8.98889 0.710651 1.602037 0.137359
O 2.696 5.11971 5.89859 0.844336 -0.982895 -0.653255
O 9.67774 4.46484 2.5581 -0.262755 0.163624 -1.012387
O 6.57298 11.0142 9.89899 1.562568 -1.018415 0.88057
O 9.64619 1.86264 0.14536 -0.531232 -1.039372 -0.229978
O 6.39838 5.87431 0.1539 1.390201 -0.102077 0.091027
O 2.49893 1.66297 7.7567 -0.850166 -1.799924 0.216439
O 0.56544 11.0369 0.37254 0.580006 1.188641 -0.293902
O 12.3562 1.49866 3.89545 -0.07763 -0.556182 0.185248
O 3.89237 3.70828 7.65248 1.934872 -1.046153 -1.338865
O 2.39505 8.64909 3.8131 -1.243832 0.801536 0.292102
O 9.72683 8.1917 8.47965 0.20411 0.268188 -0.328005
O 0.22668 7.44094 12.264 -0.320318 -0.348523 0.05956
O 12.015 1.31244 1.36662 -0.630178 1.345605 -0.536106
O 10.6459 8.76444 3.55636 -1.38007 0.861849 0.563127
O 9.86006 5.01419 5.40703 -0.014381 0.041039 -0.067415
O 4.73007 2.60736 3.20457 -0.692966 0.455765 0.487814
O 3.50132 5.69226 9.16161 -0.680347 0.398747 0.697511
O 9.07462 4.66554 9.20771 -1.856491 -0.746939 0.812795
O 12.1282 8.03965 9.51759 -0.103316 0.429086 -1.157515
O 8.4696 11.8171 11.7729 -0.404586 -0.408863 -0.728183
O 8.23762 6.94724 2.17926 0.492516 -0.082699 -0.218946
O 8.49643 10.5346 8.12117 1.33384 0.227699 0.234517
O 1.17261 7.70684 6.31438 1.164027 0.422549 -0.369442
O 10.6966 2.62628 5.791 -1.098516 0.517458 0.329211
O 7.05584 5.46561 5.89529 0.439112 -0.82757 -0.031205
O 3.82047 11.0187 4.24625 0.556444 -0.431421 0.475959
O 4.25941 4.64178 1.2679 -0.328146 0.512066 0.874311
O 0.32355 8.93967 2.04149 -0.112793 -0.953565 -0.247856
O 8.21588 9.22042 5.74314 -0.739871 -0.715405 -1.158017
O 7.79003 2.1903 2.11795 -0.567551 0.042431 0.827879
O 2.11456 4.98471 11.4788 0.106548 0.341528 -0.282153
O 2.45611 8.32946 8.69701 0.436644 -0.553259 -0.819273
O 12.2792 3.82747 12.3521 1.073427 0.11087 -1.045198
O 2.30327 11.0025 8.43987 -0.790039 1.80887 -1.969295
O 11.0987 7.44386 5.99565 -1.136455 0.963983 -1.228777
O 1.85757 1.70654 11.0951 0.74805 -1.435496 -0.7115
O 6.53693 7.46763 4.18966 -3.602762 -1.135482 1.10787
O 10.261 12.0046 9.52466 -0.719662 0.195827 -0.827119
O 2.28844 2.7138 4.68698 0.745915 -2.268815 -1.996775
O 8.88174 4.63528 11.9047 -0.80281 -0.560347 1.032557
O 0.3265 3.11763 8.8114 -0.269152 -0.323674 0.800731
O 7.08218 1.0681 6.77772 0.226392 1.129348 0.56192
O 10.1283 11.6841 3.21946 -0.887835 -1.700529 -1.182945
O 1.96881 11.9898 6.009 0.899831 -0.565373 -0.373479
O 3.66341 0.37597 2.17327 0.147978 -0.088748 0.636905
O 9.30348 1.75754 8.04872 0.467677 1.746757 0.707816
O 3.11047 11.5043 11.6774 0.348007 -1.364929 -0.175038
O 4.043 6.26774 3.68364 -0.469004 0.076305 -0.78618
O 0.10968 10.7979 10.0116 0.580806 -0.06492 -0.829439
O 4.60376 9.32649 10.335 -1.631455 0.194703 -0.241896
O 11.5531 5.53132 7.97419 0.042343 -0.326831 0.595767
O 10.9647 5.64118 0.52827 -0.899168 1.664667 1.263631
N 3.23763 8.42397 0.48197 -0.603482 -1.914169 -1.079497
N 9.38984 8.27031 11.6801 -0.39005 -0.672746 -0.892198
N 6.61149 9.99525 2.40505 0.15793 0.997101 -0.336067
N 1.1439 4.93665 2.78587 -0.13225 0.133441 0.123571
N 11.5966 11.6165 6.52438 0.112985 -1.6382 1.024917
N 11.7266 10.685 7.12779 -0.366848 1.563629 -1.107849
N 3.54012 9.31942 1.02832 0.653225 1.635969 1.265302
N 9.74236 8.88844 0.11583 0.38189 0.692584 0.882565
N 0.29419 5.36262 3.35213 0.167393 -0.079067 -0.13224
N 6.78743 11.0431 2.07995 -0.136236 -0.92167 0.287824
N 6.29111 2.93727 12.0868 -0.158414 -0.156929 -0.047774
N 5.31636 2.47023 12.3184 0.133241 -0.083332 -0.128665
N 5.34998 8.10943 6.92981 -2.098258 -1.328823 -0.691526
N 4.47918 7.47422 6.61933 1.993209 1.58578 0.732998
Na 3.12921 0.43388 9.68373 -0.167761 0.184767 -0.175858
191
energy=-1082.55319468 config_type=nep2xyz pbc="T T T" virial="-12.777649358746945 -7.384402289614984 -1.099472403198923 -7.384402289614984 -9.58619124646433 9.89483512140201 -1.099472403198923 9.89483512140201 -4.729619897256009" Lattice="12.4 0.0 0.0 0.0 12.4 0.0 0.0 0.0 12.4" volume=1906.6240000000003 Properties=species:S:1:pos:R:3:force:R:3
H 7.13762 7.97449 4.30004 -0.038636 0.349317 -0.542709
H 10.8783 2.8131 8.26774 -1.145971 0.513024 -0.298257
H 7.55773 6.82079 0.81115 0.714806 -0.00949 0.50441
H 2.74109 8.85537 4.00335 -0.018707 -0.780914 -0.383876
H 2.14345 3.39922 6.10366 -0.588467 1.2664 0.396998
H 10.7147 2.93193 5.55436 -0.466684 1.059848 0.106117
H 11.9017 2.71659 6.5594 0.191027 0.302029 0.682319
H 7.66156 6.98098 3.19627 0.068685 -0.263821 0.064476
H 4.29819 5.50785 4.30077 0.142566 -0.564279 0.40986
H 7.17066 5.47289 6.56679 -0.015878 0.074273 1.535516
H 6.09164 1.86188 5.45735 2.346857 -1.036642 1.509214
H 3.48306 2.94155 5.5501 1.149211 0.622586 -0.496364
H 6.9363 6.07153 5.23989 0.325922 0.076001 -1.19325
H 4.40808 10.8648 4.19046 -1.083369 -0.352097 -0.649292
H 7.33851 5.63627 12.2192 0.283284 -0.059065 0.015183
H 5.18118 6.96608 9.96897 0.330465 0.591966 0.520155
H 6.70106 3.58564 10.8242 0.160544 0.37636 0.097291
H 0.19092 0.10214 1.36672 -0.154837 1.496599 -0.037626
H 0.91362 10.7566 12.2626 0.061113 -0.279539 0.550264
H 11.3529 6.09956 8.17176 -0.695527 0.688146 0.28962
H 0.47364 2.74003 8.70741 -0.69982 0.251158 -0.407288
H 0.89506 8.05839 9.40784 0.8164 -0.352882 -0.616339
H 0.02196 9.86248 10.4355 1.050068 1.356349 -0.353681
H 10.5393 0.82421 1.34592 -0.723032 -0.478905 1.021228
H 3.16868 7.32669 3.91902 1.078059 -0.582837 -0.244154
H 1.36089 2.1247 4.13317 1.193607 0.022401 0.468105
H 4.66453 4.18103 8.27259 1.81302 -0.304816 -0.168921
H 3.6265 4.73916 9.2568 0.426155 -0.168508 -1.536604
H 9.26751 11.4336 2.6465 0.239936 0.852348 -0.490823
H 10.4201 0.85269 5.52251 -0.617236 -0.27683 -0.244747
H 3.89833 0.86719 2.37499 0.292994 0.744769 -0.26957
H 12.2644 1.97604 4.46511 0.443701 0.350382 -0.269024
H 5.35739 6.59485 3.87098 -1.094587 -0.118742 -0.411901
H 6.66463 1.57757 6.89116 0.102571 0.134743 0.797824
H 7.7049 3.29653 0.33385 0.778066 0.479898 -1.512998
H 4.40296 10.1519 9.77972 0.722853 -0.245182 0.185789
H 8.76527 3.24775 2.92682 1.19121 0.984501 0.242823
H 1.32364 10.1294 1.31723 -0.809552 0.235858 -0.9055
H 2.8939 5.96635 10.7813 1.371301 0.297901 -0.815217
H 9.45722 11.3675 4.24059 0.367085 0.895483 -0.242246
H 9.90652 6.1903 8.83061 2.41558 0.894242 -0.913559
H 2.65284 5.20554 0.44094 -1.295364 -0.998178 -2.18518
H 2.55475 9.36131 8.90229 -0.028016 -0.264759 -0.520678
H 2.9742 6.86957 9.4603 0.757488 -0.690997 0.956015
H 1.50552 7.95881 7.90781 -0.186654 -0.382086 -0.183292
H 3.00849 10.9766 5.66755 -0.819079 -0.268274 -0.732244
H 11.5204 11.835 10.1703 0.062494 -0.545489 0.578754
H 0.5952 6.10502 12.211 1.350956 -0.70148 -0.249331
H 10.3597 5.68628 5.39143 0.219195 0.53667 -0.270107
H 1.33818 8.07858 2.45968 -0.169255 -0.044387 -0.498146
H 9.1019 5.63348 2.27107 0.455068 0.082149 0.4134
H 9.20779 4.78827 5.81387 -1.528759 0.033806 0.400471
H 8.30907 11.614 8.58925 -0.394919 -0.309012 0.179247
H 0.17194 1.39487 2.3678 0.13741 0.023243 0.454712
H 9.76419 7.11901 2.44621 0.271818 0.111618 -0.012554
H 6.14928 2.45692 9.0928 -0.096323 1.968629 1.279943
H 0.32869 7.55848 1.32487 0.1155 -0.047752 -0.3335
H 4.30903 11.201 6.28969 1.647422 0.005474 0.033664
H 9.37276 4.66384 10.3979 -0.21655 0.099303 0.416829
H 3.04044 10.6808 7.93199 -0.383696 -1.360221 0.833134
H 9.50634 4.10407 12.1996 -0.216123 -0.710448 0.058351
H 3.31382 1.9497 7.37851 -0.232428 -1.245806 1.02597
H 8.73913 9.55177 7.62727 0.140648 -0.391296 -1.093985
H 4.51215 5.38401 2.14656 0.197417 0.486422 0.366155
H 10.1182 1.87938 9.11237 -0.791385 0.126671 -0.355485
H 1.51671 7.57251 5.3608 -0.218197 0.02716 -0.372788
H 7.04054 7.11999 9.11003 -0.22703 0.131668 -0.732946
H 5.22277 3.02105 2.15561 -0.367699 0.140123 -0.216864
H 3.27117 11.3283 3.17474 0.11917 -0.542788 0.531416
H 2.90305 11.3233 0.0731 -0.383963 0.489267 0.046651
H 11.3352 8.06509 9.62433 -0.557409 -0.473652 -0.903233
H 5.26857 3.3007 4.06111 -0.14626 0.281327 1.234665
H 11.4611 5.8797 12.035 0.712975 0.567774 0.656357
H 7.97765 9.25185 5.53217 0.600162 0.297496 0.473317
H 7.89249 1.16175 4.22136 0.430894 -0.170171 0.642057
H 6.42767 10.6068 5.26194 0.362588 -0.703377 -0.278732
H 1.50961 4.32721 11.9732 0.139094 -0.873733 0.827919
H 0.02203 7.29444 5.84813 -0.16877 0.318441 -0.293852
H 12.3702 1.1586 10.0888 0.470842 0.363625 0.002479
H 6.42895 12.0677 5.79922 -0.483678 0.204377 -0.325365
H 0.61064 4.02105 7.81319 -0.126835 0.295744 -0.552338
H 5.1337 4.96604 0.73203 -0.878991 0.051216 1.10141
H 9.44238 12.3387 6.23627 -0.449896 -0.308304 0.537167
H 8.23459 6.32634 8.53862 0.36929 -0.417965 -0.026844
H 0.28365 2.23585 0.60441 0.53921 0.895165 -0.953528
H 8.06538 9.98693 4.04951 0.306027 -0.308496 0.272452
H 10.0753 7.93199 5.71452 0.55241 -0.285936 -0.115154
H 3.38373 0.46556 7.23555 -0.08946 -1.363401 -0.719726
H 0.72363 2.24815 10.8814 0.125984 0.603696 1.152508
H 12.011 7.69762 10.9958 0.509785 0.534255 -0.739946
H 2.57034 0.70566 1.5027 0.301044 0.040165 0.084905
H 9.19107 0.81759 0.64934 -0.225797 -0.903139 0.745643
H 9.80048 11.7654 8.44261 0.790661 0.115672 0.385533
H 2.45828 4.95379 7.52429 0.338003 -0.231275 -0.187561
H 9.78193 4.10811 3.82517 -0.276187 0.282558 0.024581
H 5.64815 9.18734 10.1236 -0.760696 0.935453 0.187288
H 10.1368 0.34146 10.724 1.442644 -0.596299 -0.970558
H 1.4181 5.80995 6.71032 -0.438611 1.219082 -0.621613
H 10.4205 4.23736 1.09575 0.178469 -0.220322 -2.292307
H 8.33486 1.84068 11.342 0.176082 -0.237029 0.093945
H 6.74508 0.28657 9.13511 -0.420891 1.300239 -0.386879
H 8.38053 1.12839 2.70809 0.75627 -0.52858 -0.361268
H 6.19505 2.00827 2.90673 -0.829323 -0.058047 -0.134704
H 4.0476 11.2107 11.4936 -0.590083 1.016977 0.272454
H 11.9823 3.43451 12.1567 1.266018 -0.590296 0.732535
H 6.26614 7.50693 11.0113 0.056302 -0.581926 -0.160993
H 11.6472 8.72062 2.4543 -0.125874 0.196047 0.050012
H 5.04522 1.63689 8.24921 0.122116 -0.18319 0.594182
H 1.16732 10.5662 9.62415 0.817382 -0.094222 -0.496722
H 8.00377 8.13054 7.38252 1.312369 0.759662 -0.406286
H 10.7475 7.86263 4.29688 0.12614 0.678497 -1.383725
H 6.719 4.43665 9.56103 -0.787491 -0.471666 0.837244
H 6.04358 4.14111 5.3088 -1.306408 -0.362278 -0.670265
H 8.07544 0.35676 10.6877 -0.254087 0.197132 0.600068
H 6.40201 11.3297 9.7231 1.048064 0.03716 0.505985
H 9.31049 3.90642 9.07043 0.375009 -0.415857 -0.386947
H 10.3788 9.4863 3.14505 0.073896 -0.03621 -0.494312
O 6.07313 3.90509 10.1067 1.256268 0.498277 -0.838313
O 9.61973 0.28607 5.35612 0.647278 0.359759 -0.089298
O 7.53063 6.90434 8.24306 -0.437914 -0.321417 0.176768
O 5.16377 3.70347 4.99507 0.765333 -0.123622 -0.350531
O 5.83642 11.3448 5.47712 -0.271106 0.548936 0.417396
O 5.99568 7.55511 10.0652 -0.596282 -0.301407 0.770147
O 5.96287 1.67099 8.61742 0.05306 -1.98536 -1.839906
O 1.64991 4.91614 6.97076 0.099027 -0.951807 0.541205
O 9.46685 3.97178 2.90356 -1.044137 -1.10759 -0.679482
O 7.18447 11.9695 9.60564 -1.22934 -1.319283 0.191599
O 9.58948 0.5218 1.52245 0.704206 1.127646 -1.562178
O 7.02982 6.52413 0.07112 -0.927712 -0.157891 -0.778823
O 3.52331 1.09591 7.93305 -0.366869 2.593322 -0.366792
O 0.97781 10.9144 0.83301 0.495139 0.40889 -0.016379
O 0.52111 2.00797 3.71435 -1.301552 -0.241844 -0.102235
O 3.74755 4.33495 8.32549 -1.961299 0.426375 1.687459
O 2.41519 7.92594 3.85279 -1.277906 1.910725 0.477928
O 8.60491 8.84312 6.92944 -0.898644 -0.297869 1.096606
O 12.1681 6.57862 12.1923 -2.27096 0.016577 -0.387745
O 12.3155 1.08156 1.45499 0.070506 -1.95244 -0.450609
O 10.7647 8.61483 2.87609 -0.065063 0.006952 0.054199
O 10.0292 4.77318 5.35497 1.297855 -0.541028 -0.223436
O 5.22548 2.29539 2.80208 1.264335 -0.319044 0.001676
O 3.57039 6.30386 10.0746 -2.105825 0.332463 0.087905
O 9.15772 4.7985 9.47278 -0.463195 0.743275 -0.187749
O 12.0838 8.32049 10.1717 -0.345036 -0.405142 2.079301
O 8.58402 0.8706 11.3764 0.455988 0.412664 -0.373109
O 9.03447 6.59288 2.08736 -1.008564 -0.046875 -0.296474
O 9.06706 11.2884 8.05575 0.139324 -0.098811 -0.892099
O 0.95725 7.3275 6.12614 0.34732 0.067159 0.852389
O 11.4144 2.34402 5.81202 0.113502 -1.616028 -0.957042
O 7.15553 5.21689 5.6552 0.237456 -0.381963 0.18525
O 3.5116 10.5964 3.82159 0.891311 0.960645 0.164404
O 4.47681 4.72025 1.44108 0.672431 -0.305668 -1.503292
O 0.79774 8.33981 1.65955 0.289577 -0.138484 1.11187
O 7.52513 9.44154 4.67174 -0.760276 0.224166 -0.279756
O 7.75386 1.50027 3.33563 -0.937058 1.094941 -0.382036
O 2.11514 5.09213 11.9583 1.416938 1.799783 1.754274
O 1.75723 7.90562 8.84815 -0.231375 0.279368 0.184604
O 0.51244 3.03988 12.3569 -2.065442 -0.080912 -0.222604
O 2.84487 10.3003 8.87094 0.387304 1.698328 0.048892
O 10.7552 7.46604 5.16807 -0.624837 -0.701227 2.322199
O 0.828 1.6741 10.1095 -0.703024 -1.003887 -1.2617
O 6.96597 7.08779 3.88379 -0.452841 -0.103903 0.177292
O 10.8999 0.16668 10.0359 -1.588307 1.337053 0.4355
O 2.64422 2.62605 5.87087 -0.228326 -1.679297 0.005263
O 8.08656 3.57097 11.843 -1.157128 -0.452883 1.432621
O 12.36278 3.30479 8.04416 1.213784 -0.678738 1.108999
O 6.90133 1.40581 5.97082 -2.552389 1.044181 -2.072155
O 9.37997 10.8595 3.40559 -0.196326 -1.375761 0.599232
O 3.38757 11.1023 6.53974 -0.525908 0.5129 0.321524
O 3.05975 0.40739 2.27737 -0.47267 -0.731247 0.470806
O 9.91022 2.56833 8.43965 1.368105 -0.761729 0.759512
O 3.35024 11.8703 11.8028 1.281692 -2.122672 -0.207292
O 4.37942 6.30249 3.76305 1.443476 0.229844 -0.214162
O 0.55967 10.7548 10.3433 -1.904733 -1.057642 1.056549
O 5.26362 10.1109 10.2964 -0.337284 -0.19634 -0.721911
O 10.6739 6.7806 8.39956 -1.205343 -1.742655 0.781506
O 10.4838 4.19989 0.06169 0.141206 0.805526 2.293939
N 3.52852 8.58856 0.16277 1.147381 -0.510894 1.744406
N 9.3508 9.87493 12.0911 -0.13981 -0.002019 -0.298431
N 6.31312 10.5212 1.56408 1.228417 2.535391 -0.101234
N 0.41212 5.12684 2.87448 -0.177725 -1.160275 -4.190715
N 12.0371 11.3223 5.98276 -0.56754 0.52987 0.50261
N 0.43762 10.6599 5.62692 0.757924 -0.640818 -0.435776
N 4.13172 8.30809 1.06321 -1.163089 0.450845 -1.768219
N 8.82937 9.76801 11.1204 0.144829 -0.037068 0.320616
N 0.45746 5.43113 3.90984 0.134463 1.058461 4.083885
N 6.79871 11.5339 1.52912 -1.263092 -2.528446 0.040423
N 4.31792 1.92744 12.214 1.152775 0.00657 0.452012
N 3.35675 2.24678 11.7912 -0.825159 0.480546 -0.52741
N 4.83331 7.47703 6.72533 0.36791 -1.262583 -1.99662
N 4.67913 8.06248 7.63231 -0.423025 1.301222 1.836088
Na 2.56597 0.27781 9.96125 -0.138922 0.064252 -0.416048
191
energy=-1083.4731956 config_type=nep2xyz pbc="T T T" virial="-17.151881351887482 3.2100105413783835 -7.026063133148164 3.2100105413783835 -14.568833432003997 -1.810402914174092 -7.026063133148164 -1.810402914174092 -13.450534894854142" Lattice="12.4 0.0 0.0 0.0 12.4 0.0 0.0 0.0 12.4" volume=1906.6240000000003 Properties=species:S:1:pos:R:3:force:R:3
H 6.46777 8.67524 4.53663 0.28864 -0.815645 -0.651694
H 10.7668 3.17931 8.41951 -0.834304 -0.083348 -0.260064
H 7.44005 6.40943 0.59937 0.044754 -0.385629 0.190368
H 2.81313 9.52826 3.59382 -0.604675 -1.661812 0.354573
H 1.93325 3.89495 6.41846 -1.02307 0.473376 0.856246
H 10.9705 2.42675 5.11112 -0.116477 -0.973542 0.052726
H 11.6383 1.81857 6.32895 0.772515 -0.19911 0.875902
H 6.9117 7.58321 3.40742 0.302712 0.126123 0.03779
H 4.05788 6.20858 4.26502 -0.357533 -0.273638 -0.327193
H 7.67991 5.77799 6.99981 0.246193 0.960967 0.790577
H 7.44783 3.05874 6.24459 0.26921 0.467265 -0.734195
H 3.06826 3.63779 5.53388 -0.13802 -0.197978 -0.430603
H 7.07658 6.03897 5.53443 0.562713 0.046547 0.757793
H 5.00306 10.6702 3.90051 0.055393 0.277652 -0.065397
H 7.89435 4.96354 0.17239 0.577575 -0.770228 -0.053811
H 5.19022 6.0388 10.1145 -0.192874 -0.257353 0.377582
H 7.65739 3.59637 10.2445 0.179534 0.006015 0.329252
H 0.3316 0.08627 1.36931 -0.836837 0.868782 0.265339
H 12.3318 10.7093 0.31728 -2.165547 0.411599 -2.212255
H 10.5758 5.22299 7.2221 0.525966 0.323118 -0.65912
H 0.37602 1.74242 8.65182 -0.310884 -0.548921 0.067174
H 0.70714 7.79863 9.12397 0.302706 -0.424797 -0.812999
H 11.8938 9.31305 9.56459 -0.269477 -0.95133 0.324724
H 10.5878 0.8295 1.82867 -0.431868 -0.772478 0.064113
H 3.04635 7.90124 3.6901 -0.767484 0.749258 -0.360708
H 1.53097 2.3935 4.60785 -0.353151 0.313725 0.296818
H 3.97805 4.48148 8.7573 -0.028236 0.0066 0.137898
H 4.50316 3.93302 7.34617 -0.364507 -0.156551 0.989554
H 9.01785 11.875 3.06666 0.122395 -0.281835 0.876574
H 10.1235 0.64776 6.04512 -0.642449 0.277523 -0.492961
H 4.17161 1.55602 2.68305 -0.025903 -0.092684 -0.204884
H 0.31848 1.39615 4.30875 -0.16391 0.26834 0.739204
H 4.98434 7.29699 3.80601 0.053355 -0.023216 -0.508585
H 8.0057 1.73406 5.81284 0.938077 0.300864 -0.31053
H 8.76144 2.84798 0.63725 -0.90833 0.613402 -1.540046
H 5.20664 10.7885 8.45543 0.474755 1.156979 -1.43906
H 8.57935 4.02266 2.48636 -2.114337 -2.201649 -0.130913
H 0.38208 10.0051 1.52113 0.27726 0.22109 0.069356
H 2.96844 5.38256 10.6158 0.366095 0.338362 -0.248381
H 9.13211 11.6178 4.67738 -0.36128 0.26308 -0.218329
H 10.7628 6.46489 6.20329 -0.007502 -0.026485 0.553016
H 3.05641 4.91948 0.38147 -0.84132 0.320553 -0.334979
H 2.51638 9.84174 8.35506 -0.586509 0.03037 -0.581025
H 2.92021 6.40623 9.37424 0.331052 -0.272709 0.666407
H 1.55698 7.78637 7.65099 -1.067988 0.194532 0.209954
H 2.26776 0.43932 5.51971 -0.370694 0.39684 -0.62311
H 11.4088 11.1373 10.6275 -0.066193 -1.060169 -1.550607
H 0.88872 5.96014 12.39776 0.696959 0.352196 0.291799
H 10.5685 4.39745 5.45756 0.16369 0.255952 -0.2794
H 0.7405 8.58684 2.79949 0.596935 -0.631252 0.12799
H 8.55283 6.57106 2.38792 0.497145 -1.304844 0.310084
H 9.26298 3.57003 5.11029 1.124804 -0.170091 -0.114566
H 8.81272 11.4348 9.10434 -0.187242 0.045165 0.610535
H 0.48883 1.25259 2.38888 0.052377 0.422009 0.323653
H 8.70022 8.07586 2.31081 -0.188401 -0.332909 0.141901
H 6.9141 2.19564 8.63717 -0.361078 -1.034483 -0.983283
H 12.2296 7.84626 1.67457 0.621172 0.391381 0.506601
H 3.31701 11.7107 5.28634 0.717715 -0.510054 -1.203191
H 10.3241 5.29484 11.1942 0.362009 0.031211 0.582725
H 2.00331 10.8887 7.26447 0.607553 0.372191 -1.113183
H 9.64279 3.70086 12.1896 -0.070027 -0.081997 -1.066742
H 4.12393 1.98486 8.46136 -0.560054 0.172621 -0.014542
H 8.75962 9.84669 8.01461 -1.042296 -0.742057 -0.427124
H 4.23182 5.85692 2.18204 0.267041 -0.276938 -0.526163
H 9.06545 3.44062 8.40767 2.420022 0.867025 0.038023
H 12.3538 8.08051 5.72436 0.938076 0.169802 0.613802
H 7.27999 6.53687 9.2199 0.724317 -0.055336 -0.219421
H 4.83379 4.03363 2.54803 0.092326 -0.389949 -0.551943
H 3.95092 11.7322 3.20216 0.346402 -0.491701 0.64983
H 2.30707 11.3145 0.11439 -0.430479 -0.105418 0.58395
H 11.2496 7.11338 10.1379 -1.69459 -1.573748 -0.352352
H 4.97723 3.97736 4.56003 0.187398 -0.174865 -0.18675
H 11.8231 6.14034 0.26344 0.986364 0.636164 -0.239519
H 6.41984 10.5915 5.51574 0.579023 -0.263028 -0.677081
H 7.92944 2.48177 3.66857 -0.153605 -0.066248 -0.340097
H 6.93667 10.4789 7.66282 -0.462875 1.105558 -1.706953
H 1.96009 3.98373 12.1821 -0.568796 -0.657722 -0.106781
H 1.42729 8.35296 5.29 0.863114 0.312403 -1.456998
H 0.4377 0.10614 10.5396 -0.806071 -0.365644 0.211049
H 6.82447 12.1036 7.20966 -0.821034 -2.132324 0.042883
H 0.37801 3.06906 7.90683 0.463106 0.821971 -0.224773
H 5.17547 5.22284 1.02837 1.112564 0.407495 -0.427342
H 9.30697 12.3494 7.14944 -0.351934 -0.473058 -0.168676
H 8.88252 6.50985 8.99959 -0.782631 0.18698 0.229137
H 0.37865 2.08469 0.38372 0.617074 -0.501693 -0.087446
H 7.43169 10.6911 4.21817 -0.35718 -0.295634 0.34639
H 9.41431 8.49036 6.62088 0.791518 -0.744828 -0.3314
H 3.53534 0.77313 7.5603 0.737787 0.457055 1.294292
H 0.67287 1.60598 10.7569 0.577155 -0.710672 -0.382807
H 0.0101 7.44606 11.0375 -0.219198 0.147818 -0.347711
H 2.71034 1.24776 3.00004 -0.34059 -0.300607 0.135864
H 9.31038 0.20488 1.09726 -0.230068 -0.171015 -1.386703
H 10.3328 10.948 8.66314 -1.237011 0.091032 -0.076485
H 1.37892 5.4644 8.30161 -0.182352 0.919178 0.369921
H 9.71459 4.49775 3.34765 0.516879 -0.289884 0.659702
H 4.8673 9.53261 9.15242 -0.476993 0.838471 0.638464
H 10.2801 12.0851 11.2158 -0.454902 0.251372 -0.002686
H 0.27218 5.17528 7.16026 -0.037413 0.81654 0.172911
H 10.4653 4.46844 0.93267 0.376911 0.357176 0.478416
H 8.49868 1.46466 11.7795 0.081002 -0.77734 -0.652299
H 6.87762 0.02381 9.25779 -0.042182 0.267504 -0.084301
H 8.43157 1.71224 2.41618 0.573667 -0.797952 -0.182614
H 6.11081 3.0561 2.74498 -1.049048 0.058957 0.208986
H 3.09115 0.13391 0.74489 -0.202534 -0.762839 -0.926199
H 12.3755 3.40456 12.2648 0.506323 -0.538607 -0.882566
H 6.46601 5.64655 11.1515 -0.707311 0.474347 -1.293577
H 10.9426 8.71988 3.21311 -0.225358 -0.132935 -0.5389
H 5.81854 1.21137 7.88392 0.193313 0.405745 0.601899
H 0.12781 10.2878 8.53181 -0.206732 -0.016756 0.567553
H 7.95392 8.33625 8.0274 0.302463 0.634413 0.05788
H 9.98251 8.3614 5.18772 0.295317 -0.61156 0.681969
H 6.71 4.39444 9.29369 0.662551 -0.320527 0.345349
H 5.5219 4.86122 5.77522 -0.706441 -0.470941 -0.503612
H 7.97355 0.0528 11.0871 -0.441534 0.205983 0.035379
H 6.38905 11.1 9.9514 0.242318 0.45397 0.193093
H 10.145 5.0412 9.67407 0.206665 0.919864 0.60603
H 9.80719 9.78609 3.45103 -0.344828 -0.431503 0.075477
O 7.48571 3.76258 9.30897 -0.654416 -0.539343 -0.588821
O 9.20966 0.27927 6.2331 0.388259 0.100024 -0.11675
O 8.03017 6.78776 8.59166 -0.051234 -0.290801 0.154167
O 4.68865 4.51888 5.33233 0.800523 0.597787 0.807278
O 6.33869 11.1988 7.17134 1.44164 0.501672 0.995009
O 6.13033 5.78458 10.1798 0.951027 0.040844 1.025963
O 6.77677 1.34477 8.07163 0.002649 0.999653 0.611714
O 1.0767 4.86748 7.6294 0.08982 -1.665948 -0.626202
O 9.23918 4.65994 2.52401 1.827941 3.19318 -0.97832
O 7.11936 11.7543 9.92998 -0.068953 -0.467612 -0.158141
O 9.67786 0.41679 1.95037 0.585363 1.0244 0.757427
O 7.13081 5.53357 0.27763 -1.000096 0.938109 -0.20032
O 3.96929 1.01282 8.45035 -0.336328 -0.57772 -1.732293
O 0.61986 10.7615 0.9288 1.679515 -0.346492 1.904896
O 1.19366 1.68897 4.00974 0.584161 -0.778581 -1.089964
O 4.3244 3.69225 8.29131 0.516626 -0.019443 -1.246538
O 2.32574 8.63199 3.69081 0.750791 1.482347 -0.080727
O 8.02933 9.24361 7.60205 0.47121 -0.191293 0.41797
O 0.27185 6.70637 0.18621 -1.876714 -1.03935 -0.036713
O 12.3397 0.98826 1.63193 0.553463 -1.290348 -0.505327
O 9.97051 8.81569 3.38308 -0.211643 0.652085 0.661684
O 10.2005 3.77681 4.78043 -0.768252 0.093196 0.592709
O 5.16072 3.21831 3.00896 1.051066 -0.60845 0.5188
O 3.51443 5.76827 9.86463 -1.302465 0.313671 -0.344032
O 10.2071 5.79616 10.3451 -0.617817 -1.052201 -1.490952
O 11.9984 7.6867 10.1536 1.718867 1.571327 1.184811
O 8.62474 0.48183 11.6776 0.798111 0.611947 0.826676
O 8.06427 7.34184 2.1115 -0.246389 1.233584 -0.312698
O 9.38018 11.1864 8.36488 1.952893 -0.175965 0.337523
O 0.8822 8.18475 6.04616 -1.647008 -0.41361 0.787033
O 11.3265 1.52531 5.46503 -0.31757 1.094399 -0.909783
O 7.27267 5.37455 6.23719 -1.064763 -0.5991 -1.628036
O 4.07283 10.9799 3.85246 -0.548264 0.108451 -0.398967
O 4.3713 5.09789 1.51945 -1.31888 0.613774 0.639743
O 12.2571 8.54257 2.37986 0.11152 -0.01451 -0.583215
O 6.63346 10.2058 4.61388 -0.890819 0.386261 0.687375
O 7.85628 2.43355 2.68532 -0.758442 0.495342 0.854422
O 2.24923 4.90797 12.1761 1.408808 0.275316 0.232049
O 1.57631 7.73658 8.62776 1.478321 -0.543169 0.433386
O 0.69171 2.68776 12.0631 -1.571883 1.287467 0.862109
O 1.8699 10.5377 8.1386 -0.107161 -0.069005 1.505451
O 10.148 8.00901 6.12001 -1.167288 1.348008 -0.931563
O 0.89177 0.83759 10.1283 0.467385 1.357479 -0.031182
O 6.39535 7.68267 4.23653 -0.428963 0.432375 0.617343
O 11.1874 11.7663 11.2908 0.494589 0.70992 1.774916
O 2.12631 3.38766 5.62777 1.407387 0.048345 -0.266297
O 8.67044 3.23206 12.1031 0.956865 -0.499491 2.275608
O 12.3215 2.22383 7.92423 -0.219087 -0.114174 0.407038
O 7.99548 2.68533 5.52272 -1.320493 -0.93397 0.970095
O 8.73936 11.2836 3.83424 0.864015 0.300333 -0.383744
O 2.81525 12.1842 5.94667 -0.393757 0.206429 2.029002
O 3.48647 0.86318 2.55186 0.241735 0.468639 -0.1047
O 10.0227 3.82401 8.29258 -1.431235 -0.478134 0.323522
O 2.94943 11.9989 12.3119 0.691243 0.781513 0.255001
O 4.10041 6.83598 3.51068 0.802171 -0.366282 0.944952
O 11.7647 10.1774 9.15834 0.320966 1.051874 -0.833069
O 4.70846 10.506 9.2226 0.023188 -2.006112 0.66707
O 11.1673 5.60949 6.5122 -0.746265 -0.629687 0.511712
O 10.8799 4.416 0.05693 -0.164036 -0.028966 -0.022129
N 3.26837 8.18653 12.2844 0.388984 0.655804 -1.370998
N 9.74385 8.61554 0.14304 -1.767063 0.332397 -2.374386
N 6.47703 11.0414 0.33568 -0.002217 -0.06138 -0.369431
N 1.05104 5.42901 2.83628 -2.613336 -1.961928 0.610342
N 11.9738 10.9571 5.23142 -0.49578 -0.334066 0.800385
N 0.12356 11.3173 4.3507 0.486504 0.143317 -0.813221
N 3.53669 8.64495 11.3043 -0.411528 -0.656606 1.424135
N 9.01907 8.73433 11.692 1.86575 -0.259412 2.171822
N 0.14705 4.77896 3.01457 2.697861 1.9275 -0.551712
N 6.25642 10.8054 1.38902 -0.063364 -0.068677 0.440141
N 5.23001 1.57315 0.04186 0.142718 -0.498296 0.498447
N 5.11716 2.38067 11.7034 -0.087711 0.57213 -0.525442
N 4.12418 7.83252 7.06906 0.767204 -0.265642 0.982504
N 4.73395 7.68602 7.98898 -0.648038 0.232325 -1.210747
Na 3.0181 11.8629 9.74387 -0.359692 0.540095 0.515344
191
energy=-1082.88411168 config_type=nep2xyz pbc="T T T" virial="0.7591501663286346 -3.728133832206255 8.834538213125006 -3.728133832206255 1.2058721905916512 2.4949863577868294 8.834538213125006 2.4949863577868294 5.933516652806032" Lattice="12.4 0.0 0.0 0.0 12.4 0.0 0.0 0.0 12.4" volume=1906.6240000000003 Properties=species:S:1:pos:R:3:force:R:3
H 6.78931 7.87107 4.88347 -0.082676 1.361498 -0.439684
H 8.60517 3.03793 8.64545 0.288685 -0.290436 0.641979
H 7.54552 6.54414 1.20066 -0.59932 -0.713955 -0.44666
H 2.81016 9.0304 3.08947 -0.029522 -0.125999 -0.063979
H 1.63925 1.7201 4.90222 0.482575 -0.114141 0.019203
H 10.9192 3.1994 5.30804 -0.505589 0.283366 0.475032
H 10.1772 1.44032 6.31125 -0.053272 0.191833 -0.362842
H 7.53924 6.87813 3.83435 -0.425942 0.348818 0.801859
H 4.23011 5.82135 4.51186 0.212375 -0.010965 -0.385452
H 7.62473 5.61981 7.63946 0.24881 0.350683 -0.000183
H 6.87639 2.46397 7.34766 0.002673 0.125777 -0.20227
H 3.22502 2.05408 4.93246 1.407232 0.573234 -0.93393
H 7.47807 6.14756 6.09281 0.06668 -1.062551 0.611299
H 3.94141 10.7205 3.13635 0.751235 -0.80859 0.942865
H 7.12811 5.68089 12.3204 0.374423 -0.261977 -0.246653
H 5.68047 7.38853 10.4351 -1.376095 -0.464121 -0.999949
H 7.18617 0.35495 1.2061 0.171548 -0.604912 -0.328234
H 11.6923 0.23894 1.49427 -0.082936 -0.072334 0.157565
H 10.0707 0.49172 10.6657 0.237778 -0.283098 0.030892
H 0.27134 4.17857 6.11517 2.096448 0.319888 0.349881
H 0.58959 2.11042 8.60545 1.442851 -0.313379 -0.283119
H 1.54155 8.11081 8.48324 1.83948 0.093986 -0.300986
H 0.28334 9.80517 9.46141 -0.58215 0.041753 0.691009
H 11.734 2.21266 0.84762 -0.398796 0.223992 -1.265533
H 2.98039 7.78418 2.21584 -0.124716 -0.297385 -0.249624
H 0.50959 0.44686 4.34684 -0.409448 0.526497 -0.310287
H 5.18759 4.84221 9.16446 -0.120107 -0.247069 0.261247
H 5.51504 3.7274 8.15727 -0.190906 -0.085524 0.520705
H 8.31536 10.6449 1.87093 -0.208173 0.292022 -0.346416
H 9.6206 0.66672 3.05521 1.280212 0.389477 -0.525907
H 0.95568 11.3413 0.27246 -0.284496 -0.360282 0.219995
H 11.9256 2.00046 5.3586 0.198958 -0.216399 -0.709943
H 5.50586 5.86434 3.63778 1.885671 1.115426 0.21057
H 8.11598 1.49605 7.26895 0.446716 -0.386646 -0.393412
H 9.31748 4.85832 11.7647 0.264074 0.342138 -0.470445
H 6.32103 11.0583 12.011 0.618343 0.650355 1.113981
H 9.40337 3.43828 1.90072 -0.135444 0.367565 0.176822
H 9.08746 1.65674 10.6751 0.059319 -0.810131 0.313406
H 3.75111 6.20237 10.2741 -0.920701 -0.696402 1.123515
H 8.83422 11.3131 3.1297 -0.003429 0.696827 0.395249
H 1.63224 3.45693 5.83154 -0.218285 1.083741 0.678677
H 2.85489 5.62971 0.05852 0.387576 0.071342 0.217908
H 3.1039 9.7868 8.20636 -0.244747 -1.73479 -0.070556
H 3.82844 7.16803 9.13638 0.138187 -0.293081 0.026555
H 2.72467 7.59855 7.46945 -0.462154 0.677505 0.740143
H 2.83797 0.02673 5.62857 -0.317247 1.119931 -0.688958
H 11.3447 0.98255 9.08083 -0.258137 0.267843 0.278045
H 0.99182 6.54371 11.6158 0.55829 -0.374833 0.073336
H 10.2234 5.44562 5.10633 0.026584 -0.518822 -0.376984
H 0.62186 8.28783 1.91517 0.915652 0.10754 0.155551
H 8.93205 5.63216 2.53455 -0.297844 -0.615592 -0.612613
H 9.03535 4.73998 5.67455 -0.616565 -0.404439 0.434163
H 10.0352 11.3459 8.95077 -0.793545 -0.695212 -0.86654
H 11.7331 1.23105 2.77794 -0.450392 -0.538389 -0.843889
H 9.01338 7.18 2.33777 0.282289 0.369629 0.175501
H 3.20454 2.30611 10.7966 -0.098252 0.289676 0.001664
H 12.2567 7.89835 0.62955 0.361837 -0.776683 -1.504151
H 3.29234 10.9348 5.25634 -0.071962 -0.989643 -1.615573
H 8.7639 4.10972 10.4804 0.177125 0.310866 0.171796
H 2.987 11.1722 7.56686 0.176255 -0.121986 0.293721
H 11.3943 4.14242 12.3612 0.172241 -0.979642 -0.521297
H 2.21944 1.48772 7.10684 0.357146 0.06032 1.965096
H 9.69614 9.11095 7.86113 -0.256795 0.820462 0.126703
H 4.08752 5.61833 2.04435 0.202601 0.327087 -0.387592
H 9.87444 12.3384 6.67255 -0.809328 0.723218 -0.202028
H 1.23903 8.32082 4.15252 0.35559 -0.008202 0.083898
H 7.49184 7.16011 9.55449 0.468643 -1.122142 -0.327133
H 4.45695 3.54407 3.80295 0.256908 -0.808472 0.207109
H 4.69526 9.60583 4.12029 1.754932 0.003912 -0.357104
H 2.06623 0.54849 11.0572 0.234441 -1.005081 0.275356
H 11.2873 8.11694 8.80922 -0.277442 -0.255329 -0.254635
H 5.52614 3.05995 5.74446 -0.787623 -0.511266 -1.052827
H 11.8766 6.40233 11.8852 0.400275 0.017604 -0.336898
H 6.3366 10.3668 4.98814 0.402051 -0.24736 0.10376
H 7.16334 1.26188 3.25282 1.399823 -0.624118 0.588824
H 4.99087 11.552 6.27313 -1.386954 0.175555 -0.439004
H 2.05033 4.57276 11.625 0.109308 -0.048057 0.131222
H 0.26228 8.04993 5.28347 -1.013479 -0.23457 0.143137
H 0.87699 2.62925 11.8095 0.138403 -0.190685 0.100535
H 6.21489 11.5123 7.08403 0.728127 -0.021895 0.61083
H 11.8492 2.32503 7.57736 0.121938 0.422198 -0.537039
H 5.01197 6.11635 0.91525 2.013159 0.180993 -0.51223
H 9.02146 0.5576 4.53479 0.551841 0.244126 0.470562
H 8.19632 5.78412 9.8683 0.058793 0.549079 -0.210227
H 2.64089 2.2556 2.71791 -0.530186 -0.263759 -0.579752
H 7.20318 9.83515 3.71139 -0.862676 -0.126754 0.975802
H 10.2815 7.67671 5.73897 0.435833 -0.286663 0.039601
H 2.89429 1.74836 8.60381 -0.291764 -0.256529 -0.231144
H 2.03871 2.36805 0.41577 -0.202615 -0.030224 0.326495
H 12.1894 7.5786 10.0494 -0.050187 0.339911 0.151744
H 12.39338 10.176 0.87564 0.470755 0.314286 -0.19417
H 10.9757 1.92828 11.9569 0.229022 0.503289 -0.188402
H 8.54547 11.3825 8.71925 -0.506654 -0.298746 -0.282934
H 2.42038 5.74313 6.19916 0.318295 0.783247 -0.075917
H 9.71525 4.05784 3.34112 -0.035381 0.090647 0.254864
H 6.14531 9.75101 11.211 -0.481661 -0.196945 -0.20994
H 11.7811 12.0233 9.67054 -0.084576 -0.428472 0.282464
H 2.04053 7.15439 5.6604 1.081975 0.028138 0.102173
H 10.7685 5.05132 0.95554 -0.3149 0.193769 0.753678
H 8.28469 3.2708 0.2088 -0.286273 0.438066 -0.013472
H 6.44287 11.5935 9.74978 0.436198 0.057407 0.758875
H 7.22617 2.17544 1.96345 -0.666454 -0.335418 1.326287
H 5.26978 2.1171 3.65904 -1.797276 1.371364 0.108814
H 1.88292 11.3722 10.9115 -0.571544 0.037237 -0.443567
H 1.12348 1.69465 2.68046 2.04714 0.894483 -0.818641
H 6.45428 7.45152 11.7027 0.474796 -0.154178 0.774215
H 10.8561 8.54528 2.29732 -1.064921 -1.197057 0.553719
H 4.41837 2.66234 9.73436 -0.688599 -0.497453 1.076205
H 1.3911 10.7559 9.17666 0.679147 0.606682 -0.413548
H 9.15754 7.72476 8.23202 0.065109 -0.4345 0.068548
H 10.4861 7.72208 4.1938 0.087693 -0.149538 0.199576
H 8.78176 1.83698 0.16186 0.035144 0.287921 0.933173
H 6.30919 4.25814 6.39192 0.209934 -0.553118 0.351542
H 8.11863 12.2238 0.031 -0.347058 0.062102 0.53205
H 6.69292 0.5991 8.93045 0.524421 1.290933 0.296666
H 10.1516 3.3036 8.98462 -0.074888 0.044235 0.280378
H 9.54862 9.20537 2.71438 -0.752319 0.464422 0.547097
O 8.45131 2.52797 0.81694 0.153498 -0.692034 -1.104318
O 8.83365 0.65635 3.58691 -1.223839 -0.631212 0.301369
O 8.00452 6.40938 9.11807 -0.584795 0.988735 0.674975
O 5.82817 3.39376 6.57697 0.558024 1.169128 0.201786
O 5.93063 11.4202 6.17173 0.611419 0.198587 -0.194756
O 6.30718 7.94795 10.8771 0.981577 1.070469 0.182231
O 3.86838 1.92901 10.1926 1.241168 0.383544 -1.307658
O 2.83211 6.64252 6.03495 -1.078556 -0.878059 -0.072079
O 9.62748 4.26586 2.3929 0.723062 -0.822291 0.062765
O 6.53017 12.0655 8.91471 -0.475655 -1.547849 -0.97476
O 11.6296 2.58566 12.2863 0.133429 -1.240663 1.130261
O 6.8208 6.39547 0.48729 -0.776741 0.264594 -0.073971
O 2.14022 1.34383 8.12144 -0.125483 0.21674 -1.389861
O 9.32601 0.86427 11.2368 -0.98257 1.570724 0.06983
O 0.28358 1.38168 4.14759 0.385219 -0.886891 -0.184205
O 5.46705 3.90153 9.12621 -0.138181 0.224756 -0.379937
O 2.29172 8.365 2.56717 -0.063203 -0.125506 0.487452
O 9.87902 8.17244 7.75792 0.070855 -0.450802 -0.247206
O 0.16512 7.06674 11.6081 -1.290591 -0.212438 0.19239
O 11.2429 1.0291 1.88559 0.673089 0.121256 1.355475
O 9.96875 8.32582 2.80593 2.625406 0.342138 -1.296862
O 9.78099 4.54865 5.07826 0.717292 1.261645 -0.152924
O 4.39274 2.57008 4.02092 2.010944 0.128161 -0.917852
O 4.35706 6.4666 9.59674 0.45108 0.828345 -0.949689
O 9.26142 3.28504 9.37942 -0.007938 -0.709606 -1.113338
O 12.142 8.17939 9.26954 0.81547 0.241318 -0.265611
O 7.49886 11.9396 0.75011 0.349835 0.484252 -0.498904
O 8.39026 6.41542 2.28897 0.130264 0.963269 1.171017
O 9.3028 10.8314 8.46943 1.05639 0.958803 0.758012
O 1.12351 8.43741 5.11407 0.333073 -0.14326 -0.358679
O 11.3236 2.55837 5.92333 0.059619 -0.037155 0.404864
O 7.64103 5.33905 6.69556 -0.407506 0.692184 -1.076378
O 3.89292 10.003 3.80332 -2.491951 0.56197 -0.175897
O 4.10769 6.05554 1.16366 -2.433496 0.18156 0.987443
O 12.2618 8.50376 1.36509 -1.171656 1.269883 1.486546
O 6.49296 9.59338 4.38132 0.666834 0.312106 -0.748554
O 6.6329 1.83188 2.71985 -0.666174 0.901073 -1.742091
O 2.25578 5.52306 11.6928 0.072091 -0.121749 -0.457592
O 2.54641 8.20433 8.27766 -1.41124 -1.47706 -0.666308
O 1.9176 2.05797 2.07626 -0.900068 -0.969103 1.6288
O 3.13655 10.7077 8.42801 0.062826 2.245243 0.322476
O 10.8271 7.28219 5.02273 -0.454737 0.147742 0.417578
O 1.85895 2.59453 11.8789 0.102927 0.229554 -0.605323
O 7.00668 6.9662 4.67986 0.611711 -1.797721 -0.596945
O 10.9775 0.2018 9.60616 1.344609 -0.318105 -0.780825
O 2.50182 1.72473 5.45305 -2.482977 -0.549787 0.934148
O 8.52135 4.78061 11.1916 -0.468607 -0.400077 0.939143
O 12.0598 2.32044 8.51981 -1.739842 -0.002603 0.650673
O 7.56933 2.00907 7.87811 -0.177462 0.079277 0.680858
O 8.69719 10.4424 2.7366 -0.534326 -0.341972 -0.126143
O 3.15868 11.5821 5.92365 0.574062 -0.05989 2.267854
O 0.09568 11.1389 0.68087 -0.223926 0.497631 0.183234
O 9.4547 0.76082 6.30655 0.464422 -1.168379 0.397613
O 2.44729 12.0618 11.2813 0.012561 0.905974 0.393267
O 4.6965 5.41422 3.74446 -2.395953 -1.216278 0.665056
O 0.5707 10.7299 9.6967 -0.021831 -0.53487 -0.314778
O 5.79043 10.6626 11.331 -0.001178 -0.658919 -1.39223
O 1.27559 4.31114 6.21021 -1.495189 -1.370546 -0.54456
O 10.9733 5.01155 0.01985 -0.412089 1.375549 -0.086919
N 2.69103 9.04217 12.2674 -0.757557 0.289716 1.709933
N 9.3969 8.26557 11.6849 -1.115698 1.116598 1.610064
N 4.64873 11.8299 1.20287 0.803735 -0.028508 -1.488612
N 1.1564 4.70097 3.32408 0.191321 0.403635 1.205493
N 0.17778 10.9316 5.92663 -0.85844 -0.059428 0.155516
N 11.5305 10.651 6.16452 0.705938 0.164622 -0.127251
N 3.09511 8.94496 11.2571 0.815612 -0.224268 -1.929385
N 8.83102 8.8128 0.08084 1.165158 -1.021459 -1.730172
N 1.01191 4.52543 2.25091 -0.349318 0.045259 -1.352414
N 4.05121 12.0563 2.09101 -0.949702 0.606522 1.117284
N 4.81334 3.42232 0.69598 -0.088844 0.016783 0.085462
N 5.21199 2.43654 0.40413 0.140767 -0.298642 -0.237674
N 6.02769 8.52656 8.16228 1.320654 -0.239954 2.376233
N 5.55938 8.6618 7.18996 -1.33904 0.261444 -2.643008
Na 4.39186 11.9345 10.1327 -0.756749 0.146336 -0.272288
191
energy=-1080.32230389 config_type=nep2xyz pbc="T T T" virial="-14.847964783428205 -0.7375869838260484 2.6686699387058397 -0.7375869838260484 -14.603189341432786 0.677026809567957 2.6686699387058397 0.677026809567957 -15.396445512757234" Lattice="12.4 0.0 0.0 0.0 12.4 0.0 0.0 0.0 12.4" volume=1906.6240000000003 Properties=species:S:1:pos:R:3:force:R:3
H 6.49852 8.39184 4.1129 -0.170159 -0.765801 0.700721
H 5.52196 4.28949 8.8282 -0.41022 -0.673283 -0.102111
H 7.54867 6.12483 0.71297 -0.388183 0.043424 0.225679
H 2.2932 8.48052 4.30777 0.387045 -0.035747 -0.312902
H 2.18929 1.96806 3.94022 1.656633 0.886084 1.456192
H 11.7096 2.66724 5.38736 0.240052 -0.183066 0.501685
H 9.77034 1.45235 7.38548 -0.121267 1.648254 0.079046
H 7.15424 7.02555 3.68287 -0.093621 0.084935 0.304319
H 3.88666 5.62261 4.0143 0.889798 1.099265 -0.3815
H 7.7102 6.63756 7.51525 0.955945 -0.525432 -2.051913
H 7.7528 0.06945 9.41098 -0.021723 -0.002889 0.122138
H 3.81368 2.09957 3.88715 -0.447765 0.401928 0.381959
H 7.40502 6.98189 5.96123 -0.059523 0.268679 -0.416017
H 2.97919 10.902 3.21332 -0.502778 0.866688 -1.094216
H 7.2969 4.78396 0.06555 0.035003 -0.01858 -0.516771
H 6.35675 7.62736 10.2705 0.338848 -0.744046 -1.872727
H 9.12865 0.21595 0.52878 -0.541551 0.827508 -0.10072
H 10.2428 1.70512 1.76829 -0.041884 0.306853 0.022706
H 11.3833 0.17432 10.2783 0.67962 0.195499 0.868172
H 10.6788 5.47141 9.19634 0.252931 -0.138846 -0.243014
H 0.35761 5.50681 8.21536 -0.162926 0.029918 0.437508
H 0.42428 7.82088 8.37374 0.833634 -0.841114 -0.722674
H 0.01516 10.5749 9.80569 0.128557 0.600056 0.191689
H 11.3158 2.37028 11.1366 0.294307 0.464694 -0.889584
H 2.60051 7.17537 3.42331 -0.068362 0.898495 0.887723
H 0.97702 0.38352 3.11958 -0.916657 1.23887 -0.294541
H 4.10753 5.04471 6.95829 -0.274027 -0.52345 2.015436
H 3.6752 5.59736 8.43414 0.614039 -0.255384 -0.070961
H 8.68854 11.1397 2.02625 0.455771 -0.862924 0.655974
H 9.51464 1.00584 4.54635 1.230415 1.280915 -0.518946
H 1.70771 11.6087 1.22711 0.113846 0.109081 -0.464992
H 12.2298 1.97685 6.78242 -0.277156 1.136574 -1.080324
H 5.20071 6.64505 3.70836 -1.156129 -0.193732 0.250801
H 8.94041 0.08951 8.36551 0.267406 -0.405778 0.679684
H 8.92302 2.96399 10.2286 -0.444161 0.313865 0.344189
H 7.76269 11.1894 11.6834 -1.490675 -1.443732 -0.399696
H 10.2731 2.96599 2.71715 -0.407139 0.561062 -0.267038
H 10.1249 0.92291 10.0573 -0.272067 0.021985 0.65407
H 3.03437 6.59085 10.1438 -0.942588 -0.41082 0.67715
H 8.82525 11.5345 3.52696 0.350892 -0.185733 0.594632
H 10.3765 5.76026 10.6815 -0.173314 0.002046 0.4956
H 3.11663 6.21922 12.0114 -0.253104 -0.052034 0.473408
H 3.63409 8.97655 9.18712 -0.374864 0.731406 0.217984
H 2.50153 6.99236 8.68475 -0.319372 0.122696 0.667629
H 0.86334 6.9059 6.97925 -0.041834 0.191571 0.506063
H 3.40425 11.6476 6.52069 -0.276641 -0.155287 -0.128508
H 1.23303 0.50253 7.11313 0.186638 -0.118264 0.49033
H 0.79172 7.00199 11.9669 -0.637143 -0.032493 0.108761
H 10.3073 3.64738 7.92039 -0.584007 0.10546 -0.344484
H 0.9044 8.25638 2.85823 -0.784921 0.884425 -0.478216
H 8.78252 5.50025 2.38609 -1.563093 1.230588 0.241893
H 8.81596 3.6219 7.32983 -0.223223 0.287225 -0.502593
H 8.03562 10.8275 8.53025 -0.299935 -1.138922 -0.542941
H 12.2413 1.66772 3.10608 0.532451 -0.678518 -0.566258
H 8.92292 7.16382 2.36989 -0.724228 -0.663304 -0.238113
H 3.22116 3.41101 8.10834 0.358882 1.293108 0.442807
H 0.21116 8.43577 1.41327 0.015923 -0.055007 -0.023234
H 3.66946 10.5254 5.46465 -0.707795 -0.169471 -0.914726
H 7.42894 3.31944 10.1141 0.720156 -0.601643 1.07585
H 3.0059 10.2832 8.58884 0.088564 -0.238696 -0.28526
H 10.9795 4.56654 12.3616 -1.386937 1.487142 0.46051
H 2.79798 1.47286 5.9121 0.028798 -0.901148 0.833475
H 8.83609 9.02872 7.86222 -1.214087 0.426926 0.163037
H 4.21263 5.75205 1.80567 0.634799 -0.232743 -1.154989
H 11.0172 0.4611 7.52837 -1.295177 0.075169 -0.58998
H 1.10425 6.53311 4.87998 -1.231219 -0.380552 1.49877
H 7.14925 5.36293 9.36029 0.988783 2.074495 -0.181696
H 4.76724 3.88037 1.763 -0.130304 1.096729 -0.796658
H 4.37881 10.2433 3.74383 -1.861518 0.004473 -0.634568
H 2.79084 0.53278 0.14401 0.109618 -1.147227 -0.584371
H 11.0104 8.89422 8.91945 -0.835683 0.597751 -0.578963
H 7.21987 3.36313 5.46225 -0.241761 -0.588414 -1.130847
H 11.6281 6.84979 0.03556 1.367092 0.756165 -0.572191
H 6.41225 10.8116 4.69884 -0.072717 -0.998869 -1.153605
H 7.6231 2.09911 3.9054 0.749982 -2.878738 0.779802
H 5.2838 11.5886 6.14346 0.838366 -0.136282 0.452996
H 2.24393 5.05458 11.7326 -0.333081 -0.688334 -0.381544
H 12.0036 6.13862 5.55263 1.242931 0.189704 -0.59545
H 0.88464 3.22944 11.2618 0.757794 -0.293641 -0.304074
H 6.76869 11.2111 6.60298 -0.599975 0.476726 -0.061
H 0.0204 4.10055 7.57858 -0.47596 0.989332 1.420292
H 5.21748 5.37146 0.6151 3.0374 0.60293 -0.659115
H 9.55071 12.39135 5.73445 0.267606 0.501397 0.377722
H 8.39422 6.29105 9.58364 2.634075 -0.417083 0.946485
H 3.52259 2.26075 1.67755 0.745322 0.486479 0.288955
H 7.19344 10.2634 3.43479 -0.22899 0.184745 0.088242
H 9.87909 6.53046 5.65326 -0.449321 -0.413833 0.828659
H 2.83213 1.53845 7.48568 -0.112696 0.486034 1.014654
H 2.1658 2.68462 12.0547 -0.180557 0.561139 -0.804031
H 11.6586 8.42177 10.2237 0.264568 -0.213787 0.706684
H 1.06403 10.4253 1.99652 -0.170573 -0.334311 0.43325
H 11.6471 3.62414 10.0366 0.141319 -1.035275 2.453648
H 6.96855 9.63841 8.57067 0.497885 0.330283 -0.592128
H 3.25534 3.8394 5.15054 0.269533 -0.954171 -0.458312
H 9.7283 4.87879 3.53717 1.036939 0.924836 1.901342
H 6.70522 9.90223 11.1565 1.071345 -0.751652 0.61258
H 0.57734 12.2201 8.4704 0.08369 0.73426 -0.747576
H 2.1267 4.73674 5.44494 -1.78437 0.630531 0.355381
H 10.127 5.13842 1.23632 0.546108 0.259978 -2.311322
H 8.51259 2.19537 12.1345 -0.244639 0.476501 -1.102306
H 6.00859 1.62648 8.89053 -0.557949 -1.316829 0.052439
H 8.04907 3.43196 3.42446 0.941161 1.196745 -0.585192
H 5.62176 3.17019 2.8921 0.051075 0.052763 -0.25838
H 2.35531 0.46231 11.1354 0.183816 -0.890479 0.244839
H 2.03727 1.8827 1.9226 -0.541971 -0.043894 0.039029
H 6.37632 7.47531 11.6667 0.170062 -1.868369 2.40119
H 10.9892 8.55078 2.6669 0.307326 0.324323 0.006614
H 2.39887 2.86721 9.44112 0.786174 0.039423 -1.135216
H 0.95867 11.2363 10.8113 0.728196 0.091211 0.728212
H 9.7866 7.78111 8.19509 -0.604146 0.703427 -0.497076
H 10.3336 7.10398 4.38176 0.881824 -0.513461 -0.001803
H 7.88375 2.08899 1.11496 0.505283 -0.324834 -0.082346
H 7.44007 4.77368 6.04038 0.127006 0.232744 0.348089
H 9.78491 11.6071 12.0041 0.041082 -0.066616 0.277074
H 5.80702 0.29176 8.01039 0.198136 0.653454 1.071352
H 6.58147 3.7072 7.93778 0.112506 -0.385338 0.393235
H 9.54205 9.13996 3.00275 0.380015 0.314761 -0.049234
O 8.62719 1.75034 0.57969 -0.297328 0.110259 1.676168
O 9.10349 0.25643 4.92071 -1.711089 -1.501283 -0.853745
O 7.515 6.32064 9.28643 -3.932242 -1.637326 -1.30443
O 7.27129 3.84093 6.28202 0.243686 0.695032 1.188615
O 6.23135 11.9226 6.15905 -0.236874 -0.7647 0.163446
O 6.39571 8.15437 11.0458 -0.435419 2.643025 -0.773355
O 2.84363 2.65689 8.56395 -1.078009 -1.339667 1.325312
O 3.06762 4.74548 5.40176 1.590988 0.727927 -0.098594
O 9.36812 4.30192 2.90009 -0.5768 -0.940942 -1.695856
O 5.84368 0.63189 8.95712 0.348 0.637283 -1.163229
O 11.6534 3.30794 11.0311 -0.121132 1.061239 -1.664281
O 6.94329 5.68477 0.04983 0.320349 -0.133496 0.422461
O 2.67645 0.91042 6.75188 0.462891 -0.143079 -2.182899
O 10.8328 0.85623 10.7322 -0.620392 -0.530022 -1.052889
O 0.80856 1.37826 3.1627 0.727097 -0.698227 0.403349
O 4.12722 4.82329 7.96159 0.030401 0.977664 -2.010487
O 1.89173 7.68763 3.91676 0.341001 -0.969418 -0.650306
O 9.73692 8.70679 7.86709 2.483561 -1.800948 0.295562
O 12.3512 7.50388 12.13 -0.918144 -0.843743 0.521022
O 10.7106 2.10015 2.51893 0.43432 -0.770691 0.686442
O 10.0678 8.3258 2.89831 -0.520767 -0.719121 0.503605
O 9.39791 3.3111 8.03406 0.827143 -0.725785 0.699764
O 4.74325 3.23928 2.46545 0.234535 -1.460455 1.140362
O 3.30019 6.8674 9.26901 0.706704 0.735712 -1.519744
O 6.25866 3.62224 8.87615 0.423474 0.63388 -0.516433
O 11.8082 8.99175 9.46386 0.969751 -0.026715 -0.03592
O 9.16188 11.6657 0.34871 0.227564 -0.849604 -0.590985
O 8.20658 6.4567 2.27648 1.593523 -0.415127 0.115544
O 7.63378 10.0379 7.96565 -0.844716 1.030512 1.150505
O 0.62049 6.07344 5.66509 0.386737 0.434061 -0.889457
O 12.0266 2.83747 6.28903 0.294681 -1.025412 0.881374
O 8.05575 6.5293 6.52346 -0.873852 -0.089313 2.355691
O 3.35499 10.2097 3.7344 2.873184 -1.411699 1.713634
O 4.32443 5.38289 0.85247 -3.300198 0.02535 1.807112
O 0.25259 8.83807 2.30926 0.572278 -0.591566 -0.180166
O 6.33698 10.1427 3.92934 0.085204 0.859708 1.112887
O 7.25818 2.90253 3.64884 -1.544138 1.617562 -0.346213
O 2.26051 6.00746 11.5806 0.566146 0.583428 0.278613
O 1.03144 7.11982 7.96691 -0.72549 0.618444 0.21342
O 2.70132 2.03313 1.22712 -0.446755 -0.764493 -0.622946
O 3.4022 9.91823 9.388 0.435665 -0.403935 0.295967
O 10.5901 6.37051 5.01898 -1.253724 1.063572 -0.958081
O 1.88553 3.08499 11.1812 -0.470961 -0.161355 1.128596
O 6.54552 7.41796 4.37898 0.593151 0.461223 -1.354797
O 0.40548 0.37932 7.66391 -1.045611 -0.227639 0.592035
O 3.06275 2.28781 4.49032 -1.796423 -1.550237 -1.810945
O 8.12218 2.99922 10.796 -0.24592 0.544854 -1.892684
O 12.2441 4.67988 8.40508 0.210285 -1.142263 -1.621769
O 8.64026 12.0947 9.23898 -0.490838 0.365192 -0.55533
O 8.76007 10.749 2.94442 -0.661366 0.742195 -1.165162
O 3.74893 10.731 6.39763 0.387103 0.952777 1.177446
O 1.55544 11.2673 2.10996 -0.116918 0.352091 0.248929
O 10.0249 0.54626 7.25835 2.158767 -1.349781 0.613936
O 2.68272 12.2183 11.8174 -0.397084 2.135085 0.419893
O 4.28092 6.33179 3.40561 -0.290457 -0.896748 0.182666
O 0.37625 11.477 10.0998 -0.997933 -1.16452 -1.172096
O 6.88554 10.8395 11.296 0.015671 2.103943 -0.008946
O 10.0385 5.88684 9.78982 0.147936 0.396941 -0.183097
O 10.3875 5.36329 0.24845 1.102691 -1.941026 1.677284
N 4.80766 9.15737 0.76454 -1.776097 -1.660855 0.463123
N 9.37821 9.07359 11.3409 0.639227 0.57402 -2.763398
N 6.05649 12.3559 1.70692 -0.842344 -0.223845 0.194257
N 0.40367 4.09069 1.90136 -1.096837 -1.478707 -1.275939
N 11.3778 10.2667 5.21423 -0.114191 0.003036 -0.292679
N 11.8689 10.4806 6.17861 0.11187 -0.201 0.239502
N 4.0215 8.37531 0.92632 1.597469 1.769865 -0.348612
N 9.16927 8.81502 12.3764 -0.578809 -0.801157 2.718581
N 0.96534 4.84829 2.44995 1.221194 1.662939 1.230069
N 5.01448 12.0365 1.91826 0.85808 0.385979 -0.244956
N 4.67492 1.69464 11.4698 0.824128 0.603016 0.135088
N 5.45105 2.35109 11.9129 -0.504324 -0.308912 -0.236992
N 4.57654 7.81376 6.34342 -0.720494 -1.354459 -2.639295
N 4.76513 8.28683 7.30345 0.832698 1.229406 2.604148
Na 4.75126 11.4711 10.5496 0.077227 0.0762 -0.021093
191
energy=-1083.10890664 config_type=nep2xyz pbc="T T T" virial="-4.63717905747671 2.3702483450980276 1.924597339833484 2.3702483450980276 0.25703265942238457 4.29168022878047 1.924597339833484 4.29168022878047 -10.089153668358264" Lattice="12.4 0.0 0.0 0.0 12.4 0.0 0.0 0.0 12.4" volume=1906.6240000000003 Properties=species:S:1:pos:R:3:force:R:3
H 6.77942 8.15871 4.78093 -0.685926 -0.044765 0.045086
H 8.36661 2.29126 8.72195 0.567907 0.043461 -0.242724
H 7.57841 5.87018 1.00056 1.523261 1.235248 1.548687
H 2.84247 8.68103 2.82011 -0.145853 -0.997461 0.083729
H 1.67892 1.58042 4.77006 0.487009 0.045953 0.473894
H 11.0994 3.24891 5.49398 -0.451427 1.436882 -0.287788
H 10.1645 1.43442 5.93023 -0.473898 -0.221753 -0.290664
H 7.34358 7.08574 3.8967 0.279616 -0.552885 -0.087855
H 3.86509 6.0945 4.88897 -0.457906 -0.183708 0.118572
H 7.62086 5.92552 7.36827 0.23851 -0.096184 1.400424
H 6.88698 2.22831 7.44794 0.578742 -0.370602 0.009348
H 3.28751 2.07778 5.0979 -1.714859 -0.658297 0.428485
H 7.3051 6.20943 5.97937 -0.019055 -0.315933 -1.02771
H 3.64825 10.7661 2.98489 -0.574546 -0.864546 0.740949
H 7.14185 5.01091 12.2903 -0.407904 0.311146 -0.152566
H 5.47615 7.42368 10.4947 1.016705 0.333408 0.684759
H 7.0256 0.01268 1.23269 0.577364 -0.047429 -0.62634
H 11.5008 0.25322 1.41033 -0.266961 -0.047401 -0.134429
H 9.58175 0.32315 10.8504 0.404284 -0.52135 -0.619657
H 0.95335 4.04883 6.56885 -4.000315 -0.365663 0.840392
H 12.38736 1.99669 8.72454 0.01852 0.116822 -0.610454
H 1.67927 7.652 8.29993 -0.370657 -0.075885 0.185495
H 0.12128 10.0042 9.48645 0.395275 0.549223 0.149473
H 11.4697 1.97296 0.36779 0.134839 -0.044224 0.471997
H 3.13311 7.23087 2.23758 0.239692 -0.214944 -0.154399
H 0.48128 0.35122 3.88442 -0.10648 -1.190793 0.119293
H 5.10124 4.94083 9.48976 -0.390183 0.263184 0.258856
H 5.54432 3.67927 8.76307 0.190789 -0.799495 -2.276964
H 8.1698 10.5682 1.89782 0.100077 -0.604032 0.047266
H 9.8904 0.61619 3.02111 2.504879 1.523598 -1.289767
H 0.74661 11.4726 0.57104 0.328552 0.813979 -0.38766
H 11.9358 2.02092 4.81158 -0.024937 0.125243 0.959658
H 5.28602 6.28325 4.26195 0.065301 -0.199001 0.223984
H 8.00357 1.21085 7.01111 0.796015 -0.275854 -0.774959
H 9.31263 4.91951 11.5417 0.834652 -0.06813 0.257345
H 6.34411 10.9853 11.7605 0.184422 -0.53189 -0.932139
H 9.39118 3.74671 2.62036 0.577098 0.632131 -0.198144
H 8.9537 1.74773 10.6304 0.341573 -0.11604 -0.499389
H 3.4233 6.05896 10.5687 -0.40928 -0.416521 0.981762
H 8.8701 11.1886 3.05278 -0.302991 -0.842107 0.44288
H 2.12811 3.18279 6.06212 -0.501316 -0.097155 0.046716
H 3.15695 5.77672 0.41124 0.23699 0.050149 0.557722
H 2.88021 9.26882 8.49449 -0.114773 0.186195 -0.065319
H 3.67474 6.91164 9.36391 -0.443655 0.206034 -0.826797
H 2.8605 7.14097 7.37955 -0.282962 0.287175 -0.053579
H 2.82953 12.2878 5.82691 -0.187533 -1.243503 0.537728
H 10.6286 0.61291 9.14967 0.550323 -0.616883 -0.122816
H 0.98545 6.6217 11.7652 1.619155 -0.544135 0.140047
H 10.7233 5.79796 5.36165 -0.657444 0.395796 0.679604
H 1.27002 8.37389 1.58212 -0.348983 0.386176 0.246496
H 9.11841 5.73726 2.43696 0.086272 1.038809 0.428238
H 9.53156 4.96788 6.11614 -0.661082 0.654931 0.186043
H 9.62038 11.2288 8.36228 -0.403986 -0.18351 0.121453
H 11.9587 1.31358 2.37972 0.22179 0.495563 0.796178
H 9.35989 7.31567 2.44672 0.712489 0.319671 0.181004
H 3.18817 2.34116 10.9542 0.062248 0.131996 -0.335345
H 0.2269 8.19396 0.46714 -0.192464 0.267381 0.06138
H 2.86474 10.7857 5.26786 0.068378 0.130877 0.248467
H 8.56204 3.90179 10.5045 0.261266 0.936062 1.075507
H 2.92687 10.4918 7.54538 -0.064288 0.598269 -0.231077
H 11.3356 4.26963 0.0976 0.364575 -1.234693 -0.935263
H 2.01347 1.56375 7.40638 -0.576552 -0.019677 0.228712
H 9.50729 9.19994 7.96073 0.485387 -0.329825 -0.879553
H 4.37847 5.6391 2.61702 0.192197 0.376689 -0.763979
H 9.77924 0.1421 6.66851 -0.60601 -0.019325 -0.802619
H 1.37264 7.80179 4.03077 0.21368 0.073412 -0.426362
H 7.46575 7.15365 9.7903 -1.092863 0.874612 0.837655
H 4.61 3.89507 4.27065 0.102474 1.739808 -0.280637
H 4.58702 9.88027 3.78216 -1.000499 -0.468776 0.121473
H 1.20116 0.97404 11.082 0.868052 -1.092838 1.110626
H 11.5337 8.14375 8.47213 -0.424049 -0.2841 0.018978
H 5.60172 3.11176 6.0455 -0.58137 -0.048992 -0.936681
H 11.9363 6.21585 11.9143 0.194563 0.835398 -0.548771
H 6.14859 10.4143 4.89997 -0.160691 0.850382 1.162707
H 7.42277 0.73805 3.32405 -1.709577 0.84842 -1.524803
H 4.92277 11.8286 5.38769 0.220798 -0.187742 0.94268
H 2.35549 4.72721 12.0565 -0.252065 -2.251998 -0.039142
H 0.20873 7.86042 5.08482 0.246216 -0.037467 0.533034
H 1.12197 3.09049 12.026 -0.307168 -0.238017 -0.096926
H 5.51374 11.392 6.84911 0.137446 0.846566 -1.653888
H 11.5818 2.35391 7.43099 0.099727 -0.399086 0.640153
H 5.29587 5.83305 1.24412 -0.618739 -0.023215 0.608472
H 9.15971 0.37794 4.48861 0.958762 -0.044121 -0.49122
H 8.54554 6.11283 9.60876 -0.870322 0.806245 -0.902619
H 3.09505 2.18855 2.54445 0.816508 0.672336 0.76478
H 6.84625 9.96621 3.62323 0.516131 -0.092026 -0.426977
H 10.497 7.86724 6.21378 0.546573 -0.058345 -0.646601
H 2.41034 2.00017 8.82331 -0.554378 -0.33292 -0.041995
H 2.21493 2.59043 0.62369 -0.06875 0.483183 -0.570252
H 12.2869 7.6897 9.77802 -0.48701 -1.033317 3.208953
H 12.2605 10.3329 0.89401 -0.153429 -0.079779 0.440703
H 11.2427 2.25707 11.2767 -0.369848 0.004998 -0.379038
H 8.13853 10.9262 7.78526 -0.394668 0.173176 0.256144
H 2.32071 5.65259 6.0371 -0.877228 -1.801112 0.209278
H 10.0816 4.52669 3.81151 0.106967 0.215084 0.321405
H 6.09754 9.57871 11.0321 0.135933 -0.386411 0.006886
H 11.579 11.7541 9.5665 -0.788564 0.32571 -0.642014
H 2.08432 7.16325 5.48079 -0.516699 -0.090023 0.241208
H 10.8098 5.12297 1.1429 -0.467655 0.445224 -0.531253
H 8.46727 3.259 0.59802 0.03274 -0.006491 -0.046975
H 5.91669 11.5335 9.38373 0.8403 -0.354822 0.102948
H 7.2741 1.97067 2.39191 -1.224767 -1.306509 0.072926
H 5.08665 2.50159 3.59912 -0.430913 0.689134 1.030044
H 1.15814 11.9126 10.778 -0.08318 -0.692231 0.104664
H 1.6018 1.68105 2.69644 0.459088 -0.175855 -0.021803
H 6.44279 7.21216 11.6811 0.144369 0.044673 0.178316
H 11.4295 8.65964 2.6759 -1.440118 0.293777 0.189726
H 4.45007 2.76342 10.1299 0.272299 0.650703 -0.211324
H 1.41888 10.7438 9.02888 -0.667218 0.191441 0.298309
H 9.27128 7.65981 7.97514 0.869868 0.5985 0.032064
H 10.7776 7.97374 4.5792 -0.421494 -0.095683 0.432882
H 9.1438 2.17637 1.52579 -0.335106 0.41953 -0.486084
H 6.42705 4.29837 6.73725 0.451934 -0.035367 -0.415241
H 7.84363 0.23968 12.2978 0.647831 0.275098 -0.261109
H 6.31541 0.30707 8.34446 0.527598 0.228156 0.162182
H 9.93255 2.67849 8.78346 0.834981 -0.066711 -0.120677
H 9.87751 9.31769 2.92673 0.894474 -0.723435 0.112756
O 8.46419 2.89107 1.50423 0.46103 -0.838968 0.146521
O 9.22959 0.1856 3.49741 -3.015315 -1.406021 1.905879
O 8.00302 6.78208 9.09467 2.008569 -1.845564 -0.296555
O 6.07163 3.38327 6.82432 -0.098434 -0.24429 1.241079
O 5.74381 11.6281 5.87908 -0.167395 -0.189218 0.93005
O 6.31615 7.82058 10.9261 -1.428963 -0.799924 -0.594102
O 3.76125 2.08313 10.1896 -0.672394 -0.928534 0.38684
O 2.71334 6.49923 5.8953 2.331337 0.999804 0.334733
O 10.0867 4.42408 2.83728 -0.533601 -0.541507 -0.064995
O 5.73097 11.9532 8.53026 -0.923014 -0.145135 -0.076697
O 11.7537 2.56306 12.0275 0.323641 0.300939 -0.163825
O 6.78444 5.64335 0.56138 -1.229682 -0.826898 -1.529642
O 1.64602 1.6183 8.31726 1.320336 0.194408 0.184359
O 9.15865 1.05913 11.2909 -0.746774 0.4591 1.428045
O 0.56355 1.28752 3.79592 -0.187621 1.485688 0.086087
O 5.51754 4.07032 9.60451 0.265929 0.290813 1.925636
O 2.4165 7.79213 2.57841 0.373459 1.291683 -0.033383
O 9.95973 8.32914 7.69294 -1.321448 -0.647133 0.800333
O 0.12596 6.91988 11.4931 -1.83152 0.005243 0.483477
O 11.2226 1.14846 1.75961 -0.455867 -0.547259 -0.436621
O 10.5435 8.57847 3.15311 0.52752 0.655199 -1.056711
O 10.2713 4.92884 5.51233 1.166802 -1.089912 -0.956381
O 4.51544 2.94685 4.28851 0.605863 -2.5097 -0.691329
O 4.1282 6.28812 9.95822 0.853872 0.55749 -0.035637
O 9.09417 2.7483 9.24639 -1.3789 0.761256 1.133543
O 12.3739 7.88303 8.88644 0.998169 1.246704 -3.132787
O 7.49304 11.9491 0.48288 -1.223828 -0.263427 1.057071
O 8.68051 6.64072 2.38687 -0.994141 -1.221822 -0.236481
O 9.05685 10.6607 7.75884 0.740936 0.576723 0.100488
O 1.17362 8.04352 4.94723 -1.022374 0.833838 -0.577836
O 11.4549 2.38372 5.66613 0.535716 -1.442713 -0.648272
O 7.58983 5.44848 6.53694 -0.081984 0.569686 -0.033634
O 3.57471 9.99701 3.61102 1.426423 1.21461 -0.8428
O 4.38663 5.93531 1.65343 0.118374 -0.122512 0.052423
O 0.4444 8.81071 1.21154 -0.014598 -1.176114 -0.314923
O 6.12845 9.71748 4.22928 0.025889 -0.711688 -0.769881
O 6.70196 1.17802 2.71219 2.546498 0.524471 1.145205
O 2.40192 5.65173 12.2114 0.243921 2.657371 -0.42178
O 2.65059 7.6478 8.21981 0.372446 -0.065387 0.115398
O 2.3938 1.77636 2.07018 -1.068869 -0.419188 -0.908478
O 2.85565 10.2649 8.49083 0.027724 -0.21446 0.721129
O 10.9975 7.4849 5.42393 -0.0978 0.041195 0.1724
O 2.08533 3.09969 12.1466 0.270924 -0.987815 0.65841
O 6.78019 7.17958 4.69033 0.525286 0.364581 -0.316807
O 10.6213 12.0614 9.41365 0.084756 0.431061 0.165091
O 2.4151 1.70751 5.5194 1.540451 -0.027295 -1.103093
O 8.46922 4.51832 11.3166 -0.777682 -1.337017 -1.409647
O 11.4725 2.17576 8.40574 0.081212 0.149499 -0.512076
O 7.53001 1.50583 7.7899 -2.045523 0.449037 0.489442
O 8.46951 10.2698 2.7874 0.141734 1.293645 -0.692587
O 2.92787 11.3131 6.09383 -0.101064 1.289417 -1.168507
O 12.248 11.3127 0.86351 -0.286653 -0.262258 0.08403
O 9.39294 0.76637 6.00968 0.927501 0.254504 0.891127
O 1.57558 0.10867 11.4334 -0.348332 1.541663 -1.258899
O 4.51476 5.67453 4.25216 0.536147 -0.062136 -0.111152
O 0.51748 10.9111 9.52117 0.689533 -1.221048 -0.493154
O 6.02444 10.5423 10.9187 -0.252567 1.357477 0.753778
O 1.83344 4.0626 6.38429 4.055026 0.913696 -0.6828
O 10.8578 5.10092 0.15333 -0.051254 0.610985 1.455562
N 3.46092 9.37664 12.0874 -1.63576 -0.371621 -1.579836
N 9.3647 8.12175 11.8542 0.574005 1.937708 -0.631205
N 4.22477 12.0223 0.56668 0.626771 0.191391 3.581456
N 0.88292 5.41113 3.18671 0.416011 1.199797 1.519302
N 11.7539 11.4788 6.10338 0.058427 0.08385 -0.032514
N 12.3228 10.5555 6.30825 0.050434 -0.186602 0.11269
N 2.68169 9.24554 11.2931 1.55359 0.171816 1.620464
N 9.66539 9.1531 11.5424 -0.541534 -1.915236 0.598213
N 0.62764 4.7074 2.39085 -0.394186 -1.352224 -1.51516
N 4.38089 12.0283 1.68458 -0.617951 -0.01141 -3.759964
N 4.91292 2.75436 0.53894 2.283196 0.090174 -1.565064
N 5.79839 2.76064 12.2479 -2.104013 -0.082701 1.849569
N 6.29742 9.27374 7.74347 -0.534834 -0.687249 0.062457
N 5.46754 8.55816 7.91825 0.665634 0.453233 -0.104583
Na 4.0219 12.0759 10.361 -0.412084 0.137595 -0.269722
191
energy=-1081.80817044 config_type=nep2xyz pbc="T T T" virial="-3.3991643967197795 -0.6832744203923818 -5.253824195952988 -0.6832744203923818 -21.555375964108517 -6.786083476223686 -5.253824195952988 -6.786083476223686 -11.861713911252984" Lattice="12.4 0.0 0.0 0.0 12.4 0.0 0.0 0.0 12.4" volume=1906.6240000000003 Properties=species:S:1:pos:R:3:force:R:3
H 6.76864 8.18161 4.53085 -0.021035 -0.579158 -0.345131
H 10.3887 2.76114 8.16852 1.987561 1.111169 0.029693
H 7.34186 6.46657 0.63122 0.177624 0.159075 -0.029106
H 2.96021 9.27254 3.90624 -0.589895 -0.272347 0.290944
H 2.78191 3.37009 5.49657 0.284629 0.220652 -0.226814
H 11.0347 3.26273 5.79672 -0.331026 -1.013369 -0.675917
H 11.7627 2.17709 6.44169 0.35886 -0.286937 0.043057
H 7.12557 7.18204 3.4471 0.875118 -0.233545 -1.388243
H 3.61605 5.54183 4.55056 0.832683 0.549108 -0.887913
H 7.22221 6.20404 6.88791 -0.036852 -0.402446 0.089918
H 6.27603 2.03164 5.52789 0.123068 0.973141 -0.789205
H 3.99404 2.97059 4.55979 1.346756 0.608965 -0.105775
H 7.42776 6.31201 5.35774 -0.293545 1.046564 -1.213819
H 4.3828 10.9554 3.9016 -1.479779 0.133111 0.146672
H 7.37571 5.62059 11.7285 -0.210615 -0.11006 0.098597
H 4.7232 6.75965 10.0199 -0.810902 -0.55338 0.473905
H 6.9894 3.36183 10.375 -1.299284 0.603688 -1.630901
H 0.74843 0.05035 1.07015 0.142194 -0.376353 0.11559
H 0.31149 10.1455 11.7337 -0.60409 -0.178142 -0.058402
H 11.896 4.77775 8.37681 -0.420592 0.665116 0.554499
H 0.52485 2.72206 8.50499 -0.982604 0.685035 -0.34082
H 1.05912 7.97099 9.55105 -0.841539 -0.296592 -0.614114
H 11.7265 9.44243 9.6857 -0.231095 1.293391 0.324112
H 10.9521 0.5607 1.4029 -2.002681 -0.829243 -0.061642
H 3.09487 7.71477 3.91213 1.252388 -1.54491 -0.493067
H 1.62064 1.94379 4.08813 0.973262 0.718925 0.378455
H 4.77971 3.89744 8.477 -1.286732 0.169534 -0.169094
H 3.59707 4.72181 9.03206 -0.217472 0.048553 0.369779
H 9.57355 11.9543 2.93431 0.219266 -0.039711 -1.542671
H 9.78292 1.37934 5.82092 0.110694 0.038826 -0.677378
H 4.14022 1.07015 2.15895 0.00126 0.207656 -0.235827
H 0.04866 1.89454 4.33228 -0.067078 0.210856 0.540198
H 4.84239 6.41452 4.00557 1.706222 0.586411 0.898461
H 6.09334 1.46208 6.89798 0.189654 -0.802174 0.448173
H 8.02757 3.63718 12.3305 0.101469 0.222687 -1.298844
H 4.52084 10.2995 9.55165 0.038404 -0.608395 0.149422
H 8.99047 3.64741 2.86853 0.189208 0.290765 -0.100561
H 0.89919 9.87666 0.83811 -0.395164 -0.301923 -0.617247
H 2.70218 5.54765 10.8876 -0.316037 -0.05686 0.338547
H 9.2872 11.9079 4.38986 0.492295 -0.889434 -0.593948
H 10.6084 5.42719 9.01997 -0.977616 -0.411771 -0.06242
H 3.01513 5.04859 0.70522 -0.155167 -0.551016 -0.575799
H 2.09679 9.75451 8.97164 -0.004248 0.681655 -0.183896
H 2.55034 6.61155 9.66772 -0.835048 0.645615 -0.410182
H 1.24102 7.58522 7.91559 0.708969 0.644841 1.343601
H 2.76884 11.5177 5.5912 0.054703 -0.059891 0.274382
H 10.9768 11.8895 9.60486 0.117961 -1.165673 0.190565
H 0.63252 5.83136 0.3649 1.072693 -0.952153 -0.025563
H 10.313 5.74088 6.10051 0.11162 0.158827 -0.042989
H 1.26963 8.32239 2.66855 -1.276272 0.230529 -1.078916
H 8.83042 5.89014 2.35774 -0.732816 1.476525 -0.603132
H 9.14929 4.74047 6.02356 -1.465743 0.229506 0.501604
H 7.74027 12.3294 7.06607 0.390242 -0.508213 0.778478
H 0.54374 0.87603 2.42171 0.968798 0.713834 1.791764
H 9.10982 7.484 2.07825 -1.008468 -1.026871 0.045308
H 5.94039 2.06683 8.73325 0.383459 1.032344 0.922954
H 0.22799 7.82691 1.39765 1.122418 0.526425 0.93365
H 4.12317 11.3688 6.26291 -0.045922 0.180483 0.021866
H 8.81064 4.5639 9.96628 0.055763 -0.005283 0.211345
H 2.4593 10.8434 7.93746 -0.368472 0.308289 0.382562
H 9.70641 4.08693 0.11029 1.811656 0.700086 1.137619
H 2.84052 2.05267 7.70948 0.063482 -0.788061 0.432903
H 9.14819 10.0448 7.45027 -0.370587 0.352724 0.337391
H 4.54006 5.3963 2.05431 0.051142 0.136064 0.451859
H 9.89673 1.35184 8.38156 -0.476398 0.529368 0.177867
H 1.56903 7.52553 5.51201 -0.564534 -0.170306 1.237504
H 6.6163 7.05132 9.02426 0.562363 -0.155148 -0.283415
H 5.36416 3.11384 1.88072 0.129331 0.431619 -0.431942
H 3.25467 11.7985 3.24931 -0.312474 -0.163655 -0.336097
H 2.39536 11.0721 12.1391 0.525412 0.188593 -0.265244
H 11.8864 6.87118 9.62838 -0.212608 0.431492 0.544587
H 6.01484 3.36931 3.96501 0.036871 0.025963 0.028016
H 11.5092 6.05259 0.53725 -0.294887 -0.587068 -0.198151
H 7.86443 9.45608 5.83469 0.636568 0.193722 -0.229734
H 8.95766 1.73214 3.74989 -0.33899 0.041076 0.575327
H 6.20802 10.5694 5.40686 0.957428 0.084515 -0.21197
H 1.94502 3.89979 0.39127 -0.301718 0.181078 -0.241983
H 0.08941 7.1266 6.05621 1.197274 0.342619 0.278449
H 11.9447 1.13515 9.86526 0.432258 0.704444 -0.158927
H 6.1686 12.2404 5.54477 -0.180098 -0.70819 0.085687
H 0.9008 3.86971 7.37755 -0.948211 -0.765022 0.038611
H 5.41411 5.41196 0.75096 0.920387 0.594919 -0.636135
H 8.24362 1.25885 5.5837 -0.50463 -0.090476 0.298251
H 8.01745 6.38579 8.73012 0.544429 -0.735145 0.284076
H 0.20234 2.11788 0.38401 -0.305804 2.070332 -0.510068
H 8.20652 10.2415 4.49723 0.460295 0.255509 -0.43345
H 10.7457 8.37481 6.28359 -0.079691 -1.082261 -1.181204
H 3.05633 0.52419 7.35515 -0.089392 -0.712072 -0.801984
H 0.40597 2.28813 10.655 -0.344506 0.132081 0.252003
H 12.2167 7.43196 11.1088 -0.4032 -0.367402 0.030754
H 3.31616 0.22961 1.11426 0.218397 0.397332 0.393513
H 9.48663 0.36642 0.58974 0.293014 0.491902 -0.202628
H 7.69565 11.8161 8.56033 0.021812 0.043523 0.22115
H 2.68824 4.60678 7.36958 -0.821299 -0.723113 -1.960394
H 9.40186 4.64709 3.92301 0.714473 0.507025 -0.045857
H 4.99719 9.01921 10.4748 -0.057665 1.536087 -0.809983
H 10.1646 0.60457 10.5154 0.385965 -0.338777 -1.379161
H 1.7016 5.51701 6.50629 -0.193227 -0.641385 -0.43369
H 10.3777 4.38421 1.688 -0.113863 -0.17053 -1.519304
H 8.74791 2.22949 11.2578 0.292725 -0.568477 0.781511
H 6.26971 0.14444 9.67852 0.829623 -0.028335 0.550533
H 9.12458 1.80486 2.23155 -0.06556 -0.587793 -0.306142
H 6.69168 2.31952 2.34776 -0.533417 0.043426 -0.084067
H 3.81303 10.985 11.454 0.404195 -0.309058 0.012068
H 11.8902 3.57452 0.07929 -0.887269 0.004863 0.675542
H 5.75471 7.10572 11.1978 0.261076 -0.660988 -0.282932
H 11.2823 8.62042 2.83376 1.525764 -0.007492 -0.694607
H 4.4762 1.3487 8.50005 2.263979 -0.475857 -0.088998
H 0.4255 10.5127 9.79162 -0.607949 0.453428 -0.620127
H 8.65464 8.56336 7.51876 -1.576669 -1.170519 0.825622
H 10.9053 7.77582 4.74365 -0.452153 0.966719 -0.193284
H 7.22614 3.86163 8.95886 -1.319547 0.047973 0.342218
H 6.4961 4.35209 5.19164 -0.616261 -0.972911 -0.000156
H 8.22083 0.74173 11.1601 -0.986653 -0.679564 -0.563252
H 6.54683 11.3807 10.7133 0.590671 0.82748 -0.79191
H 8.93768 3.80176 8.60019 0.533549 1.864849 0.705722
H 10.1953 9.56752 3.35019 0.148369 -1.241215 0.296294
O 6.4359 3.53025 9.47692 2.540572 -0.13947 1.119695
O 9.09875 0.99473 5.21438 0.160688 -0.083957 0.206607
O 7.31714 6.88998 8.32433 -0.928238 1.170658 -0.080178
O 5.99666 3.50725 4.93154 0.401311 1.188884 -0.024513
O 5.68283 11.3722 5.43167 -1.671701 0.601201 0.041225
O 5.53323 7.22314 10.2505 0.280982 1.430853 -0.220351
O 5.54084 1.21325 8.54816 -2.663323 -0.765842 -0.657841
O 1.9924 4.54325 6.57729 1.446971 1.768909 1.825281
O 9.41424 4.58295 2.94541 -0.814586 -0.776203 1.089835
O 7.00847 12.1209 10.2262 -1.495208 -0.668128 0.159826
O 9.91645 0.3507 1.46026 1.999255 0.737184 0.59541
O 6.78478 6.19 12.2624 0.281607 -0.158178 0.429547
O 2.9531 1.14937 8.09455 0.18084 1.945213 0.000918
O 0.98079 10.3717 12.3793 0.744614 0.417148 0.873699
O 0.80883 1.49431 3.88852 -0.656181 -0.961958 -0.761455
O 3.78775 4.01559 8.37073 1.476293 -0.094154 0.41117
O 2.52675 8.41553 4.16564 -1.042722 1.547574 -0.044246
O 9.38728 9.11335 7.34564 1.796827 0.974011 -0.874359
O 12.3388 6.47949 0.28347 -0.585617 1.549084 0.172912
O 0.14895 0.5633 1.61389 -1.281741 -0.193145 -2.311765
O 10.4661 8.59033 3.31862 -1.649374 1.395326 0.155784
O 10.0862 4.81397 5.91508 1.257534 -0.248111 -0.583915
O 5.70911 2.3813 2.40442 0.423831 -0.256265 0.526923
O 3.11099 5.96758 10.1129 1.094901 -0.710787 -0.095129
O 8.94539 4.76079 9.01127 -0.297488 -2.126515 -0.601093
O 11.9406 7.7113 10.2148 0.230473 -0.212147 -0.257905
O 8.92068 1.2557 11.557 0.753598 0.862161 -0.420511
O 8.40021 6.77644 1.98962 1.321369 -0.255392 0.724894
O 8.19602 11.7638 7.72914 -0.05005 0.072871 -0.951185
O 1.10871 7.10217 6.30502 -0.572553 0.065578 -1.259808
O 11.2331 2.28354 5.63261 0.320872 1.705423 0.538574
O 7.34676 5.67696 6.05187 0.33436 -1.71592 1.276884
O 3.3881 10.9457 3.71946 1.793915 0.259599 0.193495
O 4.67692 4.98952 1.18904 -0.754758 -0.995552 0.645797
O 0.53893 8.5815 2.00981 0.087286 -0.735516 0.185676
O 7.57687 9.64852 4.92883 -0.710567 -0.745888 0.60917
O 8.56084 2.16482 2.95054 0.081399 0.465008 -0.631982
O 2.24733 4.78981 0.13793 0.138976 0.719128 0.272768
O 1.6827 7.89652 8.79784 0.6581 -0.071952 -1.004773
O 0.26178 3.01849 12.2968 1.428817 -2.658921 0.116761
O 2.14138 10.7513 8.8776 0.630278 -1.141832 -0.249475
O 11.0337 7.60939 5.69268 0.177799 -0.23048 1.767086
O 0.39612 1.71494 9.86213 0.675985 -0.494889 0.091057
O 6.60036 7.2439 4.23676 -0.888141 1.081098 0.598392
O 10.6945 0.40534 9.65051 -1.178145 1.194495 1.33075
O 3.13999 2.72179 4.85839 -1.771244 -0.787523 0.414832
O 8.41076 3.78726 11.425 -0.628345 -0.24165 1.375658
O 0.11887 3.35373 7.8179 1.318001 -0.293814 0.366128
O 6.57775 1.27942 6.06147 -0.046536 -0.216677 0.492646
O 9.46322 11.2782 3.61046 -0.354536 0.274944 2.366136
O 3.1654 11.5422 6.48709 0.425722 -0.199198 -0.456214
O 3.23543 0.82074 1.90614 0.080357 -0.745877 -0.176987
O 9.61992 2.24869 8.04775 -1.598899 -1.338499 -0.133975
O 3.23546 11.5924 11.9448 -0.923876 0.21109 0.110673
O 4.01007 6.03099 3.78226 -2.171535 -1.031462 0.019859
O 11.8446 10.4478 9.79143 0.815837 -1.929196 0.245514
O 4.93116 10.0363 10.3912 0.063566 -1.054613 0.52754
O 11.4904 5.63939 8.72435 1.514882 -0.079898 -0.497597
O 10.563 4.33063 0.69492 -1.479411 -0.124929 -0.486253
N 3.33312 8.17375 1.10961 -1.727428 0.588277 -0.220945
N 10.2647 10.0115 0.02966 -0.012043 1.423616 -0.467698
N 6.75704 12.1304 1.43651 -0.929702 1.671937 -3.447427
N 0.46213 5.14095 4.02565 0.604499 -2.279182 -3.163898
N 0.34266 10.5655 4.76127 -0.198503 0.867395 0.514641
N 0.17648 11.4839 5.36514 0.076797 -0.92073 -0.441624
N 4.37558 7.84967 1.16814 1.897056 -0.423559 0.097456
N 10.2014 8.96041 0.33354 -0.095084 -1.429415 0.383893
N 0.65916 4.48027 3.12749 -0.661926 2.318442 3.038493
N 7.03183 11.6524 2.36831 0.620523 -1.773606 3.298181
N 4.68986 2.41676 11.4818 -2.147215 -0.797662 -0.306851
N 3.66904 2.02227 11.2486 2.293724 0.987796 0.444354
N 4.10991 7.33376 7.04481 0.962613 1.442848 -1.074811
N 4.5935 8.14703 6.44901 -0.854189 -1.440248 1.135934
Na 2.34161 0.43841 10.0019 -0.486865 -0.385051 0.405646
191
energy=-1082.63214489 config_type=nep2xyz pbc="T T T" virial="-14.229094305477323 -3.6512584685380944 -2.641037648545241 -3.6512584685380944 5.433791088329706 3.601503685953485 -2.641037648545241 3.601503685953485 -10.306368221459648" Lattice="12.4 0.0 0.0 0.0 12.4 0.0 0.0 0.0 12.4" volume=1906.6240000000003 Properties=species:S:1:pos:R:3:force:R:3
H 6.36797 8.12408 4.14156 0.863135 -0.196123 -0.020033
H 5.09953 3.46077 7.25704 0.306778 -0.482481 0.454538
H 7.63223 6.28993 0.60751 -0.727994 -0.40733 -0.363652
H 2.93762 8.84737 4.16067 0.362784 0.321123 -0.190394
H 2.32865 2.46663 4.09482 0.665542 0.385618 -0.278171
H 0.49406 3.42775 7.05617 0.365735 0.986582 -0.406399
H 9.72096 1.63559 6.76731 -0.219096 0.83295 0.331847
H 7.39013 7.10316 3.35353 2.500613 0.00651 -2.319702
H 4.27013 4.87858 3.40096 0.25462 0.631605 0.57816
H 8.73502 5.7091 7.2888 0.168645 0.564064 0.819104
H 8.14288 1.14083 9.2708 0.990566 -1.153189 -0.221369
H 3.88153 2.92001 4.01715 -0.962754 0.157642 0.275805
H 8.13487 4.96288 5.95831 1.24383 0.635524 0.291188
H 3.2942 10.5084 2.94329 0.654577 -0.089278 1.063712
H 7.30116 5.03202 12.1585 -0.195766 0.57689 -0.057275
H 5.55262 7.05841 9.68721 0.048275 0.180554 0.205459
H 7.85371 0.40046 0.71135 0.130979 0.045026 0.169864
H 10.8435 1.44756 1.86595 -0.283219 -0.771125 -2.187987
H 10.7793 10.8976 11.1111 1.250109 -2.753562 -0.915022
H 8.57609 3.40902 10.5889 -0.139941 0.342723 -0.621971
H 12.1032 2.18567 10.9143 -0.399165 0.075545 -0.345852
H 0.96854 8.65484 9.13799 -0.672479 0.369882 0.694669
H 2.04043 10.8609 9.10313 0.178413 -0.270343 -0.083717
H 10.7367 0.66139 11.9852 0.202278 1.441205 -0.461062
H 2.81943 7.26102 3.93043 -0.570038 1.142255 0.15549
H 1.73928 0.67622 2.69944 -1.546435 0.90601 0.508444
H 2.54354 4.15618 7.6632 1.141898 0.546764 0.635066
H 3.49723 4.80692 8.8542 -0.356656 -0.670525 -1.038295
H 8.06988 10.8817 2.21555 2.029225 -0.392851 1.996305
H 9.7732 1.12498 3.65381 0.59045 -0.06932 -0.457359
H 2.27743 11.4802 1.04834 -0.023541 -0.229784 -0.379184
H 0.53818 2.06042 7.64192 0.123802 -1.60885 -0.149736
H 4.98401 6.34217 3.65164 -1.31066 -1.258791 -0.646643
H 8.88298 0.19132 8.30808 0.630094 -0.163442 -2.586036
H 8.83844 2.95428 8.74375 -0.435578 0.022612 -0.752899
H 7.26489 11.9376 10.1109 -0.484871 0.142794 0.535607
H 10.6086 2.79206 2.59951 0.067161 -0.073734 -0.056656
H 9.9394 12.0331 10.3538 -0.007924 -0.235569 0.033316
H 3.45435 6.56618 10.5907 0.327865 0.453661 -0.518619
H 8.78714 11.3234 3.65732 -0.067443 0.295649 -0.711564
H 9.55655 4.20265 11.6665 0.133804 -0.027617 -0.420758
H 2.88703 6.49535 0.09886 -0.131613 0.452244 -1.068637
H 2.86441 9.48946 8.01493 -0.106799 -1.232909 0.733901
H 3.46808 7.34618 9.2682 -0.670105 0.511448 -0.537041
H 1.121 7.82611 7.84136 0.476995 0.20271 0.246301
H 2.56218 12.33278 6.14124 -0.471655 -0.514222 -0.699224
H 0.54087 12.1264 6.81265 0.884529 -0.73687 -0.724156
H 1.04129 7.42943 11.8815 -0.968712 0.045774 0.333965
H 10.8115 3.03539 7.51585 1.267903 0.035654 0.072708
H 0.9942 8.54265 2.89137 -0.976305 0.397724 -0.747551
H 9.11966 5.46565 2.33568 -0.169837 -0.00849 -0.287598
H 9.66183 3.91285 6.79235 -0.040205 0.025173 0.484222
H 7.96508 10.1141 9.7073 -0.650188 -0.875204 -1.141663
H 0.37637 1.68112 2.82952 -1.618699 -0.571338 -0.125315
H 9.26796 7.00951 2.32006 0.420492 1.220698 0.290169
H 2.87018 2.43843 9.1297 0.406477 2.410385 -0.401256
H 0.15039 8.58275 1.48731 0.479859 -0.32552 -0.144901
H 2.81849 11.1627 5.06529 -0.228646 -0.038799 0.18454
H 7.3154 3.29801 8.59105 -0.754699 0.230194 -0.928849
H 2.82939 10.6896 7.25565 0.025592 1.019706 -1.064217
H 11.8514 4.64386 12.3661 -0.213874 -0.006787 -0.60632
H 2.91764 2.31927 6.38559 0.487007 0.156487 -0.09775
H 9.69155 9.35755 7.9172 0.367402 -0.237592 0.2578
H 4.24178 5.81855 1.56612 -0.327142 0.415769 0.846195
H 10.5809 0.38024 6.72829 -0.265119 -0.145258 0.100249
H 1.15839 7.61907 5.52676 -0.650645 -0.833995 0.864289
H 7.90374 6.68078 8.9971 -0.497573 0.12257 0.271968
H 5.09296 4.13849 1.92355 0.072195 -0.382796 0.076968
H 4.70313 10.2835 3.81599 -0.318373 -0.281818 0.04025
H 2.54988 0.69879 12.0566 -0.064932 0.294697 0.107173
H 11.3729 9.0113 9.45921 -0.237611 0.024054 0.575578
H 7.08169 4.2151 4.14184 0.228346 -0.425818 0.407787
H 11.9698 6.92561 12.1266 -0.74708 -0.948494 0.056234
H 6.32534 10.0926 5.4394 -0.012821 -0.349884 0.14359
H 8.19749 2.19433 3.61488 0.183453 -0.875208 0.543747
H 5.2061 10.4251 7.25152 -0.799158 -0.38292 0.343546
H 2.00257 5.57174 11.623 0.235287 1.165101 -0.107357
H 12.0889 7.15438 5.90671 -0.43851 0.179276 -0.07941
H 1.13349 3.57299 11.2137 -0.250166 -0.163415 -0.868706
H 6.72246 10.1213 7.66108 -0.415818 0.360882 -0.413457
H 0.01509 2.90693 9.40716 0.537978 -0.627992 1.176574
H 5.24881 5.83028 0.44644 1.394061 0.388768 -0.72021
H 9.10979 0.80436 5.02364 -0.033172 -0.549892 -0.768143
H 9.21058 7.43945 8.84619 0.770844 0.942752 -0.178252
H 3.58857 2.26941 0.93095 -0.797359 -0.284655 0.30455
H 7.21526 9.92485 4.11136 -0.495574 0.089718 0.112032
H 9.87593 6.43836 5.89645 -0.026732 1.559942 -0.856667
H 2.89016 1.44793 7.77537 0.0029 0.238909 -0.270932
H 2.31757 3.54113 12.236 -0.714384 0.78281 -0.688445
H 11.8779 8.73815 11.0525 -0.063438 -0.274295 -0.615491
H 1.36852 10.7389 2.15037 0.654643 0.071357 -0.341514
H 10.1052 2.13882 11.8197 -0.875284 0.530781 -0.229348
H 7.19313 8.77647 9.16397 0.93511 1.042305 0.283323
H 1.99509 4.09475 5.44315 0.077581 0.294257 -0.010956
H 10.2313 4.45768 3.49527 -0.280495 -0.294828 -0.458631
H 7.00719 11.6552 11.6666 -0.194727 0.148488 -0.947938
H 0.24955 12.2098 8.34324 0.281973 -0.404849 -0.174792
H 1.13974 5.31712 6.01801 -0.371893 1.54623 -0.1698
H 10.8299 5.17412 0.90911 -0.453748 -0.057809 -1.018856
H 7.59601 2.38758 0.19209 0.596805 0.792897 -1.11344
H 5.86832 1.3849 7.74906 0.23236 -1.245869 0.99353
H 8.74128 3.63748 2.85708 -0.203294 -1.029647 0.695091
H 6.12237 3.15111 2.60804 -0.927133 0.394827 0.463234
H 1.85241 12.0241 11.0964 -0.145089 -0.2737 -0.3629
H 2.01157 1.94055 1.24365 0.732057 0.292147 0.462331
H 6.71291 6.84019 10.6865 0.143068 0.176283 0.29754
H 10.7801 8.67036 2.67368 -0.282614 0.191945 0.682356
H 1.98615 1.48937 9.90737 0.712922 0.196584 -0.627813
H 0.68922 10.5284 9.98263 0.596602 0.772945 -0.833669
H 10.4923 8.40649 7.0536 0.064868 -1.159517 -1.682757
H 9.88925 7.7969 4.79855 0.906717 -1.27067 1.074333
H 7.80359 2.25671 1.72647 -0.305696 -0.068558 0.234793
H 6.69481 5.68976 4.64996 0.305207 -0.796 0.418968
H 9.00015 11.8083 0.19847 -0.907601 -0.139647 0.215076
H 5.9796 12.2096 7.72934 0.170622 0.445921 0.362816
H 6.24798 3.96138 6.4133 0.060878 -2.321198 0.863444
H 9.36995 9.28521 3.20229 0.175369 0.388893 -0.663985
O 7.47201 1.78863 0.90846 -0.508187 -0.196481 0.71603
O 8.96235 0.73046 4.02151 -0.304129 -0.021594 1.543532
O 8.80613 6.60577 8.65012 -0.368649 -1.21962 -0.049311
O 6.89188 4.74052 4.9547 -0.312043 1.214769 -0.148135
O 6.11115 10.4697 6.93662 0.967744 0.287433 0.674894
O 6.51516 7.28547 9.84277 0.009158 -0.157187 -0.288367
O 2.87188 1.55744 9.45208 -0.889915 -2.10162 1.428415
O 1.49507 4.45625 6.20596 0.518966 -1.562842 0.278557
O 9.88344 4.10836 2.64807 0.73769 1.093772 0.412347
O 5.89693 0.5716 8.35548 -0.31692 1.012306 -1.912866
O 10.8944 1.66467 12.0879 1.156681 -1.673792 0.649382
O 6.95278 5.93293 12.3438 1.133184 -0.351718 0.516526
O 2.61304 1.53247 6.84184 -0.377476 -0.874833 -0.288149
O 10.3761 11.7224 11.1785 -1.521684 2.759314 0.790406
O 1.31978 1.5705 2.91968 3.028367 -0.792459 -0.460344
O 3.38371 4.04618 8.21455 -0.647996 0.357611 0.329141
O 2.30128 8.10161 4.11687 -0.170307 -1.940181 -0.083192
O 10.5118 8.82317 7.90117 -0.525807 1.312275 1.717823
O 0.06353 7.73734 12.0986 1.426337 0.804726 0.049938
O 11.0061 1.86184 2.6831 0.654086 0.64669 1.931496
O 9.90249 8.4658 3.07123 0.777317 -1.35726 0.103005
O 9.88926 3.05591 7.25986 -0.906607 0.082403 0.122997
O 5.16497 3.48934 2.64908 1.034435 -0.235105 -0.936833
O 4.01795 6.74066 9.75647 -0.167616 -1.06899 0.631966
O 6.0232 3.16254 7.06518 -0.612243 2.820182 -1.194978
O 11.6372 9.39621 10.33 0.753733 0.543285 -0.316019
O 8.09427 11.8292 0.60726 0.735878 -0.770289 -0.270081
O 8.65139 6.31063 2.09133 -0.706893 -0.704535 -0.363514
O 7.75585 9.58321 8.88814 -0.399216 -0.458055 0.854009
O 0.61713 7.07999 6.20181 1.115906 0.718777 -0.947703
O 0.08932 2.89089 7.7511 -0.70228 0.668289 0.571339
O 8.99559 5.23293 6.48224 -1.288268 -0.764493 -1.790322
O 3.72259 10.2144 3.83224 -0.090471 0.563503 -0.827187
O 4.3085 5.81274 0.60208 -0.724043 -0.731413 0.559831
O 0.245 8.98196 2.36858 0.627303 -0.005439 0.683969
O 6.35319 9.68003 4.53478 0.400773 0.372075 -0.831614
O 7.84324 2.95771 3.14593 -0.669739 1.786637 -1.053484
O 2.30609 6.59969 11.688 -0.162503 -1.272494 0.764434
O 1.62885 8.26131 8.58131 0.327837 -0.794903 -1.195522
O 2.70856 2.06353 0.55048 0.446071 0.476002 0.017366
O 3.33157 10.3328 8.00703 0.276478 0.231629 0.149423
O 10.3036 7.33917 5.61495 -0.471168 -0.202434 -0.483575
O 1.76329 4.17065 11.6762 0.835125 -0.325718 1.37005
O 6.67927 7.19534 3.92327 -3.522998 -0.241415 2.285044
O 0.02006 0.16586 7.46669 -1.189455 0.897449 0.683389
O 3.00542 3.11382 4.43552 0.163166 -0.6291 -0.035202
O 7.94006 2.82543 9.13279 1.151491 -0.215859 1.153293
O 0.37499 2.59395 10.3101 -0.457208 -0.090531 -0.566878
O 8.70872 0.28886 9.21691 -1.324687 1.036283 2.886566
O 8.62929 10.5499 3.06344 -2.362078 1.241078 -1.373673
O 2.2077 11.46 5.78245 0.700702 0.812036 0.640688
O 2.23279 11.1973 1.98826 -0.974284 0.204651 0.52551
O 9.64673 0.66924 6.6381 0.326772 -1.262596 -0.439432
O 2.43745 12.1546 11.8593 0.442143 -0.527652 0.105092
O 4.12176 5.84875 3.38439 1.074014 1.179771 0.237879
O 1.27272 11.2452 9.56273 -1.27509 -0.323289 1.17955
O 6.54875 11.7547 10.7725 0.794521 -0.299119 0.524168
O 9.00263 3.42691 11.4568 -0.27665 -0.124424 1.204349
O 10.9986 5.12293 12.3263 0.632659 0.038116 1.704351
N 4.73783 9.75533 0.69183 0.94349 -0.526681 -0.29085
N 9.18693 9.06293 11.7642 -1.634755 -0.781049 2.535621
N 5.37412 0.22202 2.38484 -0.082375 1.030422 1.446642
N 0.35194 5.76212 2.53954 -0.614396 1.769342 -1.379181
N 11.8303 10.2991 5.04971 -0.586016 0.100621 0.110234
N 10.7634 10.5209 5.25441 0.64682 -0.131273 -0.132588
N 5.68051 9.2395 0.40801 -0.958392 0.461128 0.258883
N 8.65454 8.81111 0.32278 1.439532 0.631574 -2.486305
N 0.65395 4.92868 3.1755 0.643605 -1.794611 1.397601
N 5.32925 0.89565 3.27425 0.057566 -1.359989 -1.332352
N 5.80494 3.14979 10.9619 -0.375979 -0.374995 0.182001
N 5.28906 2.18358 11.1269 0.275214 0.620888 -0.113108
N 4.84594 6.62214 6.26209 0.850922 -0.313511 -0.326526
N 3.91902 6.95962 6.74449 -0.890446 0.37049 0.434528
Na 4.60356 0.10408 10.0582 -0.347916 -0.19809 0.153582
191
energy=-1081.91956405 config_type=nep2xyz pbc="T T T" virial="-17.648036853035567 -0.3729764161126153 -5.463446414376309 -0.3729764161126153 -13.105761979034643 6.078639727099101 -5.463446414376309 6.078639727099101 -8.434476916562122" Lattice="12.4 0.0 0.0 0.0 12.4 0.0 0.0 0.0 12.4" volume=1906.6240000000003 Properties=species:S:1:pos:R:3:force:R:3
H 7.0715 8.12642 4.82497 1.029368 2.746767 1.650441
H 9.17496 2.93551 8.5507 -0.039738 -1.080789 0.579236
H 7.1231 6.71626 0.82425 -0.199095 -0.766307 -0.609928
H 3.51479 9.46253 3.74001 -0.044349 0.208691 0.225515
H 2.69919 3.42095 4.83646 -0.611163 -1.619164 -1.18251
H 10.7135 2.95881 5.93716 0.329404 -0.072684 0.744686
H 10.1957 2.00108 7.10215 0.262297 0.224353 -1.188526
H 7.17167 7.42438 3.50404 0.337787 -0.050848 -0.65013
H 3.88918 5.77502 4.54346 -0.13844 -0.146149 0.888183
H 7.80368 5.33105 6.52728 -1.388032 0.465895 2.973854
H 6.84284 2.00475 6.12905 0.255634 0.378097 0.06885
H 3.2614 2.30745 3.79781 0.000218 0.11091 0.045577
H 7.78855 6.06273 5.17701 -0.241469 0.459006 -0.110902
H 4.39811 11.5526 4.79219 -0.650073 0.361075 -0.516817
H 7.38705 5.4139 12.3073 -0.288588 0.254851 0.323043
H 4.54456 6.23991 10.2341 0.538932 0.786363 0.546501
H 7.90498 11.7046 10.8125 1.314244 -0.365501 0.564043
H 0.0962 0.61568 0.94898 0.388749 -0.529497 -0.116504
H 0.8716 10.9734 12.1395 0.03775 0.302907 0.33084
H 11.7008 5.20005 9.34189 0.438477 0.048572 -0.685848
H 0.13747 3.55179 10.7501 0.125196 -0.388766 1.104368
H 1.08451 7.87325 9.45167 -1.045001 -0.111726 0.634106
H 12.1339 9.80687 10.4131 -0.202739 -0.608027 0.153153
H 9.92263 1.74936 0.33119 -1.913569 -0.305063 0.234646
H 3.21064 7.88336 4.06453 0.152373 0.929442 -0.908519
H 0.89013 1.99434 3.96704 0.018731 0.657185 -0.229741
H 3.70109 3.33787 8.11429 -0.477794 0.342673 0.077838
H 2.40024 4.17261 8.49419 0.648143 -0.690316 -0.273002
H 10.6125 11.9918 2.06822 0.073409 0.344923 0.164755
H 9.82866 1.5879 4.73647 0.083807 -0.314116 0.805996
H 4.48154 0.42008 1.22117 0.32442 -0.866951 -1.066768
H 11.9089 1.50562 4.50036 0.382506 0.540182 -0.414582
H 5.08126 6.83845 4.21163 -0.538382 -0.728926 -0.072367
H 7.8749 1.13949 7.07409 0.114284 0.693583 0.698374
H 8.80239 3.50005 12.2547 -0.486673 -0.119549 0.241404
H 4.34804 9.73087 9.60028 0.32389 -0.441046 0.242282
H 9.51518 3.32426 2.8393 0.864072 0.065515 0.754854
H 0.98851 10.4788 1.19841 0.124903 0.585912 -0.109339
H 2.84497 5.24968 10.5665 0.284334 0.380256 -0.150032
H 9.9122 12.1958 3.4949 0.075878 -0.613976 -0.627131
H 11.2884 5.64724 7.89665 -0.093789 -0.178182 0.317121
H 3.42462 4.65886 0.73912 -0.147547 0.152032 -0.301451
H 2.47699 9.89689 8.47856 -0.132314 -0.599868 -0.169138
H 2.6585 6.44865 9.4956 -0.061264 0.016704 0.086364
H 1.58596 7.71527 7.93986 0.56143 0.491357 1.110665
H 2.0083 1.15548 5.85413 0.115159 0.184064 0.308371
H 11.4668 11.8367 9.42208 -1.363305 0.620134 -0.351036
H 11.94 8.18625 1.47645 -0.082834 0.308873 0.150729
H 11.0224 5.5799 5.78015 -0.432218 -0.74135 0.566579
H 1.13355 9.11792 3.3746 -0.703965 0.307434 0.076733
H 9.02504 6.86995 1.93069 -1.131431 0.663933 -0.030463
H 9.61118 4.91798 6.15715 2.13711 0.520209 0.149087
H 9.49171 10.9699 7.934 0.537204 0.122633 -0.216055
H 11.8664 1.52022 2.04696 0.269405 -0.242579 -0.10979
H 8.33556 8.26495 1.5629 0.51815 0.698897 0.016024
H 5.22545 1.50787 8.35813 -0.201138 -0.190851 0.496362
H 12.0033 9.72117 3.28691 -0.949453 1.966534 1.023642
H 2.65899 12.2173 5.60151 -0.467706 0.394849 0.677619
H 8.91244 4.23503 10.8071 0.310403 0.607958 0.32593
H 2.71974 11.213 7.66967 -0.066259 0.077436 0.011895
H 9.70415 5.30324 0.71457 0.581663 0.098357 -0.018197
H 1.6427 1.98314 8.26594 0.08139 -0.397461 0.254443
H 9.67806 8.79253 7.43867 -0.734413 2.064586 0.604738
H 4.52522 5.67067 2.45981 0.062404 0.755224 0.763848
H 9.65751 1.35656 8.63093 0.015762 0.137226 0.592787
H 2.22819 8.48681 5.43048 -0.586433 -0.228308 0.94337
H 6.69719 5.74233 9.06499 -0.415459 0.324365 -0.198242
H 5.29492 3.49009 2.63634 -0.568503 1.30036 -0.529924
H 3.61802 12.1689 3.44692 0.312416 -0.815543 1.200763
H 4.7269 10.9171 11.7346 -0.659509 0.573154 0.086802
H 11.5802 7.11222 10.3258 -1.094178 -1.628389 -0.785659
H 5.85652 3.08418 4.69451 0.154264 -0.111284 -0.353916
H 10.7559 7.31477 0.85714 1.480602 1.633629 -0.009689
H 8.20142 10.0576 6.11068 -0.61729 0.003967 -0.704066
H 8.43575 1.86648 3.28256 0.025538 -0.867495 0.963915
H 5.91909 10.7955 6.09149 1.065416 -1.930999 -0.042047
H 1.85788 4.48399 0.10399 2.670614 -0.247853 0.155981
H 0.82303 7.89732 5.94604 0.661916 0.160254 -0.12627
H 3.08899 1.53879 12.3244 0.517197 0.264635 -0.688753
H 6.11745 12.2956 6.10483 -0.792993 -0.510627 0.067678
H 0.19912 2.6783 9.43991 0.035466 -0.919323 -0.013052
H 5.60442 5.34041 1.27129 -0.577994 0.303669 0.038554
H 8.47502 1.03627 5.20518 -0.224982 -0.375722 0.0029
H 7.95331 4.80366 9.08888 -0.077883 0.368381 -0.992926
H 12.252 3.05669 0.61655 -0.139132 -0.695406 0.170779
H 7.76291 10.4784 4.57653 -0.106955 -1.079441 1.53744
H 10.8754 7.76466 5.94562 0.985537 -0.31799 -1.213051
H 1.18778 0.54355 7.97304 0.039943 0.212999 -0.062615
H 3.1488 2.91849 11.7296 0.032757 0.895822 -0.003998
H 11.8853 7.97549 11.6889 -0.323882 -0.515368 -0.75598
H 4.79076 1.62441 2.16921 -0.338093 -0.143735 0.201074
H 8.93673 0.78086 12.0813 -0.829522 0.200886 0.359662
H 8.1829 10.4725 8.48771 0.296777 -0.337254 -1.252903
H 2.93841 4.61518 6.6891 -0.413339 0.059466 0.302631
H 11.0453 3.15011 3.47687 -0.340887 0.342807 -0.391623
H 5.21234 8.42092 10.2062 -0.493361 1.000298 0.155991
H 10.0008 11.8286 9.88157 -0.420329 0.150339 0.603462
H 2.23298 5.97428 6.13427 0.228107 -0.104718 0.142073
H 10.3063 5.00859 2.11635 0.570557 0.047133 0.516406
H 5.68454 3.32555 7.13645 -0.173347 0.239115 0.755237
H 6.47096 12.1229 9.25053 0.211253 -1.957117 0.348602
H 8.46413 1.90752 1.74838 0.10917 -0.804398 -1.736932
H 6.47845 2.48453 2.70305 -0.597493 0.037666 0.806664
H 3.37114 11.0817 0.03739 -0.698979 -0.204691 0.388859
H 11.8629 4.55621 0.57706 -0.707422 0.569375 0.311937
H 5.82621 6.53686 11.2951 -0.463758 0.097896 -0.012098
H 10.0854 9.39039 0.99085 1.884794 -1.212156 -0.473163
H 5.0733 0.07634 7.80894 -0.307159 -0.2265 0.068002
H 0.80834 10.5953 9.73588 1.756169 0.02709 -1.600158
H 10.1018 7.43924 7.92443 0.473557 -0.930299 0.954846
H 11.6235 7.66611 4.34862 -0.250022 0.140397 1.63485
H 6.21939 3.66248 8.57438 -0.758067 0.338839 -0.64793
H 7.05821 3.87841 5.33985 0.326186 0.546503 0.01262
H 8.9465 11.1632 12.0138 -0.392622 0.125905 -0.396455
H 6.2584 10.476 9.6391 0.304644 1.019593 0.129552
H 9.91509 4.81358 9.50129 0.375284 0.470728 -0.06906
H 9.53755 10.4563 1.96683 -0.109118 -0.017609 -0.139737
O 5.43992 3.26473 8.10001 0.351235 -0.807455 -0.465641
O 9.13457 0.95201 4.47301 0.020776 0.222036 -0.494903
O 7.19002 5.17283 8.45902 0.884302 -0.490764 0.966545
O 6.34047 3.2586 5.53774 -0.65955 0.181049 -0.039066
O 5.39628 11.5697 6.1083 0.050856 2.604403 0.109219
O 5.23585 6.9027 10.5871 0.206591 -0.202202 -0.921376
O 4.96134 0.58371 8.63687 0.592166 0.546278 -0.568125
O 2.7681 5.19169 5.91308 0.314826 0.017629 -1.047515
O 10.2911 3.76447 3.28948 -0.69458 -0.119735 -0.549944
O 6.93804 11.2425 9.50628 -0.557453 0.815022 -0.143667
O 8.91164 1.57898 0.31271 3.363682 0.151829 -0.85597
O 6.66564 6.07163 0.20558 0.935761 -0.231343 0.353589
O 1.22999 1.19118 8.69624 0.204538 0.427686 0.046819
O 1.15677 11.2693 0.64074 -0.237252 -0.782769 -0.306147
O 12.3257 2.01966 3.76313 -0.640335 -1.113149 0.687945
O 2.7446 3.47967 7.86855 -0.000603 0.230637 0.677014
O 2.82653 8.80846 3.92249 -0.152054 -1.219227 0.310316
O 9.82544 7.91105 7.15524 0.367495 -1.414052 -1.723714
O 11.2904 8.2035 0.74366 -0.940496 -2.164053 0.421291
O 11.7527 1.20451 1.11974 -0.489504 0.676926 0.414125
O 9.32578 9.90325 1.1734 -2.506435 1.03235 -0.05128
O 10.6256 4.90306 6.39671 -0.933998 0.542241 -0.860346
O 5.53234 2.67376 3.08662 1.359681 -0.513377 -0.094241
O 3.17847 5.6445 9.72764 -0.41742 -0.644007 0.066085
O 9.1943 4.22685 9.71049 -0.425786 -0.979684 -2.320578
O 12.002 7.84956 10.7014 1.60344 2.554292 0.945849
O 8.80299 11.8398 11.3068 -0.739014 -0.485416 -0.261893
O 8.16516 7.40268 1.96823 0.75354 -0.966606 0.246088
O 8.83966 10.2798 7.72655 -0.84886 0.764445 1.335197
O 1.78097 8.04576 6.21784 -0.608948 -0.169887 -0.641604
O 10.7566 2.02862 6.25124 0.170023 0.412298 -0.480906
O 8.1646 5.32463 5.67727 0.758367 -0.969908 -2.383307
O 3.54792 11.5497 4.2451 0.411721 0.587156 -0.867668
O 4.81028 5.03891 1.79645 0.377314 -1.583429 -1.096915
O 0.20955 9.07992 3.01095 1.813797 -2.333753 -1.420545
O 7.59317 9.84115 5.33459 0.650596 1.088825 -0.610552
O 7.9967 2.24003 2.51272 -0.829788 1.627175 0.846276
O 2.89182 4.46831 12.3259 -2.687545 -0.017579 0.015195
O 1.85919 7.87961 8.8952 0.657786 0.03405 -1.467723
O 0.18968 3.94503 0.47981 0.837938 0.15844 -0.645582
O 2.65015 10.8419 8.56265 0.036288 0.237596 0.397428
O 11.6853 7.50026 5.33038 -0.896728 0.076865 -0.016458
O 3.29634 1.99442 11.4718 -0.522723 -1.147572 0.946946
O 6.72605 7.40955 4.36106 -1.131442 -2.683409 -1.132533
O 10.5503 12.17 9.16179 1.346379 -0.526029 -0.165232
O 2.47757 2.57087 4.30232 0.517342 1.532747 1.237275
O 8.67105 4.39918 11.9198 0.045993 0.424974 2.059996
O 0.1183 3.55617 9.80388 -0.192942 1.433171 -0.83495
O 7.20483 1.11725 6.38234 0.023352 -1.623967 -0.690051
O 10.2538 11.518 2.8352 0.133876 0.650423 0.888578
O 2.20531 0.34085 6.34498 0.512573 -0.773175 -1.325795
O 4.09753 0.98384 1.87404 -0.734938 0.305464 0.883546
O 9.08503 1.99311 8.16165 0.013327 0.60503 0.153583
O 4.08234 11.5988 12.0606 1.128359 -0.530923 -0.754379
O 4.23475 6.40326 3.89701 0.51994 1.381112 -0.103693
O 0.20135 10.6533 10.4394 -1.261708 0.397559 1.369156
O 5.11244 9.47221 10.1505 0.08162 -0.634463 -0.206913
O 11.5057 5.99941 8.79954 -0.305733 -0.376198 0.089199
O 10.3877 5.67079 1.38516 -1.426887 -0.298751 -1.018484
N 3.05185 7.40636 0.15401 -0.803423 1.92559 1.291908
N 8.63864 7.37225 10.7303 -0.479893 1.85562 -1.910018
N 5.95981 10.2963 2.50404 -0.189781 -0.41239 -0.54145
N 1.44559 5.86405 3.08354 -0.111519 -0.002859 -0.066532
N 11.4398 10.5401 6.4072 -0.217899 0.031889 0.41259
N 12.1085 10.6349 5.53777 0.316347 0.146725 -0.400264
N 2.70183 8.2891 0.75022 0.727143 -1.816971 -1.306795
N 8.38329 8.113 9.92564 0.522875 -1.801854 2.020559
N 0.65053 5.47928 3.74755 0.021865 -0.093789 -0.097983
N 5.57541 9.68032 1.66506 0.282971 0.416642 0.563728
N 6.45224 2.52554 11.0317 0.397204 -0.971882 0.003697
N 5.90853 3.47879 10.9911 -0.495103 0.867143 0.049979
N 4.90735 8.73603 6.8591 0.043495 -1.374432 -0.11666
N 4.97243 7.63344 6.71985 -0.074948 1.26186 0.268156
Na 3.17162 0.4162 10.0057 -0.067689 -0.127072 -0.207581
191
energy=-1082.70942643 config_type=nep2xyz pbc="T T T" virial="-5.577759842146641 -4.570990083371089 9.665744157628673 -4.570990083371089 -2.3500893875045503 4.012275172501097 9.665744157628673 4.012275172501097 -8.694091921791935" Lattice="12.4 0.0 0.0 0.0 12.4 0.0 0.0 0.0 12.4" volume=1906.6240000000003 Properties=species:S:1:pos:R:3:force:R:3
H 6.55933 7.94605 4.36486 -0.878052 2.145791 0.118192
H 8.5263 2.41538 9.34607 -0.099016 0.507198 -0.17077
H 7.41503 6.97917 1.31716 -0.371273 0.352805 -0.082689
H 3.19742 8.88153 3.3846 -0.207288 0.745804 0.208008
H 1.57656 1.32516 5.02867 -0.367811 0.042773 0.261291
H 11.0835 3.11906 5.3203 -0.410124 0.131095 0.772765
H 10.1369 1.12203 6.29908 0.563385 0.82539 -0.710452
H 7.38669 6.89367 3.96721 2.094859 -1.103072 -1.648398
H 3.92711 5.87083 4.97108 -0.193168 -0.541417 -0.45526
H 7.87348 5.59975 7.53575 0.382663 0.375114 1.393796
H 7.07917 2.15756 7.78591 -1.819754 1.083855 -1.232331
H 3.07753 1.85107 5.33688 -1.132818 0.132146 0.855956
H 7.28251 5.90235 6.21948 -0.11685 0.253814 -0.644416
H 3.58954 11.2099 2.89594 0.478185 -1.183101 0.644763
H 7.37019 6.15757 0.11476 0.252373 -0.811513 -0.993702
H 5.47305 7.30056 10.19 -0.423722 0.111698 0.093048
H 8.48914 0.14848 12.1038 -0.091977 1.933746 0.738405
H 11.6529 12.2372 1.39371 -0.527244 0.861781 0.368692
H 10.04 2.03015 12.37524 -0.34079 -0.264441 0.199701
H 2.39055 3.53368 8.30626 0.69912 -0.21499 0.283178
H 12.3292 2.78981 8.70511 0.118383 0.141251 0.056581
H 1.31101 7.79627 8.58612 1.2228 0.173299 -0.502342
H 0.14861 9.8802 9.19953 0.319027 0.46945 -0.063783
H 11.8344 1.61394 0.50664 -0.322916 -2.412807 3.427802
H 3.03661 7.62864 2.56799 -0.035487 -0.035275 -0.046447
H 0.17038 0.13301 4.54228 -0.140462 0.135799 -0.037742
H 4.17873 4.46104 9.39361 0.311395 0.549952 0.117778
H 4.5275 3.26876 8.39276 -0.081225 0.605094 0.513712
H 8.09442 11.0169 1.14405 0.507093 -0.004988 0.242462
H 9.93378 0.48838 2.7462 -0.232864 -0.088769 0.273709
H 0.27836 11.4271 11.4566 -0.391174 -0.082476 0.348943
H 11.9636 1.9039 4.99101 -0.190866 -0.568516 0.850996
H 5.37157 6.02969 4.4288 -0.191652 -0.302335 -0.368197
H 8.2576 1.1916 7.6148 -0.470716 0.645052 0.550197
H 9.56943 5.48476 11.8445 -0.68173 -0.214199 0.109085
H 7.114 11.2475 10.6367 0.955411 0.691056 1.222727
H 9.0223 3.93616 2.3132 0.559467 0.46017 0.087547
H 8.82351 2.3615 11.5821 -0.360881 0.58575 -1.431432
H 3.75381 5.87861 10.8639 -0.53278 -0.160969 1.210894
H 8.59768 11.3102 2.6609 -0.123707 0.736366 -0.296673
H 1.80206 2.8435 6.98074 -0.082595 1.580575 1.232166
H 3.2829 6.09478 0.52696 0.001395 0.334868 -0.048675
H 3.00176 9.31645 8.43966 -0.142197 0.160833 -0.224601
H 3.619 6.73651 9.59969 0.332055 -0.381883 0.064278
H 2.27878 7.13114 7.52528 0.333812 0.280617 0.437044
H 3.17358 12.0048 5.74386 -0.468786 0.713339 -0.002258
H 10.2841 0.66186 9.56532 0.248135 -0.892801 -0.274966
H 1.02959 6.6339 11.6417 0.814728 -0.599657 0.322303
H 10.8006 5.48617 4.96169 0.40246 0.331613 -0.006879
H 0.90183 9.04206 1.86321 0.692308 -0.358436 0.091214
H 9.01684 6.04048 2.58159 0.405254 -0.158772 -0.147839
H 9.45417 5.28451 5.60144 0.332897 -1.037498 -0.283891
H 9.23042 11.0553 8.54857 0.307268 0.689265 0.612907
H 11.7694 0.62743 2.80922 0.564445 0.498926 -0.2069
H 9.21023 7.62058 2.6463 1.028463 0.729327 0.151377
H 3.15132 2.15935 11.7272 0.487598 -0.015495 -0.966507
H 0.18052 8.31341 0.59596 0.503271 0.293101 0.668566
H 3.97927 10.9819 4.8824 -0.437002 -0.000436 0.386958
H 8.65516 4.42328 11.1878 -0.119809 0.852813 0.062269
H 3.46846 10.6442 7.68889 -0.152014 -0.307634 -0.1837
H 11.4134 4.10471 12.2146 0.147391 -0.428042 -0.086278
H 2.36499 1.02867 7.23771 -0.084336 0.019687 0.270083
H 9.31046 9.25224 7.96725 -0.479838 0.108331 0.056306
H 4.21409 6.06879 2.66477 0.96192 1.000443 -1.177471
H 9.3736 12.3487 6.80189 -0.181738 -2.28771 1.465543
H 1.10925 7.48297 3.98995 0.39678 -0.103729 -0.019109
H 7.3017 7.22803 9.56805 0.552683 -0.620869 0.27064
H 4.26793 3.89096 4.8251 -0.086737 -1.600872 -0.223807
H 4.89365 10.1971 3.35083 -0.330442 0.557484 -0.112095
H 1.81197 1.31939 10.7113 1.176309 0.773391 0.501561
H 11.1544 8.18711 8.68753 0.352014 0.433731 0.16585
H 5.29532 3.01105 6.26441 -0.001764 -0.30529 -0.473982
H 11.8921 6.66019 11.9793 0.513654 -0.539113 0.137388
H 6.62861 10.5387 4.36152 0.263798 1.276058 1.100982
H 5.90565 0.71685 3.86122 -0.429891 0.636575 -0.878285
H 5.63082 11.9821 5.87447 0.68991 0.402639 0.201472
H 2.45357 4.85681 0.10642 0.201551 0.691602 -0.762379
H 12.2488 7.2062 4.8959 0.122816 -0.219187 -0.129846
H 1.06262 2.92117 0.0645 -0.183841 0.003967 0.087136
H 7.22997 12.3707 6.06441 0.022757 -0.119469 0.479588
H 11.319 2.61668 7.61687 -0.049148 -0.122838 -0.660875
H 5.12588 6.73028 1.38913 0.534678 -0.356517 0.284938
H 9.29522 0.51316 4.2182 0.608202 -0.060783 2.034675
H 8.38686 6.06976 9.89085 0.048442 -0.125516 0.968308
H 1.46393 0.23739 2.94956 -0.972267 0.491095 0.008267
H 7.09588 9.90868 3.03701 -0.576052 0.146308 0.56628
H 10.2617 7.94629 6.17605 -0.187466 0.34151 -0.028265
H 3.58397 0.68597 8.12399 -0.077478 0.127196 0.055408
H 2.03745 2.88902 1.29758 0.028032 0.544149 -2.332757
H 12.1539 8.12634 9.97184 -0.145412 -0.183654 -0.323552
H 12.3615 10.5315 0.39969 -0.073286 1.536703 -1.067497
H 12.2258 1.76949 11.4995 0.531176 -0.653086 -1.696959
H 7.75279 10.6534 8.38827 0.277088 0.269101 0.252719
H 2.10237 4.95584 6.63697 -0.103818 -0.269209 0.227614
H 10.0063 4.43117 3.42112 -0.438642 0.669679 -1.128897
H 6.60016 9.8928 10.1299 -0.271792 -0.373038 0.047966
H 11.1607 11.7812 9.45545 2.122172 -0.495762 -0.071758
H 1.75958 6.15279 5.61403 -0.035144 -0.309078 -0.070634
H 10.9741 4.73634 1.14518 -0.423784 0.159843 0.107416
H 8.10869 2.22651 1.57312 0.411756 0.042323 0.066288
H 5.41981 11.719 8.71272 0.257464 0.806758 0.157286
H 6.35644 1.61295 2.64878 -1.222638 -0.341435 0.692388
H 4.6945 2.53728 4.02494 -0.494883 0.113938 1.732569
H 1.10746 1.06292 9.4373 -0.255058 -0.04815 -0.14198
H 1.54989 12.0453 1.40321 -0.066039 0.356894 1.211343
H 6.30467 7.81454 11.331 0.490514 -0.151924 1.090153
H 11.3024 9.12336 2.50754 -1.069347 -0.20058 0.339521
H 3.76578 2.29465 10.2282 -0.050959 1.230895 -0.321957
H 1.36549 10.7879 8.85296 0.583592 -0.106937 -0.442538
H 8.94191 7.68388 8.52352 1.41825 1.234554 -0.542775
H 10.4287 8.20829 4.54006 -0.216457 -0.256776 1.133747
H 8.29432 1.9441 3.08462 0.410116 -0.557963 -0.067902
H 6.46842 3.87919 6.96297 -1.169498 -1.194511 0.01838
H 9.21001 11.6465 11.247 0.927642 -0.585034 -0.771832
H 5.51659 0.83154 9.17041 0.330632 -0.386346 -0.358348
H 9.94547 3.02482 9.55366 0.455109 0.076058 -0.21211
H 9.81533 9.60691 2.51575 -0.882751 0.743411 -0.48385
O 7.9425 2.59836 2.46344 -0.664933 0.603096 -0.60706
O 9.11369 0.35965 3.31203 -0.394388 -0.117655 -1.910061
O 8.04305 6.65045 9.20539 -0.684275 0.749797 -1.296507
O 5.81193 3.1034 7.09173 1.298819 1.610947 0.506957
O 6.47094 12.3459 5.48581 -1.032769 -0.451488 -1.028149
O 6.10499 8.02714 10.4185 0.171444 0.236277 -0.841941
O 3.50039 1.67665 10.924 -0.506299 -0.923933 1.731973
O 2.46233 5.74353 6.17897 0.220072 1.03742 -0.208929
O 9.74292 4.63054 2.45288 -0.145208 -1.302307 1.287817
O 5.14052 0.24055 8.4963 -0.22469 -0.515119 0.452039
O 11.8532 2.23796 12.2395 -0.288029 3.064754 -1.794968
O 6.81297 6.813 0.53843 -0.212606 0.673549 1.01927
O 2.63498 0.94227 8.19232 0.060394 -0.470924 0.052115
O 9.06892 1.87162 12.3586 0.421191 -0.484186 1.302532
O 0.3089 0.97389 4.08019 0.328287 -0.697161 -0.22648
O 3.97487 3.54041 9.18071 0.25037 -0.91816 -0.861403
O 2.54695 8.18812 3.20002 -0.452531 -0.257011 -0.376207
O 9.67304 8.36092 8.13788 -0.421703 -2.00585 0.265561
O 0.29198 7.20278 11.8545 -1.303683 1.068644 -0.416319
O 11.2948 0.61039 1.91523 0.302153 -0.854961 -0.221677
O 10.4446 9.12328 3.04315 1.607056 -0.700279 -0.036024
O 10.1736 4.77608 5.13023 -0.562917 0.512239 0.23174
O 4.27973 2.86053 4.91876 0.98585 1.188708 -1.826079
O 4.27281 6.19645 10.1139 -0.118639 0.566604 -1.899174
O 9.05365 3.03556 9.93187 -0.202987 0.05272 0.715559
O 12.114 8.33875 9.01653 -0.32066 -0.476126 0.519636
O 8.49467 11.6321 11.8778 -0.833538 -1.129191 -0.11274
O 8.57063 6.92325 2.57734 -1.458112 -0.342807 0.042958
O 8.59801 10.7275 7.90093 -0.409453 -0.180324 -0.981153
O 0.62468 6.78136 4.46221 -0.51416 0.166143 0.365068
O 11.4076 2.31316 5.76577 0.143678 0.454059 -0.841374
O 7.83367 5.24007 6.65475 -0.421504 -0.409873 -0.72503
O 3.93724 10.4653 3.48644 0.005506 0.601235 -1.088607
O 4.2673 6.69474 1.84442 -1.097921 -0.978597 0.77145
O 0.12629 9.04509 1.29404 -0.619603 0.280814 -0.524813
O 6.44902 9.79241 3.81065 0.382863 -1.299471 -1.741317
O 5.53199 1.19724 3.05744 1.514189 0.005908 0.50792
O 2.77689 5.73881 12.1536 -0.674191 -0.94266 0.826422
O 2.28982 7.74671 8.31047 -1.173142 -0.74632 0.074192
O 1.9678 12.1337 2.29159 1.080758 -0.838624 -1.264502
O 3.15903 10.2879 8.54431 0.269058 0.349191 0.106042
O 10.5116 7.57647 5.31527 0.368803 0.095111 -0.948943
O 1.99321 3.12979 0.30135 0.210184 -0.614671 2.42404
O 6.69312 7.03915 4.57707 -1.098569 -1.12103 1.427918
O 10.2715 12.078 9.48339 -1.9134 1.407942 0.468591
O 2.21781 1.49841 5.78635 1.177692 0.195031 -1.383807
O 8.62909 5.35551 11.545 0.949948 -0.991541 -0.359728
O 11.4218 2.48022 8.57033 -0.040124 0.033421 0.437598
O 7.73514 1.70578 8.28034 1.98939 -2.138728 0.414203
O 8.24234 10.6425 2.0344 -0.157632 -1.060071 0.126556
O 3.86687 11.3528 5.81866 0.83891 -0.420706 0.529759
O 12.2585 11.466 12.3445 0.757227 -1.845317 0.727943
O 9.38969 0.54076 6.08699 -0.366019 1.230836 -0.860655
O 0.9379 1.11287 10.394 -0.987428 -0.515211 -0.459007
O 4.53326 5.5004 4.27299 -0.081042 0.718967 0.878712
O 0.5392 10.7946 9.34268 -1.051501 -0.112718 0.62138
O 6.77992 10.8083 9.86957 -1.084008 -0.801893 -1.37252
O 1.71607 3.64213 7.62872 -0.917146 -1.396888 -1.725957
O 11.2231 4.95319 0.22349 -0.048281 0.543425 -0.196296
N 3.73144 9.93527 11.5834 -1.511283 -2.129855 0.394923
N 10.1801 9.22607 11.5221 0.84778 1.791057 -1.163326
N 5.59747 0.05941 12.3287 -2.204361 -1.40396 0.956138
N 0.63951 3.50975 3.28987 1.316574 0.412572 0.18084
N 0.34264 10.5837 5.21856 -0.082354 0.043766 -0.080084
N 0.80172 9.88447 5.93773 0.082492 -0.189186 0.148397
N 3.15192 9.08939 12.0314 1.151558 1.557802 -0.780508
N 9.7456 8.36576 12.0336 -0.896155 -1.844375 1.106089
N 1.741 3.63682 3.3999 -1.414371 -0.07509 -0.195007
N 4.69544 11.894 0.28741 2.513656 1.968176 -0.403969
N 4.63058 3.80387 0.9436 1.05963 0.12213 -1.567568
N 5.12343 3.94054 12.3509 -0.638988 -0.306197 1.750119
N 6.4107 8.16866 7.0401 -0.401371 2.427922 -0.461972
N 6.25737 9.24264 6.75775 0.272583 -2.331352 0.733455
Na 3.13573 12.0962 10.0889 -0.001581 -0.639402 -0.408594
191
energy=-1083.27335889 config_type=nep2xyz pbc="T T T" virial="-14.985102816077104 -0.7251631634437635 3.884395504083441 -0.7251631634437635 -3.443968691489226 0.32279322592861626 3.884395504083441 0.32279322592861626 -1.9535267530033444" Lattice="12.4 0.0 0.0 0.0 12.4 0.0 0.0 0.0 12.4" volume=1906.6240000000003 Properties=species:S:1:pos:R:3:force:R:3
H 6.64176 7.85531 4.50511 0.565682 -0.75839 0.055818
H 10.5501 3.32867 8.02212 -1.215892 0.23614 0.978168
H 7.99953 6.22644 0.5252 0.277649 -0.092128 -0.258809
H 2.888 9.35924 4.1825 -0.145557 -0.402698 0.096513
H 1.66735 3.51147 6.07386 0.003397 -0.48025 0.311237
H 11.2475 2.41771 5.26 -0.201643 -0.02545 -0.180556
H 11.7938 1.66029 6.58745 -0.541075 -0.240633 -0.720773
H 7.37474 6.76781 3.567 -0.798846 0.014108 0.917389
H 3.77546 5.76133 4.51547 0.119082 -0.739527 0.673571
H 7.35301 5.59301 7.08488 -0.014955 -0.495073 -0.093025
H 7.34712 3.26791 5.9436 0.257488 -0.141342 0.470458
H 3.07682 3.54957 5.56997 1.333815 0.255998 0.14496
H 7.23828 5.42993 5.56204 -0.617199 -0.058857 0.711114
H 4.88892 10.1606 4.34324 -0.853736 0.847772 0.125134
H 8.03401 5.01196 11.7955 -0.601107 2.410526 1.152424
H 5.35863 6.20874 9.79665 0.106389 -0.231705 0.020765
H 7.86141 3.55894 10.4526 -0.51175 -0.076091 -0.851485
H 0.02972 0.30895 1.23622 -0.242409 -0.300371 -0.539557
H 12.0653 11.0272 12.3362 -0.334202 0.337692 -0.242949
H 10.1154 5.11493 6.69158 0.439082 0.271181 0.171934
H 12.0221 1.70886 8.93101 1.088418 -0.095936 0.769976
H 1.05178 7.11205 9.03731 -0.56703 0.473738 0.125761
H 11.6641 9.2472 9.66622 0.131643 -0.3456 0.02322
H 10.5006 1.0556 2.12804 -0.504502 -0.542422 -0.035282
H 2.91882 7.75183 4.07869 -0.769421 1.421253 -0.10851
H 1.86525 2.15397 4.0617 -0.39871 -0.744797 0.114073
H 4.6826 3.86213 7.71673 -0.970206 0.167454 0.325497
H 3.8829 4.77653 8.78456 -0.15929 -1.045761 -0.146675
H 9.02898 11.6468 3.45178 0.633825 1.761351 -2.422122
H 10.0962 0.73305 5.57786 -1.525603 -0.039808 0.998891
H 4.01337 0.82405 2.50965 -0.735015 -0.796823 -0.215412
H 0.659 1.2314 4.37635 -0.352011 0.239365 0.524909
H 5.10954 6.52627 4.10864 -0.172677 0.034538 0.337158
H 8.18968 1.82394 5.81745 -0.272445 0.528492 0.037995
H 8.85037 3.24276 0.28352 -0.26647 0.271876 0.073571
H 5.24415 11.2739 8.62702 0.432134 -0.123718 -0.901047
H 8.43285 3.27998 2.13941 0.71504 0.413632 0.140322
H 0.53576 10.38 1.10204 -0.47054 -0.69046 0.545885
H 3.21542 5.60623 10.6482 0.195676 0.290348 -0.106076
H 8.95756 11.5241 4.91458 -0.453978 -0.669049 -0.660419
H 10.6607 6.44685 5.99379 0.017905 0.731598 -0.308492
H 3.39911 5.05763 0.5717 0.871024 -0.144094 0.749764
H 1.3872 10.156 7.40019 0.375725 1.301137 0.534054
H 2.91479 6.45573 9.2328 1.314911 -1.204996 1.389155
H 1.52974 7.29858 7.52997 -0.18158 -0.000692 0.890754
H 2.51008 0.84309 5.44514 0.111068 -0.042151 -0.415663
H 11.0849 11.1706 10.4114 0.169882 0.390048 0.00963
H 1.41406 6.47687 0.09276 -0.616599 0.236577 0.038657
H 10.5333 4.43223 5.07479 0.430753 -0.235849 -1.80952
H 1.25262 8.77001 2.62794 -1.25967 -0.284231 -0.228673
H 9.20181 5.7221 2.16707 0.720889 -2.410741 0.348081
H 9.44381 3.45536 4.86249 0.582555 -0.518472 -1.248046
H 8.73459 11.631 9.00133 0.312233 -0.429816 -0.82385
H 0.39828 1.27136 2.31512 0.008162 0.537542 0.132575
H 9.40989 7.22608 2.46456 0.172276 0.617078 0.103742
H 6.6632 2.40233 8.86585 0.330349 1.139309 0.645677
H 0.38104 8.0642 1.51081 0.093577 -0.997581 -0.895138
H 3.37684 11.9976 5.96477 0.2087 -0.268727 -0.764274
H 10.2567 5.91035 10.6604 0.088022 -0.330871 1.945707
H 1.67172 11.7457 7.35552 0.088032 -0.21422 -0.594884
H 9.9021 3.98081 11.8812 -0.296867 0.337027 -0.983938
H 3.69639 2.46396 8.41904 0.273892 -1.935933 0.084582
H 8.6768 9.87067 7.45261 -0.23505 -0.716744 -0.333156
H 4.56793 5.56292 2.57027 -0.036108 0.130936 -0.174016
H 9.08451 3.8624 8.71185 -0.14799 -0.630106 -0.251316
H 12.3304 8.6448 6.51235 1.352514 -0.087731 0.238734
H 7.40117 6.56087 8.8341 0.199208 0.37111 -0.506189
H 4.82479 3.36517 2.51787 -0.264399 -0.161903 -0.037203
H 3.93882 11.2778 3.64226 0.07115 -0.064973 0.216633
H 1.84144 11.0633 12.1176 0.917672 0.658782 -0.54074
H 11.6474 7.29261 9.78945 -1.911059 -1.559469 -0.768288
H 4.94464 3.22373 4.76758 0.8051 -1.25945 -1.772471
H 12.2796 6.08816 12.2797 0.79069 1.546705 0.659813
H 7.47373 9.15769 5.70742 -1.047283 0.217811 -0.595044
H 7.60608 2.24308 3.67708 -0.135033 -0.260953 -0.583288
H 5.60281 11.2774 6.26699 0.604504 0.29576 1.01998
H 2.11962 4.3505 12.3224 0.158171 0.596047 0.102626
H 1.13589 8.648 5.59879 1.033742 -0.003977 -1.075115
H 12.2478 0.80784 10.8436 0.808876 -0.067324 -0.507215
H 6.802 12.1169 6.86949 -1.139303 -0.54465 0.515701
H 0.06836 2.90496 7.82668 0.161586 -0.371934 1.131928
H 5.64443 5.26058 1.4408 0.334028 0.240314 -0.17549
H 9.29447 0.06786 6.8085 -0.252026 -0.109403 -0.020365
H 8.89096 6.65007 8.82329 0.833685 -0.169718 -0.023057
H 0.45491 2.61337 0.35236 0.294315 -0.06398 -0.247827
H 7.34037 9.8739 4.3111 -0.68891 -0.689901 0.776153
H 9.85602 8.45518 6.19753 0.257254 -0.330192 0.182832
H 3.43283 1.19675 7.48122 0.232476 -0.104872 0.113968
H 0.79844 2.11484 10.5761 -0.364583 -1.183067 0.399993
H 0.01799 7.72667 10.97 0.637338 0.074691 0.600323
H 2.58946 0.28661 2.32762 -0.547319 0.115909 0.271838
H 9.51241 0.34476 1.1886 -0.257209 0.104404 -0.291623
H 10.1298 11.0433 8.36549 0.00905 -0.280799 0.605896
H 1.14369 5.21198 7.47264 -0.60361 -0.145374 0.395421
H 9.84347 3.66861 2.75071 -0.644155 0.143197 -0.60756
H 4.94501 10.3221 9.82917 -0.171593 -2.023663 0.259597
H 10.2603 12.342 11.2062 0.573469 -0.326355 0.261458
H 12.1814 4.77003 6.77946 -1.076811 1.161757 -0.659901
H 10.6038 5.00597 0.54107 0.062376 0.287937 0.457988
H 9.00878 1.59456 11.8189 -0.059439 0.435958 -0.251378
H 6.99046 0.40934 9.53325 0.78763 0.495353 -0.26356
H 8.13794 1.40967 2.46396 1.386154 -1.165051 -0.333275
H 5.60858 2.14714 2.99127 1.335984 -0.494945 -0.244388
H 3.3642 11.4719 12.2535 -0.405593 -0.04882 -0.210109
H 12.2595 3.88879 12.123 0.203732 0.034274 -0.354545
H 6.44968 6.37746 10.8787 0.880604 -0.131195 0.694095
H 10.9227 8.96822 2.93959 1.075796 0.216367 -0.613703
H 5.56981 1.37963 8.4249 -0.903534 0.040791 -0.229211
H 12.1581 10.4979 8.90776 1.227685 0.504167 -0.560785
H 8.29678 8.24959 7.53372 0.032302 0.183992 -0.15262
H 10.6558 8.2603 4.87576 -0.217304 -0.385446 0.389825
H 6.83379 4.57899 9.80742 0.456228 -0.673077 -0.358431
H 5.53117 4.32548 5.77314 2.456708 1.209287 0.68855
H 8.22236 0.23626 11.5674 0.831259 0.5693 -0.133118
H 6.73752 11.5336 10.2371 0.180969 -0.238877 -0.078673
H 10.3769 5.32229 9.29031 0.02041 0.547423 -0.283845
H 9.56954 9.5729 3.42922 -0.262549 0.656998 0.286549
O 7.33789 3.72424 9.60733 0.552723 0.655677 1.101475
O 9.12794 0.43018 5.90373 1.895765 0.038583 -0.48923
O 8.15774 6.7486 8.1844 -1.120513 -0.024613 0.707501
O 4.81549 3.84138 5.451 -3.428997 0.327886 0.788358
O 6.00489 11.58 7.12504 0.422852 0.068084 -1.763795
O 6.32583 6.08133 9.96692 -1.345697 0.439507 -0.97839
O 6.52437 1.54574 8.46599 0.492233 -1.480314 -0.457091
O 0.55791 4.46228 7.22791 1.54612 -1.30988 0.297152
O 9.27214 3.79357 1.92626 -0.080036 -0.228112 0.976962
O 7.50512 12.1125 10.0618 -0.738843 -0.041692 0.212591
O 9.6289 0.56998 2.13001 0.621703 0.168062 0.667614
O 7.65002 5.97273 12.0471 0.493599 -2.144664 -0.298418
O 3.83825 1.41436 8.35245 -0.832757 1.481097 0.149747
O 0.37338 11.1786 0.58308 0.709428 0.051742 -0.035888
O 1.46196 1.27297 3.84014 0.549496 0.819143 -0.561222
O 3.83672 3.93059 8.22358 1.136443 1.200794 -0.21108
O 2.30103 8.56697 4.07393 0.984757 -0.779702 0.047422
O 8.50319 9.02158 6.92539 0.126687 0.616804 0.365244
O 0.51233 6.90736 0.10911 -0.699407 -2.057511 -0.784113
O 12.2251 1.22417 1.52304 0.338705 0.179649 0.410029
O 10.0407 8.75108 3.23132 -0.108907 -1.07408 0.447518
O 10.3079 3.67429 4.36944 -1.033697 0.354028 2.460059
O 4.73654 2.52396 3.02329 -0.948073 0.349321 0.128676
O 3.65478 5.99322 9.84839 -1.607512 1.011785 -1.257524
O 10.3078 6.2011 9.75806 0.024377 -0.230747 -1.758985
O 12.2837 7.94714 10.0269 1.480951 0.661584 0.630288
O 9.04062 0.64242 11.9903 -0.964256 -0.718565 -0.204768
O 8.84999 6.57127 2.0267 -1.267234 1.775749 -0.099705
O 9.2268 11.3317 8.16191 -0.711737 0.500815 0.173921
O 0.94809 8.7188 6.53554 -2.28297 -0.17606 0.768488
O 11.5136 1.54106 5.61805 0.49543 -0.124483 0.096903
O 6.94987 4.99022 6.40863 0.800081 0.844793 -0.51109
O 4.08157 10.7346 4.46471 0.882359 -0.795212 -0.223655
O 4.77598 5.02091 1.77039 -0.326961 -0.509234 0.109226
O 0.36661 8.78011 2.14052 0.927449 1.28858 1.172049
O 6.79759 9.27315 4.9195 1.467064 1.078253 -0.021046
O 7.4445 2.00921 2.71256 -1.37956 1.463635 1.379007
O 2.68261 5.1803 12.3531 -1.293639 -0.385445 -1.086201
O 1.56203 6.69316 8.32488 0.988068 0.077489 -1.047884
O 0.67614 3.28865 12.0695 -0.414685 0.186289 0.537283
O 1.57431 10.9874 7.95763 -0.659962 -1.207171 -0.043461
O 10.6586 7.96921 5.82932 -0.041272 1.114875 -0.469043
O 0.62833 1.16181 10.3197 -0.22071 1.048708 -0.006733
O 6.74993 6.83032 4.35306 0.450759 0.270418 -1.448887
O 11.1614 11.936 11.0484 -0.751848 -0.01003 0.188034
O 2.38495 2.92054 5.75329 -1.540096 0.268966 -0.31044
O 8.92707 3.5289 11.7549 0.36722 -0.651234 0.137577
O 11.876 2.14434 8.08522 -0.6858 1.011226 -1.858381
O 7.8595 2.65967 5.38652 0.388459 -0.325895 -0.742786
O 8.78885 10.9847 4.05555 -0.371646 -1.00627 2.622945
O 2.72804 0.26528 6.18393 -0.345539 -0.010838 1.138168
O 3.49438 12.3769 2.35044 1.406073 0.715209 0.021279
O 9.88428 4.06714 8.19168 0.959111 0.125453 -0.575977
O 2.68188 11.2672 11.5908 -0.428662 -0.400547 0.818955
O 4.12092 6.44163 3.94794 0.343917 0.642565 -0.774289
O 11.3766 10.1183 9.29078 -1.031323 0.344458 -0.213349
O 4.95304 11.2028 9.53832 -0.480061 2.010621 0.816025
O 10.777 5.46704 6.04194 -0.609232 -1.128808 0.963636
O 10.9514 4.89063 12.0539 0.599478 0.059681 -0.058007
N 3.48883 8.4507 1.14183 0.235159 -0.135944 -0.106233
N 8.74778 9.40956 0.78263 1.168221 0.146012 -2.769186
N 5.88912 10.8152 1.7245 0.245952 0.2334 -0.194598
N 1.05628 4.20508 3.20402 -0.070267 0.659698 0.106198
N 0.23781 11.4576 4.67484 0.076114 -0.32904 1.141001
N 0.01498 11.3214 3.60786 -0.298218 -0.267303 -0.972014
N 4.44596 7.95031 0.90191 -0.224088 0.162568 0.027599
N 9.23379 9.43715 12.1688 -1.215896 -0.107338 2.628559
N 0.97795 5.23612 3.60276 0.025747 -0.466723 -0.200533
N 6.35875 11.5158 1.00843 -0.184051 -0.219868 0.201638
N 4.1984 2.22777 11.4121 0.715851 -0.023281 -1.318801
N 3.70869 2.23483 12.3925 -0.694635 -0.016367 1.311731
N 4.21773 7.59705 7.04522 0.381587 0.248388 0.62551
N 4.72303 7.94451 7.96996 -0.296912 -0.097957 -0.762689
Na 2.45131 12.2552 9.61384 0.375668 0.127491 0.042779
191
energy=-1081.78529667 config_type=nep2xyz pbc="T T T" virial="-6.072880024929536 -1.3442954460387173 1.4533132798721569 -1.3442954460387173 -3.859952470496072 0.4963340043144968 1.4533132798721569 0.4963340043144968 -8.003403669887902" Lattice="12.4 0.0 0.0 0.0 12.4 0.0 0.0 0.0 12.4" volume=1906.6240000000003 Properties=species:S:1:pos:R:3:force:R:3
H 7.24018 7.75809 4.21662 -0.14971 0.419233 -0.16478
H 5.14421 3.88374 7.80298 0.370274 0.377231 -0.147235
H 7.98262 6.14347 0.74308 -0.558089 -0.277336 0.127361
H 2.64717 8.50655 3.30775 -0.513115 -1.030169 0.39206
H 2.37754 1.32696 3.45469 0.59021 0.219218 0.316879
H 0.84442 4.17382 7.34268 -0.100233 -1.096814 0.19295
H 10.2155 1.49541 6.65808 -0.02112 1.450324 -0.040733
H 7.93155 6.55495 3.39283 0.142701 0.638088 0.296789
H 3.50891 3.12752 4.33764 0.348661 1.466747 0.064844
H 8.89081 5.93842 6.81042 -0.472489 -0.285269 0.180865
H 8.20203 1.22756 8.68631 0.458385 -1.741696 -0.945737
H 3.89717 1.59024 3.14845 -0.140406 0.221855 0.477488
H 8.73228 5.10531 5.45338 -1.615 -0.409617 -1.063802
H 3.52119 10.3141 2.95007 -0.539665 0.795838 -0.647666
H 7.55968 4.68051 0.4175 0.343073 -0.135833 -0.300788
H 4.85137 6.63718 9.56399 0.040888 0.263987 0.454797
H 7.88952 1.00059 0.83701 0.336677 -0.671486 -0.932114
H 10.8607 1.98802 0.97239 0.377971 -0.656637 0.563681
H 10.7803 11.0929 10.3607 -1.086182 0.708941 0.73067
H 8.51761 3.34473 10.5936 0.488517 0.467696 0.942383
H 0.20459 3.19657 11.0174 0.320102 1.416969 -1.03095
H 2.2923 8.89793 7.16093 0.297078 0.482998 -0.67261
H 2.06811 10.692 9.23424 2.126333 -0.002614 -0.52372
H 11.0143 0.95396 11.1055 -0.096655 -0.819526 -0.169328
H 2.34797 7.02844 2.72074 0.167574 -0.74356 0.009806
H 1.05447 12.3391 2.32346 0.013469 0.328385 -0.274621
H 3.10202 4.36089 7.73172 -0.222162 -0.508705 -0.602868
H 3.59052 5.3598 8.6625 0.196969 -0.928794 1.216822
H 8.24981 11.3144 1.6166 0.055821 0.213655 0.742751
H 10.0464 0.8634 3.36666 0.949619 0.504353 -0.924612
H 2.10698 11.1999 0.73419 0.466292 0.734588 -0.712959
H 0.69199 2.71441 8.11226 -0.34755 -0.065879 -0.670825
H 4.57075 4.33477 4.79395 -0.377491 -0.492049 -0.743585
H 9.1537 0.33611 7.67823 -0.695468 -0.188304 0.767098
H 8.90076 3.22532 8.28944 0.936991 -0.013617 -0.135233
H 6.95318 11.9901 9.84436 -0.974581 0.161882 0.782592
H 11.0346 3.05068 2.09003 -0.643813 -0.776003 0.330819
H 9.55923 11.8616 9.76604 0.55956 0.158885 0.915088
H 2.772 6.77174 10.3469 -0.074097 -0.326809 -0.372043
H 8.58484 11.8252 3.07941 0.029393 0.404751 -0.038593
H 9.44698 4.21881 11.6331 -0.033136 0.100731 -0.209944
H 3.70945 5.71709 1.9289 0.87493 -0.108402 0.427906
H 4.58363 10.1688 9.06106 -0.230788 0.02011 0.278349
H 2.79576 7.31748 8.77214 -0.121752 -0.146784 0.726002
H 1.42261 7.57336 7.03826 0.60156 1.367465 0.19505
H 2.77919 11.0266 6.2181 -0.274885 0.764547 -0.750812
H 1.2703 0.67749 7.64638 -1.494144 -0.23311 0.43252
H 0.77043 7.13877 12.1225 0.0757 0.138812 -0.399104
H 11.0557 3.47169 7.35205 0.313221 -0.469066 0.606596
H 0.87242 8.4374 2.46309 -0.843957 -0.077253 -0.773989
H 9.57495 5.8657 2.27019 0.359317 -0.864675 0.086028
H 9.93144 4.15705 6.61126 -0.325304 -0.639237 0.372879
H 6.6757 9.82404 10.315 -0.369349 -0.078411 -0.239878
H 0.05064 1.25456 2.45356 0.074839 -0.334705 -0.296525
H 9.57046 7.35952 2.74066 -0.26249 0.331612 -0.670732
H 3.08159 2.86278 8.88299 0.304868 -0.174706 0.314705
H 0.01305 8.38998 0.95524 0.537451 0.281179 0.808099
H 3.71982 9.88016 5.54914 -0.833742 0.95004 0.316503
H 7.42411 2.93318 8.39217 -1.541826 0.646387 -0.323336
H 3.57763 10.5265 7.93402 0.339706 -0.174703 -0.064055
H 11.6461 4.81648 11.983 0.407433 -0.366469 -0.540109
H 2.46376 0.86009 5.62961 -0.000168 -0.629887 1.036983
H 8.67269 9.59136 7.33672 -0.46811 0.212408 -0.228023
H 5.79322 6.34579 2.76761 1.061181 1.269688 1.665226
H 11.324 0.50231 6.94835 0.568556 -0.135507 0.602965
H 1.2746 7.29974 4.66986 0.145117 0.215511 0.351868
H 7.87476 6.35797 9.06079 -0.696239 -0.035954 0.255241
H 4.60942 3.62733 2.04198 0.379563 -1.343614 0.438563
H 4.76029 9.65514 3.62589 0.21848 0.185007 0.321742
H 2.24723 0.73177 11.8998 0.027138 -1.376033 -0.404068
H 10.8236 8.84219 9.32979 -0.173828 0.600531 -0.230346
H 7.03461 3.95895 4.37745 -0.558492 0.474882 0.436524
H 11.6725 6.9389 12.2952 0.406371 0.66773 -0.356679
H 6.82446 10.0164 4.92308 -0.75861 -0.470917 -0.31329
H 8.60939 2.4946 3.63219 0.510864 -0.480785 0.432163
H 7.71192 11.4698 7.57396 -1.081091 -1.334679 -0.863033
H 3.02011 4.89493 3.05665 0.310066 0.056545 0.073809
H 12.249 7.16386 5.43804 1.116654 0.5834 0.363921
H 1.29815 5.2635 11.5852 0.111723 -0.457468 -0.408561
H 6.78771 10.2198 7.88298 0.321582 -0.056637 -0.352044
H 0.39884 4.06579 9.59177 -0.341515 -0.253258 1.489146
H 6.07594 5.60279 1.42464 -0.700791 0.650326 0.954744
H 9.45169 0.53421 4.71763 0.128218 -0.058109 0.5865
H 8.64257 7.49235 8.24602 -0.184882 -0.421379 0.016464
H 2.97603 2.99354 0.69757 -0.02685 -0.175388 -0.051626
H 7.01675 10.1843 3.42193 -0.617163 -0.728316 0.440177
H 10.1851 7.05734 5.42837 0.022583 -0.153415 -0.151047
H 3.38388 0.45004 6.7984 -0.27478 0.247491 0.223602
H 2.25729 5.7387 0.35701 -0.470345 -0.054571 -0.471486
H 11.5803 8.45405 10.5275 0.936867 -1.353361 1.863135
H 1.24827 10.3033 1.59713 -0.105061 -0.273157 0.362555
H 10.4092 2.31806 11.4122 0.569343 -0.267922 0.183165
H 6.1011 8.49181 9.68314 0.082224 -0.447428 0.110245
H 2.39048 4.73693 5.62632 -0.671779 -1.062155 0.274018
H 11.0754 4.81568 3.02598 0.571895 0.359316 0.310583
H 6.93967 12.17 11.3647 -0.556078 0.150407 0.174258
H 0.37565 12.2534 8.66163 0.217521 0.452322 -0.097437
H 1.33759 5.70274 6.00824 -0.925644 0.939238 -0.059063
H 10.721 4.91216 0.93798 0.741311 0.772865 -1.141609
H 7.63604 2.85176 0.48009 0.702929 0.441124 -1.076787
H 5.20159 1.86018 7.41673 0.951372 1.488323 -0.213476
H 9.29746 3.91028 3.18741 -0.731863 -0.705274 -0.355277
H 5.77171 2.59124 1.88431 -0.305612 -0.153001 -0.19343
H 1.86302 11.8206 10.9968 -1.143619 -0.40119 -0.962185
H 1.72989 2.32072 1.20902 -0.888634 -0.84992 1.548519
H 6.07378 6.27062 10.5284 -0.395808 0.417472 -0.351019
H 11.1789 8.95052 2.46144 -0.961305 -0.276794 0.673157
H 1.83835 2.14524 9.15583 -3.803502 0.136014 1.056969
H 0.82528 9.98321 9.58059 -0.329579 1.148833 0.503123
H 9.97997 8.65422 7.01558 -2.026504 0.668669 1.349038
H 10.8527 8.04712 4.41771 -0.659572 1.004481 -1.335978
H 7.87553 2.77933 2.01468 0.845087 0.996925 1.313598
H 6.64714 5.3951 4.82984 0.263504 1.098425 -0.302306
H 8.70739 0.4664 11.9148 -0.146361 -0.442371 1.225212
H 5.96038 0.47805 7.55226 -0.071866 0.301349 -0.243858
H 6.34545 3.92118 6.66644 -0.838204 -0.18695 0.204392
H 9.58939 9.46924 2.84123 0.670295 -0.285489 0.126196
O 7.42591 2.37338 1.27177 -1.623365 -1.09169 -0.178928
O 9.2149 0.8205 3.82869 -0.622012 -0.294372 0.426091
O 8.49463 6.5094 8.3579 0.798912 0.25327 -0.6344
O 6.41637 4.47359 4.98421 0.330816 -1.330611 0.071593
O 7.26755 10.6386 7.12883 0.439904 0.78091 0.993649
O 5.79219 6.84028 9.78444 0.70638 -0.507307 0.35778
O 2.71384 1.96522 9.03015 3.948343 -0.344274 -0.432156
O 1.51857 4.75026 6.13299 2.016499 0.076973 -0.362204
O 10.4501 4.45235 2.40652 -0.23583 0.351261 -0.306207
O 5.10459 0.92024 7.47003 -1.144128 -2.21731 0.84262
O 11.2039 1.75737 11.6066 -0.646756 1.315816 -0.104715
O 7.2292 5.58204 0.4302 0.46944 0.536073 -0.27281
O 2.43346 0.41078 6.52785 0.875088 0.442512 -1.475579
O 10.1108 11.8128 10.5981 0.47778 -0.856215 -1.836509
O 0.95902 0.88603 2.57197 0.33998 0.409818 0.259739
O 3.72085 4.36241 8.47683 -0.467392 1.399529 -0.854632
O 1.98436 7.73623 3.28476 0.963746 1.657902 -0.12184
O 9.21796 8.86344 7.68857 2.799824 -0.713408 -1.299854
O 12.3329 7.68254 12.0864 -1.125937 -1.092685 0.311197
O 10.9743 2.0413 1.95444 0.265535 0.409016 -0.630867
O 10.2708 8.77152 3.00442 0.633857 0.819353 -0.817232
O 10.1157 3.30886 7.13417 -0.057192 0.828581 -0.620332
O 4.8018 2.64394 2.04475 -0.0023 1.535079 -0.436776
O 3.20507 6.68808 9.47195 -0.244516 0.763195 -0.968776
O 5.96397 3.45002 7.45795 0.555084 -0.140192 -0.163824
O 11.3731 9.22101 10.0353 -0.753471 1.096578 -1.757838
O 8.15775 0.1756 0.28566 -0.026586 0.415822 -0.632759
O 8.99867 6.64442 2.33565 -0.003536 0.254029 -0.393099
O 6.28416 9.43933 9.51468 0.005894 0.502936 -0.134675
O 0.87903 7.1803 5.56828 -0.935843 -0.857819 -0.435511
O 0.30327 3.59241 7.99001 -0.004653 0.84117 0.283571
O 9.33052 5.54514 6.01762 1.94279 0.767709 0.964081
O 3.81381 9.88062 3.74845 0.069998 -0.972625 -0.029121
O 5.37354 5.7892 2.15478 -0.394827 -1.640145 -2.468864
O 0.15662 8.86088 1.87849 -0.142011 0.358116 -0.05062
O 6.46096 9.63617 4.08171 1.714402 1.179258 -0.082468
O 8.39224 3.40737 3.40555 0.282335 1.06925 0.090131
O 2.84303 5.39187 2.223 -1.111178 0.33967 -0.701655
O 1.88353 8.20211 7.67818 -0.453084 -1.632274 1.082788
O 2.13588 2.60623 0.41347 0.819046 0.492756 -1.609284
O 3.71854 10.6118 8.90567 0.742096 0.22621 -0.145961
O 10.882 7.73819 5.31583 -0.340966 -0.99426 1.871634
O 1.83525 6.01695 11.9086 0.880789 0.042513 0.799271
O 7.40463 6.8092 4.21014 -0.640658 -0.705332 0.281433
O 0.35769 0.68575 8.1302 1.170788 -0.247892 -0.571165
O 3.26116 1.53091 3.90441 -0.848795 -0.207162 -0.546924
O 8.2214 2.90384 8.92062 0.422865 -0.667593 0.797867
O 0.38654 4.11322 10.6209 -0.143845 -1.270196 -0.124646
O 8.32101 0.24915 8.28914 0.963212 2.25758 0.648323
O 8.23675 11.0672 2.57792 -0.144427 -0.86603 -0.708017
O 3.22781 10.1905 6.34952 0.678774 -1.406458 0.333685
O 1.94439 10.9926 1.65943 -0.379437 -0.655213 0.684634
O 10.3956 0.55711 6.67295 -0.716334 -0.870394 -0.520478
O 2.47044 12.185 11.6296 1.241798 2.099541 1.451722
O 3.66142 4.15814 4.42801 -0.16591 -1.218601 0.754858
O 1.25808 10.8783 9.67426 -2.436805 -1.128335 0.176748
O 6.30906 12.0801 10.6032 1.669248 -0.271586 -0.830858
O 8.80957 3.47802 11.5572 -0.316491 -0.418066 -0.979855
O 10.9455 5.33275 12.3853 -1.346264 -0.377843 1.668448
N 3.02908 9.22684 11.988 1.981624 -0.334943 -0.380225
N 8.6362 9.45209 0.13463 0.428439 0.391346 -0.226056
N 6.62061 1.57881 4.94817 0.108724 -0.875613 0.325727
N 11.7992 3.05805 4.65524 1.916019 -0.114428 -0.788922
N 0.0247 10.5698 5.10305 -0.113396 0.493594 -0.458187
N 12.1041 11.3064 4.33779 0.041778 -0.588279 0.560289
N 4.12917 9.11976 11.8201 -1.935844 0.204021 0.364113
N 7.9773 8.62459 0.44086 -0.45079 -0.424593 0.051452
N 0.43557 3.05441 4.23487 -1.889514 0.059658 0.827392
N 6.84434 0.6271 5.47429 -0.056173 0.875802 -0.755603
N 5.33038 3.62736 10.7827 0.144116 0.207121 0.146633
N 5.38768 2.53734 10.6241 -0.196621 0.049037 -0.018559
N 4.06784 6.80054 5.7923 -0.292992 -0.409257 0.602019
N 4.62467 7.36847 5.03204 0.288746 0.33524 -0.471921
Na 4.21992 0.37813 9.96156 -0.237767 -0.261867 -0.180844
191
energy=-1082.7833694 config_type=nep2xyz pbc="T T T" virial="-10.38683744887824 -3.583236861923976 3.7247779726777073 -3.583236861923976 4.006313166742931 6.902348538613459 3.7247779726777073 6.902348538613459 1.535555638743776" Lattice="12.4 0.0 0.0 0.0 12.4 0.0 0.0 0.0 12.4" volume=1906.6240000000003 Properties=species:S:1:pos:R:3:force:R:3
H 6.84763 7.70176 4.64152 0.082812 0.706335 -0.347597
H 10.5172 3.22949 8.27122 0.495587 -1.427246 0.212146
H 8.1221 6.45093 0.42597 0.058554 -0.318587 -0.05331
H 2.89098 9.46052 4.2472 0.237961 0.405966 -0.086408
H 1.73518 3.51017 6.37336 -0.290021 0.053978 -0.13551
H 11.2918 2.38103 5.13179 -0.062147 -0.615445 -0.005529
H 11.8258 1.7667 6.44319 0.190447 -0.288423 0.6226
H 7.29419 6.66578 3.46432 0.184449 0.290548 0.145444
H 3.80803 5.55113 4.57862 0.56147 -0.049711 0.268916
H 7.51217 5.16392 7.12667 0.046334 0.448302 0.560499
H 7.61331 3.50346 5.97072 -0.130054 -0.683617 -0.850297
H 3.24329 3.29967 6.17857 -0.448719 -0.279776 -0.670829
H 7.13832 5.83123 5.79354 0.039418 0.30211 -0.819037
H 4.96704 10.4313 4.29378 1.113059 -0.692951 0.107616
H 8.05041 5.1457 12.0151 2.19224 -4.724713 -0.260124
H 5.28436 6.17088 10.0468 0.472384 0.268542 0.356808
H 7.93882 3.40784 10.3412 0.389688 0.408579 1.293728
H 0.12631 0.29683 1.36356 -0.16521 0.808841 -0.094028
H 12.1517 11.2666 12.29882 0.132581 -0.0571 0.401523
H 10.2475 5.08061 6.8233 -0.102385 0.049268 0.210702
H 0.14707 1.81412 8.72833 -1.228711 -0.75887 -0.127721
H 0.82869 7.14569 8.87765 0.190205 0.071344 0.136341
H 11.695 9.34815 9.64793 -0.308789 0.78777 -0.1882
H 10.5467 0.75963 2.0367 0.857047 0.453436 0.496916
H 2.94752 7.96651 3.92991 0.478767 -1.03733 -0.010791
H 1.95901 2.17174 4.05389 0.358313 0.589043 0.5405
H 4.85136 4.04794 7.82408 -0.542454 0.292854 0.288081
H 3.79816 4.77298 8.81284 0.284919 0.734293 0.403445
H 9.06631 11.6902 3.34534 -0.639863 -1.660419 1.309717
H 9.9809 0.86896 5.82314 -0.334719 -0.526272 0.177123
H 3.96499 0.86936 2.37557 0.352792 0.134004 0.001005
H 0.72966 1.33961 4.47974 0.185011 0.123612 -0.308647
H 4.94459 6.63536 4.17493 -0.016848 -0.70494 0.213439
H 8.04193 1.93956 5.72556 0.102219 -0.246407 0.463736
H 8.47479 3.58444 0.089 -0.514907 -0.167388 1.78395
H 5.27065 11.1466 8.55896 -0.45716 -0.27873 1.293107
H 8.6098 2.99397 2.09851 -0.379028 0.061473 -0.173681
H 0.12349 10.3438 1.19671 0.793209 0.67449 -0.68475
H 3.40003 5.55987 10.6948 -1.11892 0.197535 0.432227
H 8.7099 11.7002 4.83975 0.315305 -0.203617 0.496591
H 10.8109 6.41037 5.96596 -0.629178 -0.896242 0.698849
H 3.46845 5.07926 0.6426 -0.49388 0.496334 -1.029676
H 1.60776 10.1295 7.56306 -0.307169 -0.461456 -0.10779
H 2.79329 6.4183 9.44383 -2.160608 0.79494 -0.872336
H 1.4611 7.35936 7.50875 0.032208 0.249767 -0.288374
H 2.21848 0.74869 5.5546 0.827953 -0.395215 0.977173
H 11.0357 11.2824 10.3381 0.495611 -0.283661 -0.092668
H 1.25752 6.54505 0.05162 0.419898 0.060831 0.032475
H 10.4374 4.49979 4.54456 0.248987 0.30749 0.810728
H 0.94408 8.72295 2.82541 1.070486 -0.182862 0.671713
H 9.08937 5.61274 2.06133 -0.089313 0.998184 0.098651
H 9.39677 3.41366 4.88242 -0.817404 -0.313876 0.196959
H 8.68176 11.6221 8.78814 -0.668045 0.372787 0.721505
H 0.48608 1.45587 2.33776 -0.189471 0.057977 -0.075652
H 9.38978 7.30139 2.34071 -1.194918 -1.820277 -0.598987
H 6.65704 2.50307 8.93065 -0.079429 -0.994586 -0.717623
H 0.42689 8.03049 1.45493 0.000826 0.795658 0.635281
H 3.14675 11.9118 5.62468 0.477823 -0.132966 -0.147764
H 10.1058 5.90345 10.7201 0.665144 1.021716 -0.810249
H 2.04359 11.5383 7.17925 -0.580962 0.397516 0.386108
H 9.88137 4.17886 11.7719 -0.516804 -0.821634 0.559356
H 3.68873 2.2494 8.40743 -0.243961 1.487848 0.125308
H 8.61627 9.87034 7.59069 0.362338 0.928608 0.019901
H 4.44288 5.54213 2.38401 0.727656 -0.186042 -0.08231
H 9.10433 3.94613 8.55626 0.055946 -0.494028 -0.003394
H 0.0083 8.56124 6.46588 -1.93008 -0.284361 -0.208562
H 7.46328 6.75269 8.84249 -0.832871 -0.143199 0.350476
H 4.57732 3.21569 2.61201 0.021983 0.372947 -0.352723
H 4.03214 11.4737 3.66872 -0.339139 -0.281844 -0.166871
H 1.77385 11.2186 12.1675 -1.193471 -0.419075 0.477882
H 11.5107 7.33642 10.0254 1.622215 0.91611 -0.102685
H 4.92777 3.23434 4.66371 -0.265486 0.642994 1.252026
H 12.1893 6.23378 0.0234 -1.425091 -0.983734 -0.357166
H 7.20677 9.25231 5.85047 1.080618 0.224927 0.775409
H 7.50767 2.31308 3.54 0.190973 0.047462 0.650121
H 5.92713 11.1178 6.2866 -0.110697 -1.156405 -2.775127
H 2.06744 4.56775 0.20498 -0.180724 -0.236717 -0.68037
H 1.31152 8.54346 5.65853 -0.043971 0.550969 0.768526
H 12.3243 0.53863 10.5648 -0.629795 -0.109726 0.241368
H 6.79172 12.0058 7.16879 3.099853 2.332779 -0.033416
H 12.3153 3.02607 7.97835 -0.156179 0.529189 -1.09536
H 5.68979 5.19879 1.33648 -1.787847 -0.141196 0.687174
H 9.1824 12.2964 6.82603 0.373012 0.131853 -0.112076
H 9.01549 6.63541 8.83105 -0.594635 0.205901 -0.537112
H 0.30458 2.54923 0.19623 0.577698 0.335871 0.296232
H 7.4426 9.47039 4.32295 0.524507 0.790729 -0.013708
H 9.9663 8.44537 6.36289 0.160448 -0.34792 0.399894
H 3.708 1.03123 7.49699 -0.24718 -0.144825 0.140968
H 0.6801 1.83396 10.9381 0.085658 1.619231 1.063527
H 0.31913 7.69671 10.9915 -0.519636 0.390119 -0.56353
H 2.61637 0.30941 2.62 -0.187793 -0.243899 0.020417
H 9.31624 0.55681 1.18942 -0.288688 -0.44083 0.329075
H 10.0673 10.9139 8.65361 -0.416224 0.122706 -1.040677
H 0.84951 5.08083 7.81231 0.360427 0.071862 -0.427436
H 9.73954 3.59471 2.8881 0.255634 0.080728 0.288436
H 4.75945 10.3012 9.90705 0.23012 0.597971 -0.734783
H 10.2312 12.1424 11.4011 -0.094272 0.624698 0.237154
H 12.1776 4.92375 6.67701 0.718836 -0.907649 0.350323
H 10.8489 4.86054 0.67257 -0.437891 -0.184499 0.828531
H 9.15444 1.62385 11.9318 -0.301346 -0.502736 -0.121198
H 7.24162 0.57276 9.37765 -0.819134 1.18147 -0.722392
H 8.10687 1.17947 2.58229 -1.147713 1.584981 0.198589
H 5.75151 2.21461 2.85329 -1.069233 0.010152 0.211858
H 3.19831 11.4679 12.3725 0.554992 0.136594 0.114008
H 12.1112 3.80467 12.0052 0.417096 0.558366 -0.299128
H 6.88025 6.13744 10.7388 -1.235847 0.473774 0.457032
H 10.9833 8.89308 2.95147 -0.918643 0.156009 0.502812
H 5.43987 1.52596 8.48536 1.081635 -0.201368 -0.051248
H 12.2829 10.4674 8.72542 -1.381112 0.270026 0.5404
H 8.28534 8.35686 7.54024 -0.01183 -0.408471 -0.147112
H 10.3469 8.14247 4.96123 0.739367 -0.136944 -0.255961
H 6.89069 4.54159 9.76736 -0.110017 0.386963 0.347722
H 5.59798 4.3269 5.71809 -1.777454 -1.535551 -0.397265
H 8.24845 0.43668 11.3762 0.040344 -0.17333 0.136611
H 6.6706 11.663 9.95438 0.754213 0.886893 0.2188
H 10.4244 5.25413 9.42651 0.372992 0.760374 -0.785937
H 9.62936 9.59737 3.66478 0.724649 -0.349623 -0.445504
O 7.38926 3.72061 9.61422 -0.109932 -0.289699 -1.896122
O 9.09334 0.43591 6.00249 0.075472 0.450663 -0.0868
O 8.21763 6.81274 8.24126 1.231089 -0.116566 0.121039
O 4.75339 3.76152 5.5154 2.316708 1.026546 -0.863173
O 6.04222 11.5061 7.10531 -3.167683 -1.128531 2.726635
O 6.26439 6.15261 9.95287 0.524442 -0.376212 -0.754687
O 6.44675 1.63851 8.42798 -0.571646 0.909417 0.471965
O 0.55275 4.42145 7.14772 -1.070778 0.842657 0.206839
O 9.27597 3.7027 2.02667 0.070317 0.710953 -0.621398
O 7.49454 12.2547 9.97629 -0.164329 -1.987572 0.653408
O 9.61435 0.52916 2.14557 -0.716345 -0.500971 -0.471412
O 7.72557 5.97157 12.0534 -2.16489 5.02212 0.221631
O 3.81724 1.30333 8.43512 -0.006802 -1.018683 -0.358261
O 0.4207 11.1213 0.62702 -1.35847 -0.410928 0.371568
O 1.52284 1.33555 3.87476 -0.897758 -0.612967 0.02157
O 3.96486 4.02613 8.22683 0.329569 -1.323691 -0.79865
O 2.3346 8.6741 4.11541 -0.965978 0.353141 0.248955
O 8.45225 9.14401 6.96733 -0.262466 -1.035877 -0.057734
O 0.38453 6.98447 0.04016 1.421277 0.589357 0.472777
O 12.2942 1.25662 1.57976 0.301349 -1.015484 -0.086121
O 10.0896 8.74374 3.38688 0.354689 0.142858 -0.241387
O 10.2039 3.58081 4.36947 0.855828 -0.490669 -0.631309
O 4.79404 2.4235 3.11866 1.081523 -0.560961 -0.269306
O 3.53536 6.04275 9.86673 3.046145 -0.980076 0.775178
O 10.3602 6.18711 9.77453 -0.888822 -1.553302 1.614537
O 12.3446 7.96931 10.0913 -1.605627 -1.363645 0.257801
O 8.9471 0.65157 12.0527 0.048038 0.948489 -0.367986
O 8.78192 6.56195 1.93523 1.069387 0.797925 1.0471
O 9.27633 11.2553 8.11982 0.845264 -0.298699 0.687738
O 0.91863 8.78464 6.55091 2.148565 -0.419663 -0.961682
O 11.5775 1.51191 5.53061 -0.132696 0.8652 -1.0093
O 7.05133 5.01076 6.29601 -0.063817 -0.21712 0.609296
O 4.08923 10.7768 4.37422 -0.872454 0.849303 -0.039803
O 4.76056 4.95268 1.63967 1.04874 0.336403 -0.106086
O 0.34242 8.80288 2.09083 -1.491645 -0.515183 -1.216184
O 6.80269 9.18357 4.97679 -1.63442 0.000265 -0.650454
O 7.40109 1.93739 2.65008 0.879307 -1.488288 -0.273079
O 2.73099 5.24094 12.357 0.421092 -0.302103 1.30744
O 1.47446 6.73485 8.25306 -0.168417 -0.241984 0.658464
O 0.58867 3.32514 12.0501 -0.73396 -0.879404 0.498226
O 1.62014 11.0245 7.92549 0.334932 0.088253 0.213029
O 10.6658 7.92908 5.87898 -0.617545 0.931423 -0.221476
O 0.63705 1.14586 10.2994 0.873509 -1.194344 -1.705503
O 6.76533 6.79647 4.26952 -0.40536 -1.41912 -0.031563
O 11.126 11.9309 11.068 -0.005691 -0.121387 0.489404
O 2.36605 2.97701 5.85044 0.276503 0.128937 0.357812
O 8.92617 3.43379 11.6848 2.124542 0.625849 -1.767708
O 11.8854 2.13929 8.04003 1.402027 0.342707 1.301201
O 7.83687 2.79098 5.3094 0.182839 0.411394 -0.081443
O 8.73134 11.043 4.10259 0.716631 1.476397 -2.406025
O 2.74793 0.18477 6.19686 -0.523386 0.330098 -1.052374
O 3.47741 0.03069 2.26213 -0.07602 0.181335 0.261377
O 9.98638 4.00881 8.13875 -1.250144 1.62562 0.318876
O 2.59769 11.1932 11.6758 1.171862 0.253798 -0.769609
O 4.0486 6.27417 3.97808 -0.311869 0.59222 -0.83747
O 11.4276 10.2561 9.23139 2.053387 -1.220054 -0.798938
O 4.98874 11.1805 9.53946 0.193146 -0.427352 -0.541242
O 10.7851 5.39023 6.07602 0.804284 1.261981 -0.835256
O 10.9309 4.97962 12.132 -0.56187 -0.35001 -1.082615
N 3.50323 8.44658 1.18743 1.521867 -0.598244 -0.453461
N 8.81724 9.29317 0.70398 0.741527 0.401877 -2.272851
N 5.8756 10.8234 1.69393 1.536952 1.893167 -1.716123
N 1.057 4.25963 3.19664 0.050152 -2.728456 -1.055707
N 0.16326 11.3317 4.68263 0.181057 -0.138398 0.941392
N 12.344 11.2628 3.60766 -0.294347 -0.103183 -0.780285
N 4.5196 8.06911 0.92456 -1.499532 0.573618 0.383792
N 9.20259 9.44717 12.0633 -0.763469 -0.330101 2.137794
N 1.04491 5.28139 3.56731 -0.098616 2.897207 1.026844
N 6.41761 11.5421 1.0204 -1.455833 -1.874125 1.725805
N 4.28472 2.21772 11.5027 1.566908 -0.088356 -2.043815
N 3.62417 2.24993 12.3689 -1.552337 0.075562 2.030914
N 4.2071 7.60478 6.97884 0.862114 0.384497 1.659445
N 4.6966 7.84404 7.95428 -0.77824 -0.23877 -1.759741
Na 2.48162 12.2834 9.62471 0.258309 -0.149395 0.189373
191
energy=-1081.9969603 config_type=nep2xyz pbc="T T T" virial="5.931029508687357 3.287516616234534 -0.4141511464983485 3.287516616234534 -13.83262687266487 6.385962678605331 -0.4141511464983485 6.385962678605331 9.283747381506698" Lattice="12.4 0.0 0.0 0.0 12.4 0.0 0.0 0.0 12.4" volume=1906.6240000000003 Properties=species:S:1:pos:R:3:force:R:3
H 6.54557 8.18597 4.34176 0.454306 -0.848886 0.267758
H 8.73459 2.23349 8.35265 -0.204003 -0.168007 -0.289648
H 7.29768 6.92969 1.0982 0.340285 -0.355913 -0.194903
H 2.6931 9.15747 3.20278 -0.508275 -1.826816 -0.317468
H 1.61582 1.25601 5.10716 -1.031582 -0.224341 -0.819204
H 11.1578 2.93605 5.62805 -0.576333 0.721988 -0.07875
H 10.7589 0.3561 6.10467 -0.473462 0.11228 -0.138828
H 7.32587 6.91644 3.68409 -0.717874 0.868093 1.958176
H 3.73334 5.89027 5.06827 -1.05573 0.146731 1.01339
H 7.75971 6.00377 7.38719 -0.156472 -0.088995 0.803639
H 7.17149 2.32263 7.00085 0.529486 -0.716221 -0.063527
H 2.91838 2.10732 5.22092 0.334089 0.139479 0.110782
H 7.07318 6.38484 6.09597 -0.287502 0.311003 -1.03639
H 3.44319 11.2626 2.86231 -0.00109 1.502461 -1.747667
H 7.3982 5.95878 12.263 -0.533612 0.542232 0.354062
H 5.38591 7.48744 10.3251 0.007996 -0.362585 -0.80935
H 8.57762 0.07526 11.7812 0.163758 -1.428284 -0.804242
H 11.2951 0.12983 1.50475 0.494397 -1.330827 -0.79788
H 10.1456 1.96365 11.7329 1.026697 -0.012897 0.234112
H 2.38881 3.4209 7.70337 -1.131238 1.38074 -0.409235
H 0.29266 2.98114 8.51448 0.885478 0.868583 0.089379
H 1.78938 7.70685 8.77933 -0.124483 0.453101 0.004471
H 12.3448 9.83096 9.69183 0.291586 1.151838 -0.39467
H 11.8711 2.0267 1.05669 0.147587 -0.303449 -0.141955
H 3.0941 7.76315 2.59326 0.155031 -0.072393 -0.358994
H 0.26771 12.1873 4.35729 0.327349 1.747136 -0.155404
H 4.13271 4.30631 9.18528 0.324639 1.628158 0.653908
H 4.89827 3.45461 8.03788 -1.152952 0.472752 0.30538
H 8.07481 11.0999 1.23489 0.515445 -0.169147 0.247611
H 10.0708 0.86116 2.93853 -0.963036 -0.275401 0.676364
H 0.38456 11.7572 12.1815 0.157003 -0.354755 0.06804
H 11.9742 1.67096 5.16326 0.746955 -0.479262 -0.763439
H 5.08443 6.33933 4.49986 0.996897 0.148188 0.350175
H 8.48139 1.59154 6.4138 1.152913 -0.185689 -1.553241
H 9.78721 5.09438 11.3674 -1.066029 -0.240737 -0.236699
H 7.05445 10.9254 10.66 1.510925 0.797409 1.583344
H 9.02133 3.95223 2.35203 -0.24332 -0.367265 0.370287
H 9.07915 2.12754 10.6803 -0.32313 0.390974 -1.692363
H 3.51913 6.13644 10.8315 0.625215 0.551953 -0.904202
H 8.72958 11.694 2.52907 0.313533 1.498945 0.827131
H 1.50129 3.29198 6.49617 -0.4325 -0.249813 -0.23587
H 3.24178 6.04701 0.74323 -0.061463 -0.053887 -0.067638
H 2.7946 9.55561 8.29717 0.302892 -2.284998 -0.232556
H 3.38301 6.97472 9.48583 0.103249 0.013758 -0.559327
H 2.51517 7.27667 7.52013 0.531901 -0.126465 -0.369274
H 2.95953 12.2526 5.83093 -0.22066 0.672606 -0.022802
H 10.5449 0.73004 9.25223 0.218536 -0.408401 0.262963
H 1.19063 6.48317 12.1502 0.100185 -0.531493 0.476197
H 10.3202 5.42667 5.37239 0.504633 -0.447198 -0.225736
H 0.12529 8.37158 2.30311 0.383211 -0.18288 -0.792108
H 8.85896 5.9876 2.53692 0.206898 -0.449629 0.392412
H 9.14983 4.83778 5.94622 -1.067739 -0.505759 0.395514
H 9.43204 11.4797 8.92154 -1.150083 -0.375383 -1.11224
H 12.036 0.68266 2.90263 -0.286665 0.365805 0.06457
H 8.90458 7.64446 2.50521 -0.749945 -1.974208 0.074591
H 3.11276 2.39108 11.3912 0.388125 -0.024159 -0.318492
H 12.0599 7.94441 0.84623 0.60756 -1.508628 -1.03954
H 3.58169 11.2354 4.85885 -0.08456 -0.691144 -1.661138
H 8.9439 4.36011 10.2278 -0.048232 -0.413781 0.054054
H 2.89752 10.9049 7.66395 0.51396 0.894615 -1.584721
H 11.3072 4.01395 0.16189 -0.377195 0.696382 -0.148144
H 1.65759 0.73874 7.91779 0.013028 0.130344 -0.065498
H 9.61176 9.15786 7.82188 0.202826 -0.541781 -0.05713
H 4.4299 6.31477 2.6547 -0.201534 -0.723726 0.942667
H 9.61706 11.9233 6.71334 -0.908167 -0.885117 1.358855
H 1.40068 7.42973 3.93105 -0.502131 0.208889 0.175381
H 7.44191 7.18829 9.50745 -0.089712 -0.267219 0.126764
H 4.47198 3.9175 4.42576 -0.110597 -0.272733 0.308089
H 4.73988 10.4306 3.47031 -0.453091 0.294087 -0.533934
H 1.82391 1.02172 10.5298 0.60699 0.718122 0.375343
H 11.4647 7.83201 9.20382 0.65077 0.005782 0.132869
H 5.61144 3.07024 6.00313 -1.182346 -0.175474 -0.801421
H 12.0728 5.93264 0.13375 0.629018 0.470097 -0.916341
H 6.42032 10.4702 4.57018 0.07367 0.878159 1.226804
H 6.1865 0.67382 4.26114 -0.069117 0.588008 -0.557944
H 5.08336 11.9613 5.92229 0.94191 0.031031 0.173587
H 2.65207 4.81546 12.2783 -0.010936 1.71711 0.871758
H 12.3221 7.34833 4.72702 0.401323 -0.333761 -0.039059
H 1.54081 2.91355 0.19958 1.255766 0.500149 1.339763
H 6.60841 12.2365 6.49984 0.02475 0.272258 0.520037
H 11.837 2.30772 7.47348 -0.086363 0.1902 0.676421
H 5.2054 6.62066 1.35267 -1.258647 0.284463 0.232395
H 9.30306 0.56709 4.4127 -0.228304 0.168872 -1.622445
H 8.75252 6.17627 9.6243 -1.444246 0.796434 -0.339867
H 1.72937 0.68874 2.61343 -1.013549 0.709659 2.664316
H 6.97772 10.2196 3.18967 0.463247 0.113858 -0.461716
H 10.323 7.82572 5.99371 -0.159979 0.022952 -0.109803
H 3.13123 1.10215 7.78382 -0.125619 0.014858 0.108669
H 2.69574 2.3732 1.18992 -0.934131 1.742998 -1.482318
H 12.3667 7.48815 10.4809 -0.205298 -0.710586 0.93254
H 0.07598 10.4418 0.7985 0.164038 2.466507 -0.598393
H 0.11256 1.80325 11.9846 -0.544003 0.401716 0.653156
H 8.02493 10.739 8.91944 -0.713225 -0.189837 0.056819
H 2.2365 5.30858 6.6284 -0.193239 0.06573 -0.03888
H 9.58855 4.36412 3.79082 0.124264 0.188228 0.156873
H 6.14491 9.77903 10.223 0.308119 0.112079 -0.252976
H 11.3803 11.7153 9.41875 -0.85289 0.734409 0.022326
H 1.81907 6.39852 5.53729 -0.814444 0.166246 -0.018932
H 10.622 4.92527 1.20359 -0.387114 0.043582 -0.029633
H 8.67752 2.51767 0.93601 -1.116435 0.057051 0.935385
H 5.92873 12.3318 9.12712 -0.178392 0.884878 -0.191775
H 6.58145 1.62044 2.99282 0.906172 0.160151 -0.337323
H 4.97393 2.4022 4.09176 -0.565166 0.328229 0.675026
H 0.86249 12.2922 10.4138 -0.545697 -0.309018 -0.043937
H 1.58409 12.3169 1.40788 -0.353367 -0.246124 -0.880729
H 6.53119 7.45259 11.3076 0.129804 0.783147 -1.180861
H 10.7602 8.91441 2.25629 0.467158 -0.158755 -0.564105
H 3.64378 2.42401 9.86802 -0.07823 0.17561 -0.110579
H 0.96607 10.4826 8.75231 0.128575 0.818563 0.313816
H 9.26509 7.68297 8.09065 -0.957666 -0.685614 0.613449
H 10.2463 7.82663 4.36775 -0.290967 0.55214 -0.122179
H 8.46172 1.91114 2.41609 -0.059131 1.084136 -0.510376
H 6.42443 4.0616 6.82673 0.821315 2.007062 -0.094754
H 9.20515 11.2063 11.0649 0.848063 0.1727 -0.347905
H 5.75146 1.53136 8.98839 -0.206957 -0.989479 -0.01228
H 10.142 2.733 8.91423 0.28288 0.121958 -0.177178
H 9.43529 9.44829 2.85638 -0.702817 1.235852 -0.16006
O 8.17599 2.67875 1.80209 1.248758 -1.392922 -0.566444
O 9.12798 0.77075 3.427 0.949993 -0.20617 0.789033
O 8.15137 6.71618 9.00446 1.668427 -0.538638 -0.5675
O 5.97797 3.22595 6.88805 0.093301 -1.030281 0.867789
O 6.0694 12.0976 5.71977 -0.843714 -0.470427 -0.896995
O 6.31817 7.81601 10.361 -0.612235 0.148651 2.147486
O 3.3216 1.85377 10.5928 -0.122207 0.01837 0.894809
O 2.48361 6.17802 6.22922 0.830822 -0.06568 0.561099
O 9.52765 4.64071 2.85273 0.410435 0.123245 -0.729272
O 5.29912 0.66556 8.90471 0.719954 -0.222025 0.031153
O 12.1111 2.48136 0.20711 0.286946 -0.424541 -0.877205
O 6.82459 6.66586 0.26063 0.379992 -0.608001 -0.070299
O 2.49337 0.71081 8.3998 -0.129007 -0.067783 -0.276834
O 9.20396 1.93789 11.608 -0.655114 -0.746518 2.208381
O 0.38977 0.76254 4.1352 -0.175942 -2.373031 -0.232136
O 4.03357 3.60952 8.5609 0.550372 -1.919834 -0.914363
O 2.33202 8.22148 2.9747 0.656891 2.412109 0.382729
O 9.95719 8.23645 7.71346 0.721062 1.463615 -0.340641
O 0.22754 6.65127 12.0951 -1.059938 0.556269 0.094648
O 11.2903 0.81043 2.15761 -0.129145 1.728552 0.951024
O 10.0803 8.75596 2.93382 -0.637676 -0.723 0.616075
O 9.9487 4.51573 5.51208 0.442004 1.159398 -0.242012
O 4.43295 2.97768 4.73887 0.629113 -0.218591 -0.777679
O 4.00302 6.40619 9.9847 -0.214614 -0.88874 1.79879
O 9.20547 2.58754 9.15083 0.290221 0.451501 0.407227
O 12.3422 7.95165 9.64107 -0.467545 0.860528 -1.178209
O 8.45956 11.4816 11.5855 -0.968708 1.679334 1.262718
O 8.28929 6.79651 2.45241 0.335 2.580144 -0.371069
O 8.68935 11.0527 8.30712 1.71623 0.271438 0.377951
O 0.77295 6.90335 4.49222 -0.366007 0.000617 -0.112715
O 11.7238 2.22757 5.92881 -0.300708 -0.051471 0.631632
O 7.3116 5.6115 6.61763 0.58126 -0.675293 0.373438
O 3.76942 10.6724 3.50394 0.637735 -2.116865 0.865511
O 4.30325 6.72553 1.79564 1.673558 0.039326 -1.0446
O 12.1106 8.66047 1.46681 0.134535 1.98232 1.425017
O 6.34292 9.86956 3.83495 -0.582021 -0.391879 -0.701713
O 5.87352 1.23899 3.49481 -0.719122 -0.819195 0.754223
O 2.65162 5.83044 12.378 0.41715 -1.756122 -0.840493
O 2.65109 7.83928 8.33201 -1.046108 -0.299587 -0.015735
O 2.11708 0.63536 1.77044 1.354957 -0.272054 -1.406604
O 2.58228 10.4631 8.43104 -0.522378 0.989586 1.612582
O 10.5686 7.37561 5.15545 0.556746 -0.844971 0.651178
O 2.43983 3.1886 0.59203 -0.525141 -2.444593 0.012692
O 6.81172 7.25092 4.56901 0.059559 0.078112 -2.102602
O 10.5114 12.2235 9.61916 1.026386 -0.222565 -0.094801
O 2.24107 1.6311 5.74577 1.021533 0.196911 0.553586
O 8.9283 5.10786 10.8439 0.92822 0.271587 0.415637
O 11.8829 2.49066 8.46792 -1.169922 -1.192789 -0.460469
O 7.92018 1.6431 7.15594 -1.530253 0.388381 1.50039
O 8.40362 10.8904 2.13213 -0.978011 -1.487579 -0.836351
O 3.46732 11.4336 5.78193 0.084928 0.676599 3.005274
O 0.13005 11.4809 0.67537 -0.264832 -2.895275 0.653612
O 9.88464 12.3592 5.92403 1.082841 0.841524 -1.148959
O 1.17463 0.53158 11.078 -0.343542 -0.435204 -0.623028
O 4.44067 5.621 4.47849 0.534988 -0.085614 -1.400528
O 0.22474 10.7556 9.36306 -0.440408 -1.878842 0.529683
O 6.3525 10.7312 10.067 -1.946956 -1.039858 -1.141073
O 1.56958 3.86382 7.27826 1.846397 -0.99771 0.834601
O 10.8308 4.90194 0.24578 0.897473 -1.251438 0.808785
N 2.55865 8.78424 11.1288 -0.137284 -0.077975 -0.059263
N 9.67194 8.77818 11.3472 0.707274 -2.045281 2.461678
N 5.4432 0.20967 12.3423 2.735304 1.272843 -3.738692
N 0.58756 3.986 3.22548 -2.716898 -1.028077 -0.638771
N 0.46123 10.3435 5.77803 -0.257082 -0.519302 0.300764
N 0.17777 9.47662 6.40855 0.242869 0.480426 -0.31024
N 2.93303 9.29267 12.0341 0.114405 0.181562 0.212058
N 9.90745 8.07523 12.1962 -0.867244 1.989882 -2.584511
N 1.58934 4.34398 3.44935 2.69349 0.891511 0.602622
N 4.83293 12.3432 0.79014 -2.639839 -1.350643 3.799945
N 5.71417 3.53235 0.85271 0.083984 -0.047572 -0.794771
N 6.02838 3.37875 12.2 -0.302613 0.150913 0.651443
N 6.20001 9.09944 7.61961 1.203975 -0.569282 -0.111459
N 5.18434 9.51142 7.57872 -1.036731 0.366428 -0.11898
Na 3.72323 11.8265 9.98613 -0.073877 0.474939 -0.213686
191
energy=-1081.9624702 config_type=nep2xyz pbc="T T T" virial="-2.053095819228035 -3.4574873312921723 -2.7554700784265154 -3.4574873312921723 -3.304629119787911 -3.717578344965751 -2.7554700784265154 -3.717578344965751 11.852979156309882" Lattice="12.4 0.0 0.0 0.0 12.4 0.0 0.0 0.0 12.4" volume=1906.6240000000003 Properties=species:S:1:pos:R:3:force:R:3
H 6.89963 8.12535 4.0862 -0.121255 -1.015454 0.180743
H 10.936 2.89272 8.31475 1.626778 0.075689 -0.261524
H 7.81037 6.36753 0.31527 -0.43983 -0.122643 -0.338877
H 3.08866 9.2178 3.74173 0.369521 1.137339 -0.286591
H 2.37293 3.42435 5.40239 -0.039863 0.614435 0.376539
H 10.8547 3.25663 5.57517 -0.219354 0.378825 -0.521961
H 11.9434 2.54682 6.25362 1.076235 -0.296198 1.461563
H 7.18817 6.98888 3.15207 0.670824 -0.322394 -1.324514
H 4.35606 5.26096 4.34089 0.308465 -2.124523 1.881762
H 7.52374 6.2184 6.62128 -0.759506 -0.64359 -0.491903
H 6.16242 1.83245 5.81485 0.000733 0.182872 -0.50751
H 3.81888 2.85492 5.52566 -0.470627 -0.000858 -0.463107
H 6.93117 6.20407 5.14962 0.380454 -0.006372 0.147553
H 4.58381 10.916 4.08176 -0.933649 -0.154488 -0.072595
H 7.52149 4.93138 12.1294 0.036062 0.275895 -0.342151
H 4.86629 6.95638 10.0711 -1.096123 -0.873024 0.046438
H 6.66116 3.55138 10.3464 0.54547 -0.799829 2.152918
H 0.50655 12.2537 1.12135 0.328022 0.311015 0.648177
H 0.82755 10.7107 12.0938 -0.639977 -0.519738 -1.37258
H 11.1835 5.16573 8.41476 0.424695 0.435555 0.091083
H 0.62806 3.16238 8.58048 -0.20013 0.780671 -0.810776
H 0.94256 8.00194 9.57817 -1.097932 -0.634672 -0.050009
H 11.5832 9.16957 10.101 0.046476 0.260902 0.813492
H 11.0569 0.86591 1.56738 -0.907919 -0.691521 -0.07122
H 3.0814 7.67832 3.65354 1.315654 -2.11821 -0.052135
H 1.82618 2.13855 4.145 -0.57891 -0.399222 -0.485353
H 4.36285 3.62896 8.10405 0.266235 0.063195 -0.04152
H 3.50141 4.63562 8.8589 0.045748 0.895414 0.996921
H 9.96731 11.7955 2.90432 -0.090849 0.091608 -1.08877
H 10.3984 1.19759 5.35243 -0.225418 0.364984 0.781906
H 4.55758 1.49991 1.95465 0.061887 -0.180555 0.565976
H 0.25163 2.24464 4.14271 -0.357583 0.045566 0.428008
H 5.08429 6.63608 3.96503 -0.518518 -1.248317 -0.436512
H 6.01868 1.28652 7.21455 0.299598 -1.10011 -0.674169
H 7.94573 3.32011 0.38738 0.139409 -0.169811 -0.315739
H 4.55326 10.4568 9.51946 -0.378707 -0.47217 -0.423946
H 8.26592 3.8919 2.94819 0.916584 0.555764 0.190226
H 0.45984 9.88311 1.04911 1.165752 1.327186 -0.577853
H 3.13965 5.75002 10.8436 -0.775475 -0.306234 0.772716
H 9.85954 11.7081 4.4032 -0.454202 -0.956616 -0.652956
H 10.0882 6.01894 8.97427 -1.138172 -0.289544 0.355838
H 3.065 4.95101 0.49651 0.08625 -0.125562 0.257125
H 2.00772 9.57262 8.72519 0.365612 0.685159 0.287668
H 2.66662 6.68802 9.6297 0.088902 -0.042296 0.281173
H 1.38266 7.81219 7.99865 -0.594257 -0.255183 -0.326098
H 3.06439 11.6438 5.32519 0.047016 -0.190104 0.297936
H 11.1118 11.6475 9.70295 -0.514927 0.18501 0.165262
H 1.03585 5.86098 0.2741 -1.084046 0.862971 0.419975
H 10.5058 5.59393 5.69347 -0.685092 -0.232879 -0.265847
H 1.2727 8.4365 2.73815 -0.977449 -0.188366 -0.900577
H 8.54681 6.17147 2.46957 0.615455 -1.327096 0.33831
H 9.00892 4.95076 5.52084 1.554244 0.029121 0.674373
H 8.45794 11.6377 8.5696 -0.271933 0.048102 -0.441253
H 0.78167 1.024 2.32755 -0.185456 -0.296977 -0.436515
H 9.25196 7.49921 2.23051 0.854083 0.720536 0.464269
H 5.59537 2.00897 8.89043 -0.199453 -0.114558 0.390178
H 0.27181 7.76162 1.5309 0.742342 -0.560128 0.055661
H 4.11535 11.4952 6.39394 1.875849 -0.273284 -0.107061
H 8.29892 4.93217 10.5047 0.057713 0.588847 0.288866
H 2.58223 10.6331 7.78733 0.442121 0.684942 -1.953102
H 9.70102 4.12491 12.2613 0.629467 -0.057177 1.131747
H 2.60172 2.15966 7.79874 0.233963 -0.779985 -0.031371
H 8.55325 9.85742 7.24945 0.262921 0.038558 0.193927
H 4.4528 5.24235 2.29751 0.93472 -0.018389 -1.303989
H 9.81374 1.8279 8.60077 0.467275 -0.043989 -0.020492
H 1.82461 8.14882 5.41354 0.156034 0.353097 -0.963534
H 6.90419 7.46834 8.94291 -0.414061 -0.030963 0.240911
H 5.55556 3.65102 2.1117 0.381247 -0.574991 0.05747
H 3.64882 11.5444 3.00738 -0.116243 -0.493234 0.446258
H 2.79304 11.2955 0.1065 -0.293412 -0.443983 0.43565
H 11.412 6.92927 10.0507 0.487421 -0.461343 0.009413
H 5.56147 3.17563 4.18247 -0.17853 0.170526 0.406257
H 11.773 5.911 0.48944 1.197573 0.373497 -0.261275
H 8.27376 9.15032 5.42788 0.408894 -0.227972 0.880932
H 8.26187 1.38194 3.86856 -0.005801 -0.270034 0.848312
H 6.72761 10.4036 5.30617 -0.660771 0.559244 -0.530227
H 1.77231 4.12646 0.0503 -0.655038 -0.969928 -0.093334
H 0.44225 7.51045 5.83328 -1.547665 0.374348 -0.489174
H 12.0612 1.15287 9.99772 0.949733 0.198207 -0.570024
H 6.39814 11.9255 5.61965 -0.157551 0.583606 0.211424
H 0.56216 4.1989 7.23657 0.938919 -0.101502 0.576103
H 5.47412 5.5303 1.06307 -0.166592 -0.264438 0.044927
H 9.11238 0.65477 6.24448 0.084662 0.169893 0.396616
H 8.05817 6.44051 8.73007 -0.34854 0.295032 -0.169891
H 0.76773 2.36243 0.60518 -0.108896 -1.242965 0.704785
H 8.39801 10.0195 4.11018 -0.053014 0.095835 -0.15999
H 10.3482 7.89868 6.05298 -0.206528 0.260383 0.885429
H 2.85711 0.67386 7.277 0.013552 -0.728563 -1.637655
H 0.5175 2.04395 10.855 0.150467 1.556573 1.992001
H 12.1992 7.27749 11.4804 -0.291985 -0.462168 -0.155675
H 4.12048 0.46491 0.91502 -0.279037 -0.378523 0.012261
H 9.69865 0.39894 0.79801 -0.206672 0.084849 -0.875082
H 9.8039 11.5732 7.93187 0.535011 0.130858 -4.1e-05
H 2.49454 4.85732 7.05537 1.872805 -0.077731 1.381778
H 9.39438 4.45587 3.86614 0.336429 0.204989 0.096407
H 5.21317 9.27141 10.4054 -0.221433 0.362727 -0.404949
H 10.1396 0.34261 10.3111 -0.019953 -0.012884 -0.215302
H 1.5878 5.98343 6.26024 0.925484 -1.239215 0.392287
H 10.4956 4.48563 1.24964 -1.071179 0.121655 2.394158
H 8.74681 1.89518 11.6691 0.158123 0.130701 -0.067386
H 6.38762 0.2419 9.61774 -0.033664 -0.118523 -0.008694
H 8.89129 1.42973 2.42974 -1.836953 0.74445 1.209089
H 6.71412 2.52314 2.6602 -0.251509 -0.169241 -0.181101
H 4.00561 11.1016 11.5039 0.137094 -0.239293 0.069497
H 12.0636 3.37995 0.1717 0.100473 0.133173 -0.224858
H 6.19115 6.88458 10.9409 0.126798 -0.423725 0.476021
H 11.3286 8.44403 2.78789 -0.689015 -0.065396 0.502763
H 4.27444 1.11989 8.58706 0.334628 0.325788 -0.237969
H 0.07655 10.217 9.44202 -0.145771 0.153311 0.344058
H 8.35822 8.18723 7.30345 0.126495 1.74681 -0.198635
H 10.788 7.61368 4.6858 0.088298 0.033886 -0.531807
H 6.7433 4.22242 9.10784 -0.707101 -0.949289 -0.377912
H 6.0143 4.07799 5.43636 0.585275 0.554522 0.370414
H 8.20108 0.55818 11.0611 0.406014 -0.159246 0.57573
H 6.53644 11.172 10.1039 0.499092 1.413235 0.433074
H 9.04729 4.02651 9.65079 1.206625 -1.970121 -0.929041
H 10.0558 9.31221 3.0826 0.262286 -0.316028 0.640959
O 6.20514 3.49236 9.52461 0.326611 1.614736 -1.845007
O 9.62351 0.60454 5.43478 -0.007671 -0.443413 -1.23754
O 7.56981 7.17719 8.29323 0.782457 -0.82648 0.057616
O 5.38323 3.40997 5.16487 -0.141173 -0.437833 -0.738836
O 6.00712 11.0961 5.30842 -0.30697 -1.192775 0.228167
O 5.66169 7.41876 10.33 1.280697 1.66496 -0.396861
O 5.27078 1.11114 8.64602 -0.042295 0.349111 0.345443
O 1.79005 5.00324 6.46354 -2.845272 1.231603 -2.485929
O 8.90315 4.64691 3.04633 -0.947858 -1.098668 -0.385001
O 7.00589 12.069 10.1187 -0.047911 -1.13832 -0.448241
O 10.0957 0.52584 1.66574 1.120026 1.059258 0.845016
O 7.21611 5.89441 12.0712 0.159573 0.311037 0.744441
O 2.70845 1.21239 8.04691 -0.198376 1.348604 1.56274
O 0.90237 10.7246 0.63111 -0.41813 -1.165777 1.897747
O 1.00247 1.96646 3.60812 1.152976 -0.112167 -0.176731
O 3.49243 4.03259 8.11933 -0.143658 -1.019818 -0.507009
O 2.53554 8.42958 3.68271 -1.678735 0.959056 0.460253
O 8.66548 9.00674 6.77159 0.468858 -1.972108 1.139412
O 0.20478 6.47787 0.46021 -0.320364 -1.082358 -0.308922
O 0.40723 0.79311 1.4201 -0.401287 0.35477 0.050634
O 10.3848 8.38452 3.18245 0.835952 0.561652 -0.862161
O 10.0082 4.74757 5.52333 -1.416726 0.282332 -0.021909
O 5.7704 2.83035 2.64944 -0.361439 0.294377 0.14196
O 3.39363 6.14289 10.0116 0.314292 0.082931 -1.252138
O 8.70637 4.89906 9.62467 -1.242024 1.847228 0.321726
O 11.9012 7.58508 10.586 0.217038 0.922478 -0.305953
O 8.97019 0.93155 11.5757 -0.476129 -0.199534 -0.677524
O 8.51767 6.96007 1.92982 -1.44901 0.295339 -1.120799
O 8.88058 11.4629 7.69769 -0.848934 0.003479 0.677013
O 1.36748 7.58603 6.0352 0.670558 -0.732105 1.740867
O 11.5085 2.53668 5.42043 -0.946289 0.070759 -0.805824
O 7.20496 5.61288 5.90351 0.539126 0.218833 0.413906
O 3.64055 10.8377 3.71361 1.50888 1.03638 -0.14959
O 4.8379 4.86771 1.40557 -0.856418 0.993336 1.076471
O 0.41314 8.4901 2.17249 0.147602 0.809356 0.447831
O 7.82748 9.3885 4.59127 -0.848549 0.159746 -1.965426
O 8.06801 1.7997 3.02866 2.538694 -0.454993 -2.075681
O 2.24634 4.9678 12.3729 0.968673 1.234652 -0.346497
O 1.64934 7.96582 8.9147 1.388684 0.40431 0.14638
O 0.565 3.02927 12.3501 -0.246975 0.852594 -0.596718
O 2.21572 10.5575 8.64845 -0.711248 -0.954245 1.922821
O 10.9704 7.31784 5.60336 0.239376 -0.101226 -0.280241
O 0.58943 1.54792 10.0614 -1.943355 -1.011053 -1.449361
O 6.61328 7.14629 3.89522 -0.620066 2.099814 1.167385
O 10.6734 0.1155 9.5028 0.38347 -0.067201 0.677408
O 2.8757 2.60446 5.35592 0.342641 -0.311544 0.297697
O 8.26744 3.54385 11.8953 -0.176735 -0.037998 0.432676
O 0.09879 3.76539 7.99887 -0.68482 -0.970594 0.574512
O 6.40794 1.0483 6.32467 0.089659 0.842327 0.661605
O 9.76729 11.1262 3.57213 0.092279 0.173365 1.630466
O 3.19535 11.6728 6.30156 -1.385112 0.299059 -0.198201
O 4.04931 0.67105 1.85843 -0.314936 0.532732 -0.183952
O 10.0147 2.75742 8.44736 -2.282228 -0.006268 0.398169
O 3.39566 11.7446 11.9103 -0.051667 0.615335 -0.723656
O 4.28007 6.01384 3.81534 0.060981 3.054591 -1.804649
O 11.8093 10.1403 10.156 0.632513 0.020184 -1.057341
O 5.06045 10.2484 10.3047 0.457426 -0.54636 0.745267
O 10.9559 6.10279 8.59864 0.733285 -0.225776 -0.414299
O 10.6121 4.35595 0.34183 0.3117 -0.265564 -3.06512
N 3.59132 8.42196 0.68945 1.465827 -0.404316 0.873679
N 9.43727 10.2592 0.32403 0.305791 -1.687349 -0.200846
N 6.23443 11.5031 1.45764 0.935253 0.826308 3.513475
N 12.2452 4.79778 3.40584 -3.86686 -0.182821 2.635125
N 0.5802 10.6531 5.55982 0.358239 -0.664904 0.303352
N 12.358 11.4306 5.09288 -0.38061 0.67545 -0.324036
N 4.49549 8.15457 1.28682 -1.439255 0.421277 -0.981462
N 9.66753 9.17097 0.23369 -0.308798 1.670607 0.085748
N 0.72649 4.87173 2.78956 3.963335 0.312517 -2.554343
N 6.43668 11.8196 2.5243 -0.379983 -1.156215 -3.714169
N 4.70539 2.41613 11.7608 1.680069 0.476118 1.549903
N 3.91231 2.21058 11.0413 -1.822643 -0.480862 -1.442426
N 4.16167 6.75105 7.00185 -0.448538 -1.506827 0.799681
N 4.48316 7.70047 6.56596 0.593145 1.725228 -0.760011
Na 2.12996 0.20066 9.98875 0.814919 -0.67835 -0.141362
191
energy=-1083.08775364 config_type=nep2xyz pbc="T T T" virial="-6.4201995859231795 -7.1300233772665935 2.264157963193747 -7.1300233772665935 10.208001076555465 -2.760075460119949 2.264157963193747 -2.760075460119949 1.1625792226311609" Lattice="12.4 0.0 0.0 0.0 12.4 0.0 0.0 0.0 12.4" volume=1906.6240000000003 Properties=species:S:1:pos:R:3:force:R:3
H 6.44899 7.94087 4.2572 0.104019 -0.362167 0.110636
H 8.79151 2.56152 9.20869 -0.203683 -0.101102 0.594023
H 7.24144 7.0177 0.85298 0.445632 0.102629 1.900393
H 2.59709 9.56516 3.23779 -0.432885 -0.832029 0.094474
H 1.30128 1.41754 5.37157 0.878171 -0.48584 0.340775
H 10.7078 2.98398 5.78611 0.349748 0.065359 -0.202848
H 9.99797 0.71991 6.19038 0.36651 0.250951 0.237881
H 7.19885 6.81356 3.58387 1.721707 -0.523417 -1.530557
H 3.54881 5.7599 4.8558 -1.645682 0.640484 2.335496
H 7.75664 5.93521 7.18511 -0.139761 0.489612 -0.514069
H 7.04712 2.65024 7.61358 -0.103294 0.56984 -0.304821
H 2.77548 2.12988 5.47609 -0.054533 -0.007465 0.501318
H 7.27499 6.08373 5.60863 0.075918 0.372178 0.345352
H 3.04767 11.8575 3.15967 -0.812767 0.860097 -0.542672
H 7.41902 6.74598 11.8731 -0.028114 0.031497 -0.668138
H 5.13929 7.3347 9.80097 1.215409 0.705588 -0.11535
H 8.41644 12.1458 11.7372 0.521156 0.791039 -0.153182
H 12.0214 12.3793 1.77466 0.38525 -0.456889 -0.58711
H 9.37885 1.3454 0.33742 -0.677758 -0.178171 -0.385145
H 2.35704 3.42328 8.32731 -0.171379 0.21303 0.258242
H 12.3429 2.65293 8.9038 -0.502891 -0.46945 -0.486587
H 1.59969 7.79816 8.48764 -0.645901 0.23526 0.015749
H 0.26021 9.86344 9.28394 0.031949 0.380154 0.166208
H 12.1018 1.80228 0.85522 0.567506 0.533315 -0.747119
H 2.61008 8.07934 2.78755 0.133744 0.198069 -0.076553
H 0.10656 0.14732 4.60102 -0.642029 -2.133409 0.570008
H 4.1613 4.54081 9.32533 -0.175444 1.030512 0.683366
H 4.76742 3.63551 8.23526 -0.867146 -0.335858 0.50219
H 8.11945 10.4407 0.60653 0.360188 0.344851 0.604549
H 9.98902 12.3561 3.04176 0.579559 0.262491 0.083019
H 0.83849 11.7591 12.1512 0.095683 -0.013457 0.32244
H 11.8291 1.90771 5.27285 -0.582297 -0.180467 0.409387
H 4.93674 6.06354 4.31966 0.101534 -0.262337 -0.17425
H 8.17808 1.71127 7.23824 0.716807 -0.786456 -0.596069
H 9.7679 5.37094 11.426 -0.718977 0.165945 -1.139056
H 7.2258 10.7171 10.0529 -0.162403 -0.016637 0.532597
H 8.76737 3.62045 2.73834 -0.194084 -0.393503 -0.373597
H 8.94725 1.82323 11.3356 -0.664532 -0.003641 0.210496
H 3.66589 5.76068 10.9924 0.102927 -0.045718 0.076863
H 8.34455 11.0625 2.13666 -0.317944 -0.983355 -1.247176
H 1.51696 2.81661 7.23433 -0.220603 0.392852 0.073
H 3.31534 5.93853 0.70335 0.348812 0.404616 0.519914
H 3.13371 9.61686 8.38667 0.058151 -0.777956 -0.140335
H 3.18733 6.30839 9.65591 -2.586688 1.46491 -1.476322
H 2.82824 7.08474 7.90956 -0.003575 0.099587 -0.491226
H 3.16372 12.3699 6.05981 -1.159571 1.756937 0.262295
H 10.9658 0.55822 9.22669 -0.014349 0.939694 -0.103571
H 1.35018 6.33586 12.3885 -1.08788 -0.071696 -0.084389
H 10.451 5.29809 5.26496 0.20677 0.251877 -0.344574
H 0.95728 8.91668 1.83812 0.286492 -0.235056 0.60918
H 8.9846 5.75909 2.44466 -0.374527 0.564245 -0.030452
H 9.33195 4.47224 5.74723 -0.96394 0.035609 0.095608
H 9.37631 11.3004 8.67232 0.190223 0.536212 0.463764
H 11.8584 1.0375 2.90889 0.468166 0.133869 0.639
H 9.36321 7.26877 2.42952 -0.016004 0.517277 -0.050142
H 3.64771 2.42811 11.8647 0.035387 -0.733756 -1.035294
H 0.27517 8.2182 0.56945 0.12324 0.366149 0.672651
H 3.53281 11.3299 5.03651 0.138672 -0.511824 -0.4761
H 8.98782 4.49301 10.481 -0.224765 -1.04175 -0.313631
H 3.49837 10.832 7.47181 0.052544 0.135222 -0.679559
H 11.5713 3.8292 12.2432 -0.267801 0.186729 0.551656
H 2.47649 1.0825 7.44953 0.618165 0.021561 0.870735
H 9.55681 9.26016 7.65458 -0.146725 0.55107 0.082687
H 4.54267 7.27709 2.59281 -0.846843 0.065764 -0.820657
H 8.99914 11.8636 6.71194 0.61649 0.5319 0.153308
H 1.13461 7.80812 4.54545 -0.538484 -0.433634 2.345771
H 7.09457 7.19092 9.06864 0.303862 0.180214 0.363667
H 3.68043 3.9399 4.5078 0.45224 0.723538 -0.650872
H 4.46493 11.3498 3.09644 -0.779962 -0.838587 0.014256
H 2.34561 1.00102 10.9349 0.622531 0.834346 0.659732
H 11.4719 8.26164 8.43937 -0.087601 -0.191145 0.411426
H 5.08867 3.26847 6.1181 0.052456 0.138337 0.617167
H 12.1789 6.0602 0.13367 -0.76429 -1.327024 0.230361
H 6.62457 10.3799 4.44398 -0.355841 -1.243032 -0.330609
H 5.45106 0.51545 3.86503 0.733907 -0.469335 0.941311
H 5.3428 12.0354 5.75147 1.623435 -0.048474 0.008186
H 2.93943 4.44625 0.42862 0.004395 -0.015858 -0.127102
H 12.3844 7.11911 5.41302 -1.585434 -0.308379 -0.219541
H 1.74033 2.63856 0.59559 -0.432061 -0.245117 0.294085
H 6.91036 0.24569 5.90798 -0.806356 -0.697348 -0.444493
H 11.461 2.19015 7.68651 -0.046145 -0.101312 0.81533
H 4.62617 7.78155 1.1474 0.155884 0.249118 -0.329068
H 9.1661 12.3032 4.49524 0.166798 0.115009 -1.605657
H 8.38632 6.25663 9.37448 -0.682635 1.405542 -0.905902
H 1.54679 0.93865 3.3346 0.104948 -0.62902 -0.56169
H 6.87065 9.67982 3.0973 0.85542 0.169494 -1.763337
H 9.89969 7.61486 5.74997 0.414571 -0.186099 0.148562
H 3.81247 1.34702 8.28037 -1.070475 -0.458065 -0.05848
H 2.93883 2.26292 1.57442 -0.163485 -0.658333 0.711677
H 12.2195 7.90335 9.85522 -0.372366 -0.159077 -0.147515
H 0.61118 10.5152 0.68628 -0.322822 -1.037713 0.136121
H 0.36893 1.7837 11.7913 -0.075664 -0.169435 0.130519
H 7.82034 10.8458 8.27227 1.524723 0.010046 -0.072333
H 2.16156 5.10621 7.13453 -0.296341 -0.547257 -0.101478
H 10.1234 3.96043 3.3067 0.292069 0.206575 0.847266
H 6.30513 9.56799 9.57451 -0.404002 -0.08007 -0.170204
H 11.4838 11.5646 9.48104 -0.123908 0.211253 0.254692
H 1.92718 6.35082 6.19762 -0.073938 -0.030433 -0.117884
H 10.6164 4.39031 0.96698 -0.509459 -0.448151 0.843572
H 7.92213 1.86343 1.57464 -0.571538 0.49965 1.049043
H 6.10956 12.2333 9.07474 -0.449022 1.236885 -0.839664
H 5.8526 1.53924 2.82205 0.99327 0.367364 -0.333583
H 4.27572 2.45643 4.16491 0.170416 0.222704 -0.213677
H 1.49645 0.42892 9.87202 -0.406491 -0.250075 0.458639
H 1.82491 0.20732 1.93559 -1.1899 -1.014528 -1.52913
H 6.05577 7.79648 10.8706 0.737994 0.146882 1.186437
H 11.1807 8.92948 2.04583 0.207648 -0.079499 0.136073
H 3.84533 2.64128 10.2732 0.33809 -0.022587 -0.026196
H 1.44672 10.8059 9.12354 -0.609654 0.311656 0.223206
H 9.2601 7.83621 8.19259 0.248235 0.313971 -0.519129
H 10.4101 7.74814 4.31641 0.098241 1.31606 -1.905148
H 8.14933 1.42078 3.00025 1.236764 -1.827649 1.315926
H 6.18442 4.2199 6.67916 0.798139 0.902798 -0.206081
H 9.3197 11.0815 10.9448 0.266433 0.679135 0.175239
H 6.53799 1.34884 8.82222 -0.349862 -0.405958 0.117846
H 10.1943 2.82982 9.74064 -0.820029 -0.680018 0.462246
H 9.78371 9.44048 2.57013 0.099063 -0.352769 -0.218765
O 7.67608 2.07578 2.52715 -0.776698 1.245722 -2.517562
O 9.1218 12.3006 3.45363 -0.931205 -0.238775 1.40056
O 7.96435 6.91045 8.69595 1.383367 -1.971818 0.323299
O 5.62868 3.48272 6.94269 -0.499323 -0.802996 -0.738746
O 6.3233 12.0194 5.42182 -0.903678 0.371231 0.246031
O 6.02374 7.85845 9.91866 -2.850071 -0.617515 -0.707604
O 3.84873 1.96326 10.9906 -0.465643 0.278448 0.963852
O 2.61578 5.72541 6.54545 0.15396 0.651769 0.043636
O 9.57788 4.12189 2.53858 -0.147418 0.16506 -0.742654
O 5.78529 0.73284 8.72958 0.701167 -1.217543 0.678553
O 0.16329 2.38175 0.13505 -0.586889 -0.798371 0.449686
O 6.88619 7.32946 0.03287 -0.279908 -0.265717 -1.02947
O 2.92432 0.89989 8.34475 0.396346 0.886939 -0.975693
O 8.56791 1.37934 12.173 1.383511 0.109345 0.618847
O 0.38752 0.99333 4.35946 0.469576 2.808041 -0.8345
O 4.07724 3.64555 8.98938 0.602737 -0.722135 -1.257091
O 2.03561 8.72949 3.22597 0.191911 0.692566 -0.048751
O 9.94747 8.37692 7.68889 -0.139419 -0.857838 0.330756
O 0.43418 6.71909 12.344 1.850177 1.148625 -0.531641
O 11.5039 0.75268 2.04715 -0.912817 0.44066 -0.515088
O 10.4634 8.74953 2.69909 -0.471093 0.167585 0.117461
O 10.1396 4.37417 5.23006 0.231986 0.272074 0.186865
O 3.91983 3.07492 4.84744 0.132787 -1.488252 0.721221
O 3.95212 6.04452 10.0882 2.747133 -0.961989 1.395203
O 9.26281 2.6662 10.0878 0.985069 0.829493 -1.144024
O 12.3259 8.25247 8.96072 0.168638 0.149466 -0.240265
O 8.52623 11.2148 11.4766 -0.879008 -1.335211 -0.436636
O 8.59578 6.6749 2.3515 0.036744 -0.969457 -0.070065
O 8.79199 10.9228 7.98823 -1.601706 -0.689301 -0.434005
O 0.84351 7.49638 5.49833 2.304929 1.055851 -1.958521
O 11.1398 2.11986 5.98427 0.283004 -0.369767 0.323675
O 7.69154 5.51813 6.2917 -0.08063 -0.946498 0.302786
O 3.54934 11.0253 3.27726 1.656182 -0.434953 0.5002
O 3.97551 7.5464 1.81606 1.027806 -0.82042 0.87587
O 0.2537 9.02353 1.17708 -0.461307 -0.487487 -0.947517
O 6.46941 9.52101 3.93368 -0.347797 1.518208 1.825796
O 5.09639 1.17951 3.28271 -1.322214 0.416833 -0.248024
O 3.02353 5.34045 0.00858 -0.390486 -0.175718 0.151451
O 2.56414 7.77179 8.54885 0.521704 -0.152182 0.056257
O 2.25016 0.65966 2.63624 0.634661 1.67947 1.751695
O 3.43099 10.5317 8.38342 -0.266154 0.178627 1.274532
O 10.4257 7.17558 5.05441 -0.147615 -1.290452 1.907808
O 2.67914 2.79853 0.82769 0.478702 1.134055 -0.726489
O 6.5202 6.9425 4.22017 -1.592795 0.649165 1.275201
O 10.6657 12.1173 9.58996 -0.125635 -1.278082 -0.031537
O 2.15653 1.54311 6.00203 -0.80189 0.286729 -0.693251
O 9.10657 5.42759 10.6573 0.834361 0.533466 1.47301
O 11.5203 2.13321 8.70127 0.744477 0.764688 -0.732328
O 7.98243 2.4497 7.81212 -0.42075 0.173521 0.447135
O 8.1078 10.2539 1.57528 0.188683 0.690675 1.363695
O 3.73477 11.6313 5.94146 1.113991 -1.170159 -0.086602
O 0.70022 11.4748 0.67925 0.240564 1.58154 -0.263399
O 9.14588 0.25766 6.11725 -1.116396 -0.266185 -0.546362
O 1.6221 0.36202 10.8417 -0.256358 0.364263 -0.897292
O 4.09208 5.60424 4.12352 1.443309 -0.085335 -2.12216
O 0.54161 10.7934 9.52466 0.740929 -1.141242 -0.627906
O 6.46223 10.533 9.46927 0.664215 0.354614 0.115119
O 1.45097 3.50123 7.94395 0.525975 -0.330509 -0.146108
O 11.0274 4.60301 0.13139 0.51889 0.499065 -1.134119
N 2.9797 10.1083 11.6074 -0.03503 1.671535 0.183837
N 9.35051 8.24186 11.1312 1.949908 0.766441 0.661483
N 5.68039 11.9446 0.77614 2.07771 -0.489564 4.195235
N 0.4299 3.86851 3.18873 -0.714645 -2.161889 -1.813517
N 12.0165 11.0258 5.67663 0.246935 -0.388499 0.548989
N 0.2589 10.6838 6.51218 -0.274673 0.034905 -0.406342
N 3.08161 9.03656 11.4124 0.122668 -1.834485 -0.162061
N 10.3603 8.57146 11.4839 -1.919603 -0.654496 -0.66225
N 0.6936 4.68637 3.85596 0.722785 2.153723 1.770206
N 5.19508 12.0776 12.2231 -2.062774 0.440637 -4.252116
N 6.23521 4.23132 1.08782 -1.321855 -1.135568 0.134978
N 5.41167 3.48472 1.1863 1.465253 1.255465 -0.150908
N 4.48801 8.1013 5.89694 -0.30094 -0.084518 -0.033142
N 5.2584 8.7955 6.2716 0.14601 0.189617 0.350343
Na 3.87451 12.2501 9.89379 0.46214 -0.51536 0.400949
191
energy=-1081.16766761 config_type=nep2xyz pbc="T T T" virial="-5.810551771570257 3.528733895112803 2.9601537092457675 3.528733895112803 6.826353790566264 2.83152432752918 2.9601537092457675 2.83152432752918 -1.3444977496273176" Lattice="12.4 0.0 0.0 0.0 12.4 0.0 0.0 0.0 12.4" volume=1906.6240000000003 Properties=species:S:1:pos:R:3:force:R:3
H 6.02803 7.55538 3.92571 0.56764 -1.013289 1.101459
H 5.80632 4.04128 9.29688 1.022161 -0.92416 0.225676
H 6.84903 6.83833 1.31969 0.801244 -0.034381 -0.038641
H 2.51589 9.22235 3.46985 0.344324 1.011964 0.242361
H 1.15037 1.59249 4.68387 -0.56705 -0.33763 0.383482
H 10.8459 3.74291 5.25104 0.667395 -0.625141 -0.079851
H 11.3878 1.47259 5.67449 -0.651277 0.0122 0.176238
H 6.76517 6.23076 3.60244 -0.421301 0.84892 1.083463
H 3.66418 4.71311 5.22251 -1.044983 -0.614185 0.807335
H 7.49435 6.15173 7.36506 -0.510261 0.256703 -0.520261
H 8.26471 1.35885 6.893 0.526289 -0.570604 0.992874
H 2.59703 1.58412 4.60943 0.665305 -0.081598 0.739976
H 7.02092 6.06452 5.67904 -0.05578 0.694459 1.459792
H 2.74027 11.0683 2.66646 0.073783 -0.246028 0.361853
H 6.15987 5.8592 0.34722 0.392085 -0.292031 -0.024259
H 5.52856 7.88178 10.2225 0.380601 -0.640322 0.243939
H 8.04188 0.36037 0.28674 -0.039726 0.681472 -0.141953
H 10.1319 2.00022 2.12797 0.111044 0.412438 -0.648124
H 10.6563 12.1703 9.59699 -1.190998 0.752851 0.329162
H 9.33352 4.3413 8.06466 1.046709 0.297966 -1.361255
H 1.10196 3.18954 7.83593 0.187251 0.035215 0.025032
H 1.20528 7.89595 8.92296 -0.307637 -0.234176 -0.123708
H 0.15481 9.77982 9.99405 0.329857 -0.290307 0.052398
H 10.7565 1.681 10.106 -0.154533 0.216682 -0.152635
H 2.86693 7.77733 3.08227 0.056399 -0.230296 -0.219026
H 0.36002 0.13924 2.35958 -0.041675 -0.203045 0.263641
H 4.29541 4.43313 7.72868 -0.00789 -0.214738 0.220281
H 4.41528 5.47001 8.85296 -0.179885 2.089185 0.770785
H 8.87154 11.2308 1.38398 -0.183788 0.785085 -1.158856
H 9.99829 1.30201 3.51779 -0.006211 0.055288 0.047858
H 1.44401 11.3263 0.70875 0.18286 -0.192122 -0.167806
H 11.6294 2.79547 4.16093 -0.657541 0.923659 1.268356
H 4.87253 5.42993 4.71006 0.823262 0.649114 -0.124515
H 9.48045 0.36557 6.86948 0.018473 0.41925 0.44557
H 8.40673 5.16096 11.7206 1.231616 0.639131 -0.477615
H 7.21544 10.8363 11.2816 -0.158369 0.948671 -0.545466
H 9.79836 3.58482 2.89206 0.466547 0.280561 0.270664
H 9.30592 0.34054 9.12597 -0.085512 0.268644 0.025001
H 3.75188 6.38624 10.8745 -0.237238 0.908947 -1.168575
H 9.16919 11.4104 2.95512 0.024723 0.104705 -0.687192
H 9.81616 3.37133 9.28572 -0.067824 0.280061 -0.297857
H 3.05272 6.30962 0.54051 0.757585 0.412337 1.735545
H 2.95387 9.60889 8.67307 0.983026 0.251684 0.760188
H 3.36593 7.44839 9.68426 -0.668179 -0.370377 0.155503
H 2.36604 7.42623 7.8394 -0.995297 0.7579 1.160529
H 2.74863 0.3996 6.4099 -1.523295 1.645785 -0.061428
H 0.26072 0.72783 8.37169 -0.613861 -1.124293 0.158495
H 1.05939 6.50929 12.152 -0.905378 0.420882 -0.028749
H 10.2517 5.85125 6.17242 -0.112384 -0.79476 -0.064727
H 0.82593 8.36521 2.15594 -0.389253 0.036323 -0.102224
H 8.72495 5.98272 2.32137 -0.284545 -1.050776 -0.23742
H 8.82235 5.34197 6.24604 0.588745 -0.908947 0.193998
H 8.1199 11.3428 7.95054 0.183117 -0.996441 0.399717
H 11.8567 1.48134 2.5935 0.055633 0.351604 -0.021328
H 8.90292 7.44352 2.43002 0.152385 0.803275 -0.110433
H 2.2523 3.42248 10.5066 -0.210423 -0.184259 1.581465
H 12.2483 8.20663 0.90368 0.366684 -1.118635 -1.492474
H 3.16477 11.6184 5.50486 0.054884 0.532336 0.625231
H 7.21107 4.29917 11.1075 0.142172 -0.128459 -0.629293
H 3.39074 10.9234 8.13632 0.168651 0.65268 -0.101238
H 11.1904 3.46881 11.8006 -0.45592 -0.872824 -1.75096
H 4.16291 1.15077 8.63223 1.349255 -0.248695 -0.510916
H 9.4788 9.22024 8.21326 0.874084 -1.346081 0.049913
H 4.05256 5.78258 2.90823 -0.476159 0.331025 0.012735
H 11.7088 0.391 6.71581 -0.236497 -0.797869 0.462398
H 1.70849 7.10726 4.85911 -0.903191 -1.134879 1.981731
H 7.58901 6.84275 9.70288 -0.142755 0.065247 -1.457933
H 4.43613 2.98723 4.10778 0.076221 1.394306 0.239466
H 4.15741 10.6138 3.26651 -0.171068 0.026332 -0.035655
H 3.06321 0.63758 12.26436 -0.337696 -0.958762 0.212158
H 11.2122 8.14138 9.43778 0.979826 -0.264 -0.201542
H 7.13939 2.38861 5.40117 -0.318937 -0.390002 -1.214739
H 11.833 6.25981 12.2296 0.851379 0.053297 -0.080499
H 6.37838 10.5732 4.20607 -0.176563 -0.592034 -0.015585
H 8.06616 1.55859 3.73649 -0.932186 1.15523 -0.234159
H 5.34746 12.02 5.93763 -1.360608 0.53986 0.303415
H 2.32512 5.01739 0.03255 0.024419 -0.794768 0.06063
H 0.38721 6.73043 5.5764 -0.871479 0.172772 0.153889
H 0.86 3.49885 0.05538 0.453061 -0.081342 0.335937
H 6.4392 11.0501 6.31565 0.355209 -0.352161 0.402493
H 12.37149 2.72487 6.86781 -0.241526 0.358676 -0.694496
H 4.85449 6.65792 1.84076 -1.6265 0.0602 0.378844
H 10.0152 0.46078 4.75094 -0.000973 -0.46363 0.623944
H 8.33765 5.57044 9.31126 0.809869 -1.229545 -0.163179
H 3.25741 2.07976 2.20922 -0.479626 -0.735566 0.603161
H 7.1308 10.1654 2.95852 0.086202 -0.346706 -0.18814
H 10.652 8.0029 6.5698 -0.499612 0.298463 -1.255485
H 2.91733 1.81897 8.9336 -1.123226 0.713511 0.646124
H 2.22367 2.92339 0.79893 -0.439907 -0.948486 0.523149
H 12.2275 7.6702 10.6678 0.023304 -0.04106 -0.559688
H 0.66555 10.369 1.75321 0.318476 0.05069 -0.594782
H 11.7496 2.74243 9.41688 -0.728385 -0.34406 0.736551
H 7.69038 10.2878 9.06822 -0.462678 0.456717 0.546605
H 2.14747 3.10583 5.8884 0.603379 0.188172 0.620936
H 9.3441 4.75735 3.95874 0.279705 -0.42728 -0.349465
H 6.69988 9.55364 10.7614 -0.668374 -0.001184 -0.838319
H 0.03783 11.5444 8.9316 0.38434 1.348145 -0.906299
H 1.95709 4.61888 6.06774 -0.490764 0.958757 0.072183
H 11.3164 3.66203 0.85828 -0.505034 -0.5551 1.965302
H 8.03251 2.90918 0.2342 0.07414 -0.927715 0.57113
H 6.40284 1.83462 9.15421 -0.03218 0.899639 0.518612
H 7.77585 3.08668 3.75363 1.618417 2.70243 0.133616
H 5.42066 1.8085 4.02776 -0.821343 0.264125 -0.262529
H 2.49778 12.2665 11.1191 -1.483946 0.311852 -2.893318
H 1.76133 1.3624 2.07319 -0.414955 0.150115 1.025034
H 6.43854 7.51877 11.4305 -0.245338 -0.050546 0.441033
H 10.9148 8.33789 2.4904 -0.823351 0.195402 0.244281
H 2.87826 3.9347 9.23793 0.510503 0.364235 -0.285698
H 1.59356 10.2851 9.67654 -0.59911 0.479342 0.319881
H 9.22917 7.68613 8.43407 1.468103 0.603011 -0.190815
H 10.4661 8.01002 4.83133 -0.150891 0.372755 0.881276
H 7.67838 2.23921 1.58388 -0.416466 0.25414 1.14972
H 7.51389 3.52685 6.35406 -0.244605 -0.509968 0.302491
H 9.02609 12.1753 11.6837 0.745518 0.277282 -1.110853
H 6.80784 0.84531 8.10345 0.21032 -0.3102 -0.400357
H 7.40847 3.77262 9.1862 0.554911 -0.19116 -0.373392
H 9.62427 9.24486 2.55788 0.030023 0.298041 0.085841
O 8.09235 2.05009 0.74667 0.454681 0.883191 -1.379113
O 9.4395 0.63841 3.98728 -0.206032 0.003903 -0.571251
O 8.02026 6.37401 8.9091 -0.641375 1.735938 1.502588
O 7.28861 2.56914 6.31954 0.38193 0.901398 1.062822
O 6.17283 11.6661 5.63382 0.909724 -0.16572 -0.615073
O 6.46835 7.91053 10.5396 0.11912 0.106742 -0.075476
O 2.15085 3.39654 9.56624 -0.405899 -0.201324 -1.081703
O 2.5032 3.90247 6.40076 0.008307 -0.423855 -0.412157
O 9.11743 4.31278 3.11967 -0.810355 1.11314 0.633209
O 6.18174 0.95751 8.81902 -0.668574 -0.762442 0.121924
O 11.0386 2.62897 10.1184 0.802273 0.118976 -0.779499
O 6.0683 6.74252 0.72707 -0.736264 0.144372 -0.163374
O 3.32427 0.95643 9.0401 -0.0888 -0.504818 0.121869
O 9.80905 0.18829 9.95495 1.442343 -0.737349 -0.258584
O 0.23996 0.94806 2.89484 0.951461 -0.342073 0.018893
O 4.41794 4.54301 8.68962 0.014217 -1.526932 -1.095952
O 2.13862 8.33536 3.42665 -0.592953 -1.518183 -0.251321
O 10.011 8.3262 8.27387 -2.610941 0.837236 0.094923
O 0.12558 6.945 12.0961 -0.141923 -0.643099 0.054747
O 10.7754 2.55813 2.59687 -0.501016 -0.501122 -0.658751
O 9.96833 8.36703 2.84268 1.481102 0.255324 0.268622
O 9.77251 4.97312 6.29081 -0.344142 1.654017 -0.450707
O 4.4625 2.04623 3.97789 0.502564 -1.37688 -0.298435
O 4.06472 6.86623 10.0466 0.765361 -0.694032 0.869187
O 6.60581 3.52122 9.66981 -1.27136 0.741068 0.180644
O 12.1714 8.04281 9.73628 -0.787033 0.324425 0.445507
O 8.34326 11.9247 12.2966 -0.67453 -0.868124 0.781103
O 8.25342 6.78931 2.06916 -0.451922 -0.626825 0.159771
O 8.1014 10.3721 8.19974 0.506387 0.616254 -1.178761
O 1.3244 6.56201 5.67009 1.714775 1.111654 -2.026185
O 11.6215 3.13132 5.11793 -0.172108 -0.302299 -0.842042
O 7.21208 5.64124 6.56605 0.280159 -0.95373 -0.829534
O 3.21021 10.7167 3.46815 0.304038 0.408951 -0.161409
O 3.93785 6.56504 2.32387 1.634268 -0.160633 -0.791763
O 0.00699 8.69142 1.69675 0.277706 1.13063 2.15388
O 6.45609 9.82117 3.56603 -0.095317 0.582678 0.390701
O 7.3803 2.29686 3.48987 -0.797552 -4.231297 -0.057196
O 2.53646 5.95824 12.2347 -0.592499 0.040427 -1.557649
O 2.16166 7.94052 8.67257 0.892725 -0.133994 -1.34116
O 2.55886 1.70288 1.6422 1.613963 0.140851 -0.621821
O 3.50002 10.4082 8.95895 -1.438968 -1.31099 -1.266307
O 10.6971 7.56486 5.67454 0.578926 -0.934308 0.408663
O 1.84722 3.42501 0.06171 -0.490327 1.7871 -1.872124
O 6.28555 6.68293 4.36773 0.271487 0.337919 -2.55398
O 12.0986 12.2991 8.30286 0.798615 -0.077792 1.014296
O 1.90288 1.61962 5.30537 -0.09627 0.340383 -1.720479
O 7.62288 4.68481 11.9087 -1.434463 -0.900702 1.028817
O 0.40242 2.53978 7.70032 -0.354004 -0.467547 1.063303
O 8.73021 0.63603 7.45129 -0.602778 0.231251 -1.047746
O 9.03683 10.7831 2.20851 0.073537 -0.860993 2.015967
O 3.35553 12.1003 6.34483 1.999837 -2.795051 -0.395874
O 1.29466 11.1227 1.64316 -0.447353 0.196515 0.538092
O 11.0272 0.64312 6.07081 0.402267 0.646892 -0.729975
O 2.86991 12.119 11.9441 1.654367 0.700004 2.480305
O 4.16039 4.85845 4.42124 0.533674 -0.307131 -0.677867
O 0.71598 10.5881 10.0058 0.255606 -0.170789 -0.220223
O 6.65093 10.5222 10.5322 0.642303 -0.541105 1.363245
O 9.07604 3.87651 8.84524 -0.804729 -0.378057 1.529981
O 11.5558 4.05879 0.03902 0.9412 1.400262 -0.059635
N 3.09361 9.07118 12.1412 2.745411 -1.092811 1.588123
N 10.2872 9.6998 11.8693 2.300466 2.036108 1.294644
N 5.60691 0.40136 1.0791 -1.123964 3.521301 -1.961373
N 1.60158 4.45446 3.06323 -0.846618 0.075961 0.052012
N 0.59248 11.0176 5.49015 0.448852 -1.260286 0.450381
N 0.90945 10.0767 5.99356 -0.51823 1.049531 -0.527139
N 4.02188 8.71781 0.27655 -2.88926 1.367925 -1.569974
N 9.54895 9.0326 11.4357 -2.303524 -2.082047 -1.269479
N 0.5292 4.70116 3.21182 0.834982 0.04528 -0.270887
N 5.85078 11.8869 1.59733 0.97797 -3.756298 2.102701
N 5.28694 2.61136 11.9825 0.005702 -0.570466 -0.94415
N 5.04154 3.28131 0.41654 -0.299375 0.876091 0.821784
N 3.67556 8.96419 5.99895 -0.037475 1.045661 0.165647
N 3.93143 7.90553 5.85939 0.343045 -0.997343 -0.024812
Na 4.72535 11.7795 10.0357 0.513409 0.223966 0.275953
191
energy=-1082.26568342 config_type=nep2xyz pbc="T T T" virial="-3.1336944876316473 -2.168646868952159 3.2876832191898524 -2.168646868952159 -4.793583531887025 -3.209498832301336 3.2876832191898524 -3.209498832301336 -8.897645032557243" Lattice="12.4 0.0 0.0 0.0 12.4 0.0 0.0 0.0 12.4" volume=1906.6240000000003 Properties=species:S:1:pos:R:3:force:R:3
H 6.28303 7.89552 4.06012 0.862666 -1.349 -0.19181
H 6.20971 4.15592 9.08437 -0.249119 -0.338667 0.026136
H 7.07859 6.56705 0.81895 1.749616 0.935606 1.299525
H 2.1685 9.25166 3.5356 -0.051423 -1.440467 -0.03703
H 1.29264 1.44812 4.69371 0.898963 0.21773 0.081115
H 10.7141 3.8812 5.5836 -0.07327 0.400411 -0.420407
H 11.1895 1.66906 6.16162 0.282666 -0.0445 -0.252392
H 7.25556 6.74899 3.36821 -1.106343 0.640576 0.839968
H 3.85348 4.58592 5.35559 0.859246 0.251192 -2.061606
H 7.32705 6.13564 7.26454 -0.030019 0.650045 0.830225
H 8.44246 1.67969 7.15255 -0.969182 0.965884 -0.202565
H 2.8595 1.4443 4.46712 -0.493328 0.679204 0.43269
H 7.15085 6.16436 5.72592 -0.529762 1.184809 -1.628691
H 2.73861 11.2628 2.6939 -0.459339 -0.177973 0.367383
H 6.37691 5.50438 0.21728 -0.377786 -0.459112 -0.496229
H 5.55545 7.57796 10.1891 -1.721387 -0.498578 -0.487521
H 8.33313 0.42715 0.05954 -0.091057 -0.974694 0.004979
H 10.3691 2.51727 1.6318 -1.360626 -1.11427 -0.965651
H 10.8285 0.00849 9.52699 -1.675461 1.034047 0.281702
H 9.67272 4.38949 7.77555 0.213417 0.23973 -0.681372
H 0.90203 3.05454 8.65858 0.07657 -0.456501 -0.345978
H 1.14944 7.77739 8.6215 0.398625 0.320707 0.28097
H 0.27428 9.73949 9.97319 0.200375 -0.177274 -0.094605
H 10.5385 1.97711 10.2721 0.604271 0.106578 0.026244
H 2.67242 7.77953 3.14273 0.267143 -0.030221 -0.414262
H 0.53347 0.16087 2.57499 -0.280189 1.003671 0.719651
H 4.07245 4.67758 7.5318 -0.109469 0.186691 -0.022065
H 4.2923 5.58352 8.87755 -0.118172 -0.216797 0.065032
H 8.79157 11.029 1.36705 -0.185885 -0.082501 0.892052
H 10.0959 1.1731 3.30906 0.041108 0.276134 0.21317
H 1.40396 11.3164 0.68422 1.023306 0.650877 -2.637312
H 11.4315 3.10842 4.34262 -0.457435 0.28299 0.934982
H 5.23569 5.10043 4.57732 -0.151308 0.130521 0.103835
H 9.43644 0.59682 6.92799 0.217898 -0.241344 0.075529
H 8.58482 4.571 12.0061 -1.431902 -0.215954 -0.201355
H 7.07993 11.048 10.9252 -0.203153 -0.512405 0.429794
H 9.7366 3.88548 3.04379 0.186947 0.324293 0.706704
H 9.44445 0.70544 9.05654 0.351213 -0.446467 0.347247
H 3.68313 6.29593 10.837 0.067917 -0.299276 0.630034
H 8.99295 11.3936 2.92584 -0.206523 -0.260709 -0.80524
H 10.0113 3.54657 9.0373 -0.529089 0.467457 0.203016
H 3.3828 6.20351 0.69894 -0.554741 -0.075984 -0.136095
H 3.01529 9.39328 8.34981 -0.450743 -1.030181 0.060633
H 3.16307 7.01068 9.61243 0.13289 0.416886 -0.596215
H 2.05649 7.15391 7.51157 -0.056544 1.043629 0.834568
H 2.93645 0.27401 6.34735 -1.513833 1.959168 -0.3212
H 0.3888 0.73701 8.47664 -0.386177 -0.715554 -0.311375
H 1.09976 6.46444 12.2598 2.927613 -0.44196 0.609401
H 10.2321 6.14889 6.01588 1.034809 2.274177 -0.026411
H 0.70217 8.41653 2.39072 -0.027677 -0.123789 -0.925277
H 8.77985 5.78555 2.27045 0.634714 -1.585204 1.140142
H 8.9311 5.28067 6.32276 -0.380234 0.436999 -0.32804
H 8.27281 11.3678 8.25559 0.123745 -0.861464 0.190598
H 12.1437 1.55304 2.75698 -0.592416 0.623934 -0.433812
H 9.13856 7.25939 1.96638 -0.482593 -0.486101 0.173159
H 2.24545 3.45131 10.4796 0.008801 0.419583 1.246893
H 0.03953 8.27514 0.85257 0.272501 -0.4516 0.49281
H 3.52988 11.4215 5.80575 0.196339 0.854099 1.259066
H 7.4185 3.94049 11.1113 -0.238777 -0.170026 -1.151424
H 3.28842 10.8484 8.0801 0.067884 1.364694 -1.439099
H 11.2299 3.7287 11.6888 -0.335137 -1.056507 0.27217
H 4.09127 0.98548 8.59132 -0.601071 0.254142 0.153946
H 9.66465 8.89403 8.04517 0.446041 -1.830195 0.119821
H 3.88401 5.80644 2.76359 0.232808 -0.741956 0.800842
H 11.6345 0.27437 6.95462 -0.612301 0.747529 -0.734965
H 1.76072 6.91117 5.11669 -0.179171 0.001645 0.667763
H 7.35548 7.07308 9.56993 -0.189943 0.134397 0.952102
H 4.30966 3.07501 3.85576 -0.155589 0.0432 -0.090734
H 3.94787 10.7115 3.41777 1.666381 -0.49658 -0.094483
H 2.69912 0.52376 0.27496 -0.240453 0.617405 -0.202797
H 11.4258 7.76692 9.37537 -0.95416 -0.027949 -0.503479
H 6.98268 2.70648 5.53714 -0.074951 0.108356 -0.5066
H 12.1256 5.87386 12.1016 0.104988 0.74226 0.088604
H 6.1992 10.2125 4.85914 -0.034448 -0.29855 -0.220758
H 7.93155 1.63029 3.99844 1.473841 -1.08451 0.408768
H 5.5449 11.9329 6.51167 -1.583459 0.952732 0.971811
H 2.59098 5.07498 12.3833 -0.201058 -1.123636 -0.098893
H 0.42986 6.97373 5.84767 -0.624466 0.083576 0.062067
H 0.75971 3.76831 12.1902 0.731622 -1.039533 0.464108
H 7.03885 11.4141 6.74737 -1.255408 0.02748 -0.707154
H 0.15714 3.05387 7.29212 -0.238859 -0.118919 -0.325775
H 4.66025 6.80969 1.87383 -0.317031 -0.165525 0.535658
H 10.1225 0.36153 4.68142 -0.266144 0.628416 -0.587175
H 8.33002 5.83212 9.25927 0.319809 -1.464687 0.734834
H 3.42544 1.75386 2.19667 -0.792871 -0.41364 -0.92178
H 6.83829 10.1431 3.4786 0.359164 -0.078511 -0.561613
H 11.1802 7.95723 6.55808 -0.029049 -1.215246 -0.733033
H 3.1174 1.99692 9.27899 -0.439694 -0.552648 -0.003762
H 1.96834 2.65003 0.2026 -0.599675 0.783561 0.132127
H 0.13367 7.59545 10.486 -0.297667 -0.111796 0.001215
H 0.58015 10.2942 1.51875 0.642632 1.010144 0.246148
H 11.7033 2.64949 9.4272 -0.478386 0.156879 0.361079
H 7.7683 10.1638 9.08496 -0.764441 -0.022688 0.84082
H 2.25836 3.43201 5.85013 -0.58395 -0.592161 -0.470076
H 9.38599 4.91013 4.31846 0.14217 -0.535958 -0.302177
H 6.31699 9.58531 10.7272 0.360541 0.173978 0.270684
H 0.29279 11.5384 8.78413 -0.090421 0.214778 0.273147
H 1.83468 4.97035 6.19351 -1.185468 1.1033 -0.618882
H 11.2563 3.67032 1.07771 0.256996 -0.068962 -1.155827
H 8.26062 2.8365 0.46333 -0.287712 -0.774125 0.335465
H 6.34977 1.62871 9.42871 0.063392 0.777097 0.105112
H 7.83309 3.06059 3.34897 -1.09169 -1.502128 1.434733
H 5.15273 1.81595 3.81516 0.656123 -0.321654 -0.257551
H 2.07226 0.16891 11.1702 -1.230741 0.987261 -0.927022
H 1.92918 1.2226 2.07989 0.213693 0.494382 -0.176832
H 6.23425 7.39545 11.5856 -0.041619 0.098782 -0.611347
H 11.0311 8.49841 2.72186 -0.390688 0.431734 -0.145954
H 3.04274 3.88981 9.03409 -1.303495 -0.455885 1.453554
H 1.61843 10.5573 9.7684 -0.249673 -0.464897 0.047411
H 9.25285 7.44669 8.45044 -1.013215 -0.538074 0.349063
H 11.021 8.04117 5.01511 0.350409 -1.147415 0.334431
H 7.98272 2.07127 1.7795 -0.811657 -0.181099 1.240038
H 6.99712 3.81114 6.65561 -0.143497 0.541893 -0.289194
H 9.14556 12.0697 11.4483 0.517017 -0.112 -0.691776
H 6.65123 0.61994 8.3326 0.342742 -0.000398 -0.233433
H 7.68332 3.58417 8.94092 -0.512515 0.153205 0.542675
H 9.6583 9.30085 2.9233 0.432262 -0.178894 0.036239
O 8.44097 1.98975 0.957 0.707126 0.505446 -1.799654
O 9.53906 0.65632 3.9291 0.187149 -0.824138 0.318401
O 8.0041 6.66663 8.97533 -0.454049 0.859977 -1.348328
O 7.40551 3.00131 6.34807 0.486499 -0.998973 0.694395
O 6.26409 11.4813 6.12805 2.637336 -1.242314 -0.540769
O 6.27406 7.90103 10.71 1.597012 0.303008 0.804365
O 2.24902 3.41821 9.52137 1.399821 0.657996 -2.711434
O 2.43508 4.25195 6.32826 2.17723 -0.776712 0.933457
O 9.05747 4.50083 3.4861 -0.065278 -0.291929 -0.912907
O 6.12901 0.74149 9.12938 -0.307915 -0.381346 -0.08855
O 11.1162 2.79003 10.2274 -0.603274 -0.053304 -0.235481
O 6.21277 6.42761 0.46367 -1.59222 -0.273564 -0.428312
O 3.26689 1.02903 9.12438 0.73442 0.129264 -0.500957
O 9.95425 0.43755 9.87146 1.18998 -0.698098 -0.803219
O 0.51569 1.04831 3.07033 0.63691 -1.832195 -0.649156
O 4.47227 4.71248 8.41247 0.124317 -0.587513 -0.061782
O 1.899 8.26827 3.46766 -0.068826 1.560439 0.369073
O 9.98998 7.92591 8.06169 0.957134 3.054365 -0.524286
O 0.25336 6.71454 11.981 -3.088344 -0.168429 -0.594505
O 10.8795 2.72522 2.39006 0.903915 0.893735 1.226146
O 10.1999 8.53704 3.25232 -0.114441 -0.236411 0.031174
O 9.86787 5.28901 6.03461 -1.031345 -2.849974 0.230694
O 4.27843 2.12457 3.57179 -0.089251 0.179237 -0.017593
O 3.99159 6.62103 9.96726 -0.236069 0.347525 -0.402745
O 6.86471 3.5724 9.51939 0.558354 -0.104184 -0.508179
O 12.2689 8.09908 9.67923 0.853146 0.013188 0.496807
O 8.46819 11.8905 12.1067 -0.589393 1.300509 0.68025
O 8.47605 6.54493 1.79599 -0.003495 2.123064 -0.858257
O 8.16434 10.3858 8.25018 0.842414 0.985875 -1.092788
O 1.35123 6.66753 5.97833 1.178192 -0.425032 -0.9007
O 11.4204 3.2704 5.32065 0.781875 -0.848734 -0.401828
O 7.26132 5.60087 6.47471 0.226024 -1.192449 0.927749
O 3.04506 10.9299 3.56556 -1.133558 0.288906 -0.19004
O 3.76595 6.59693 2.2398 0.731346 0.861462 -0.745195
O 0.023 8.73908 1.7105 -0.083783 0.25603 0.328799
O 6.22558 9.65601 4.03838 -0.443981 0.402155 0.735345
O 7.28703 2.22588 3.64634 -0.327194 2.728467 -1.524242
O 2.90391 5.97465 12.2611 0.266681 0.483068 0.084087
O 2.09667 7.74848 8.33018 -0.084925 -1.233982 -0.949826
O 2.72524 1.43607 1.51672 0.289882 0.367806 1.359306
O 3.13801 10.2382 8.78067 0.266209 0.111553 1.612741
O 11.3601 7.40777 5.73105 -1.137971 2.676577 0.093666
O 1.7176 3.45831 12.0851 -0.176822 0.295556 0.010954
O 6.53296 6.90283 4.05408 0.47851 0.603555 -0.521698
O 12.2885 12.3023 8.28892 0.348022 0.549405 0.515762
O 2.15577 1.73107 5.10345 -0.456289 -0.665886 -0.004611
O 7.63817 4.25093 11.9991 1.831584 0.522749 1.223269
O 0.16707 2.5915 8.14096 0.927057 0.662742 0.348658
O 8.59983 0.77459 7.43411 0.791661 -0.750367 0.249458
O 8.68486 10.6834 2.29806 0.345781 0.595141 0.159773
O 3.57917 12.0426 6.59741 1.297646 -2.716662 -1.052121
O 1.09847 11.1777 1.54531 -1.558871 -1.441008 2.497142
O 11.0607 0.70225 6.22149 -0.202211 -0.864023 0.487235
O 2.63474 12.3497 11.878 1.760665 -1.932227 0.669156
O 4.39303 4.63316 4.44925 -0.974128 -0.043255 1.672718
O 0.68915 10.6178 10.0897 0.360084 0.46763 -0.107597
O 6.30692 10.5602 10.5762 -0.099818 0.398621 -0.387442
O 9.28034 4.06088 8.58602 0.512096 -0.502956 0.746271
O 11.4445 4.11255 0.15861 0.670956 1.324965 0.714125
N 3.45874 8.6281 12.03 0.710175 1.506568 2.50804
N 10.1147 9.7552 12.0215 1.909272 2.055291 1.318789
N 5.57014 12.39732 0.84329 -0.780637 3.767415 -2.325437
N 1.36441 4.2576 3.00105 -1.585074 1.422953 -0.458936
N 0.75877 10.7816 5.43617 -0.191213 -0.593532 1.202463
N 0.68519 10.3173 6.44574 0.048199 0.438835 -1.272528
N 3.76791 9.08739 0.60831 -0.783765 -1.129337 -2.461336
N 9.52088 8.97777 11.5489 -1.744762 -2.306923 -1.387573
N 0.52142 4.95963 2.77741 1.663872 -1.307444 0.47445
N 5.76826 11.4914 1.39418 0.767179 -3.798975 2.381113
N 4.81628 2.50483 11.6877 0.142634 -0.267266 -0.590752
N 4.58661 2.97906 0.25397 0.073242 0.488782 0.464792
N 3.48862 8.9941 5.93219 0.805096 -1.410977 -0.193276
N 3.88035 7.95875 5.80946 -0.336223 1.440219 0.193398
Na 4.52656 11.9032 10.1217 -0.098716 -0.495112 0.542444
191
energy=-1082.2284701 config_type=nep2xyz pbc="T T T" virial="-10.240107846087461 3.9117183887555926 -3.881801258064918 3.9117183887555926 -5.28278930975613 -2.1480119029149156 -3.881801258064918 -2.1480119029149156 -17.671849175434946" Lattice="12.4 0.0 0.0 0.0 12.4 0.0 0.0 0.0 12.4" volume=1906.6240000000003 Properties=species:S:1:pos:R:3:force:R:3
H 7.1404 8.43884 4.76839 -0.45865 -0.738714 -1.090547
H 9.17728 1.78641 7.47002 0.166583 0.543405 -0.381227
H 7.17168 6.37735 0.5056 -0.847434 0.017423 -0.022698
H 2.72652 8.93503 3.81767 0.319177 0.247588 -0.000645
H 3.037 3.71587 5.03018 -1.270197 -0.625125 -1.318488
H 10.7198 3.01898 5.81804 -0.870803 2.476313 -0.368634
H 11.6192 2.26913 6.8691 -0.020083 0.056174 0.044415
H 7.47512 7.67472 3.40126 0.518789 -0.039472 0.021284
H 4.14729 5.67028 4.58303 -0.131137 -0.010891 -0.480926
H 7.62079 5.78929 6.88538 -0.50654 0.623024 -0.733212
H 6.22957 1.4592 5.99697 -0.13305 -0.4124 0.487241
H 3.26688 2.81092 3.80186 1.743162 -1.144226 -1.383091
H 7.06351 6.25646 5.32395 0.792568 -0.817574 1.413577
H 4.16622 10.4854 4.65689 -1.053342 0.725125 -0.055047
H 7.31169 5.16849 12.0744 -0.019008 -0.725282 -0.330519
H 5.86819 6.12777 9.50532 -0.879819 -0.689541 -0.969939
H 7.78332 11.659 11.7023 -1.005061 -0.641492 -0.3522
H 0.07355 12.3588 1.51368 0.26969 0.222331 -0.238746
H 0.51012 10.9349 0.0797 0.466898 0.143904 -0.213685
H 0.1004 4.40715 8.18209 0.285681 -0.416439 -0.314595
H 0.39002 2.11872 9.10137 -0.937674 0.207035 -0.784638
H 1.29635 8.61245 8.97415 0.933487 0.298456 0.305247
H 12.1313 10.1748 10.1878 0.267493 0.235376 -0.363052
H 10.4911 2.04823 0.9355 -0.387519 0.152345 -0.038437
H 3.14825 7.4175 3.60504 -0.202394 0.210394 -0.139926
H 1.15402 2.15004 4.01268 0.768391 0.538148 0.286065
H 5.63377 4.295 8.70791 -0.129267 -0.33683 0.279973
H 4.24433 5.1133 9.03918 0.128766 -0.16411 0.183877
H 10.6369 12.1351 2.22545 0.023749 -0.338864 0.082913
H 9.63939 0.91078 5.13511 0.217229 0.136235 0.32286
H 3.30544 12.3409 1.13862 0.530075 0.694227 0.926002
H 12.1537 1.87226 4.67513 0.583424 -0.448856 -0.15502
H 5.28814 6.47463 3.90636 -1.021855 0.005592 -0.307687
H 7.28955 0.83436 7.02097 -0.225442 -0.186396 0.061366
H 8.8019 3.55561 11.9039 -0.292768 -0.781188 0.077506
H 3.97458 8.70951 9.59606 -1.229432 -0.178335 -0.488463
H 8.65297 4.19623 2.55619 0.702025 0.234274 0.801566
H 0.94637 10.0946 1.23735 0.151683 -0.320964 0.161257
H 2.35458 5.92829 10.5162 0.121313 -0.177935 -0.332945
H 9.40643 11.9687 3.1563 0.62589 -0.575678 -0.935173
H 11.6433 5.33874 7.21053 0.514013 -0.493169 1.1797
H 2.64267 5.28961 0.58026 0.658117 -0.050495 0.233556
H 2.576 10.5796 8.40931 -0.840314 0.389733 0.12249
H 2.5006 6.68276 9.13601 -0.172493 0.624494 0.000982
H 2.13272 8.31236 7.69264 0.254831 0.412489 0.920174
H 1.30678 0.15874 5.50177 -0.576071 0.494539 -0.581174
H 10.8168 11.836 9.71681 -0.042926 -0.498388 0.067409
H 0.64228 6.47157 0.16058 0.388518 -0.281897 0.039615
H 10.2735 5.80701 5.38401 -0.060459 -1.095496 0.264529
H 0.90674 8.68909 2.64699 -0.440488 -0.422327 -1.236291
H 9.16541 6.56871 2.43348 -0.372616 -0.037913 -0.003485
H 8.95329 5.0519 5.61535 0.086361 -0.283627 -0.374138
H 8.62156 10.9388 8.66848 -0.995714 -1.834163 -0.859469
H 0.0065 0.93761 2.69586 0.101669 0.408606 0.950227
H 9.5454 8.05427 2.89272 -1.335232 -0.763167 -0.412037
H 5.70704 1.72491 9.48082 0.985817 1.383897 0.671289
H 0.08269 8.0956 1.31239 0.344388 0.032663 -0.078359
H 2.51606 11.649 5.1429 0.129612 -0.164304 0.347096
H 9.27331 4.08755 9.83085 0.699636 -0.328399 -0.282742
H 1.85768 11.5641 7.41494 0.615819 0.092201 0.392447
H 9.84298 4.72815 11.9964 1.011401 1.632341 0.583581
H 3.39975 2.78487 7.19576 0.901611 1.263661 -0.337713
H 9.65753 9.038 8.26685 -0.018191 -1.04054 0.273409
H 4.5287 5.53095 2.005 0.007284 0.079334 0.230982
H 9.20833 0.67516 8.48568 -0.474343 -0.460084 0.133998
H 1.77872 7.55291 5.47746 0.786724 0.522208 -1.979118
H 7.73167 6.36614 9.03609 -0.77093 -0.168517 1.082397
H 4.60176 3.50618 1.63816 -0.046276 0.490788 -0.232676
H 3.46578 11.2803 3.4775 0.236927 0.580931 -0.904639
H 3.77799 10.8479 10.9773 -0.305433 0.029019 0.314881
H 11.6632 8.23758 9.38375 0.076672 0.273447 0.658242
H 5.57369 2.94602 4.23398 0.141319 0.18404 0.110153
H 11.463 6.45146 0.21081 1.140022 0.577364 -0.151996
H 8.05 10.117 6.41301 0.06765 -0.025045 1.403252
H 7.89807 2.07666 3.65563 0.216202 -0.132965 -0.062541
H 6.12872 10.7915 5.72062 -0.074546 -0.342702 0.009903
H 1.44319 4.43828 0.20591 -1.165552 -2.158912 0.318303
H 0.54735 7.38443 6.35894 1.746447 -0.194255 0.021073
H 0.29896 0.4085 10.7078 -0.557744 -1.012591 0.102202
H 5.32306 11.8235 6.38449 -0.004442 0.493713 0.18953
H 1.25082 2.24417 7.90625 -0.108992 0.540417 -0.856804
H 4.95196 5.41823 0.45349 0.041105 -0.391648 1.108772
H 8.3286 0.06966 5.19733 0.275048 0.217695 -0.234193
H 8.6232 5.10755 8.34157 -0.073653 1.431806 1.080887
H 0.12361 2.30352 1.03884 0.668215 -0.296529 -0.767548
H 8.92491 9.66824 5.2188 0.391961 -0.049439 -0.088407
H 11.0775 7.80929 6.72776 -0.389935 -0.59986 -0.456988
H 2.70091 1.56753 6.60356 0.016979 -1.130799 -1.161337
H 0.67266 1.77957 11.5109 -0.024177 -1.028642 -1.74731
H 0.1379 7.94295 10.7186 -0.466887 0.151199 0.067423
H 4.10558 1.06263 1.91458 1.512914 2.093057 -0.588696
H 9.39696 1.40104 0.18901 -0.977664 -2.157523 -1.246031
H 7.25787 10.1643 8.78297 0.282709 -0.113137 -0.231386
H 3.90558 4.93627 7.03904 -0.63061 0.406774 -0.740588
H 9.86666 4.89033 3.44628 -0.959528 -0.672203 0.10523
H 5.38 8.40715 10.0452 0.159382 -0.093118 -0.051589
H 9.42116 12.1313 10.4488 -0.13098 -0.269717 0.525088
H 2.62707 5.67806 6.3749 -0.277106 0.39493 0.372393
H 10.3161 4.83549 1.16415 0.396326 1.205254 -1.46362
H 7.46916 3.43962 10.1648 -0.392973 -0.515589 -0.688166
H 6.02727 11.9611 10.2041 -0.033409 -0.153532 -0.011289
H 8.48194 2.14327 2.21125 -0.141706 0.052131 -0.100735
H 5.83178 2.61487 1.90329 0.267818 -0.10644 0.135684
H 2.56328 11.1068 11.9733 0.486391 0.251176 -0.39781
H 11.8862 3.53717 0.47468 0.866693 -0.083257 -1.436126
H 6.36958 6.28342 10.9597 0.052727 0.088943 0.515433
H 11.2015 9.04748 3.31946 -0.066851 0.128723 0.130979
H 5.59124 0.76752 8.34179 -0.700491 0.087865 0.706269
H 0.38065 11.2205 9.1854 0.753121 -0.218445 0.082606
H 9.73887 7.4381 8.33439 -1.061622 -0.671305 0.187542
H 11.188 7.86531 5.15821 -0.12009 -0.200813 0.464972
H 7.67201 2.57841 8.84587 -0.255841 0.124258 0.406114
H 6.12617 3.61544 5.55731 0.445946 0.864702 -0.079757
H 9.14574 11.2615 0.0504 -0.698819 0.427031 -0.260707
H 5.84935 10.518 10.7682 -0.332135 -0.261535 -0.188665
H 10.4513 4.02804 8.6354 -0.375516 0.440817 0.595418
H 9.99967 10.0083 3.34006 1.168827 -1.257249 1.114019
O 6.96938 2.94622 9.42807 0.431509 0.739696 0.543553
O 8.8553 0.66627 4.62704 -0.453764 -0.427078 -0.059802
O 8.37312 6.10858 8.37515 1.304435 -1.133418 -2.056156
O 5.62785 2.88045 5.20256 -0.444662 -0.757555 -0.192239
O 5.23751 10.9124 6.08255 -0.05787 -1.042269 -0.686697
O 6.3347 6.71333 10.0882 0.677172 1.461238 -0.053135
O 5.19539 0.9616 9.24543 -0.342683 -1.725986 -1.446415
O 3.23216 4.93222 6.29247 1.222036 -0.60557 0.259997
O 9.38131 4.87145 2.59105 0.118262 -0.151377 -0.465061
O 6.51092 11.1847 10.5675 0.326806 0.618596 -0.028221
O 9.57239 2.19716 0.63803 1.037279 1.41162 1.435792
O 6.57129 5.74692 0.0471 1.978991 0.379592 0.298156
O 2.77266 2.11338 7.37319 -0.716607 -0.681617 1.598252
O 1.24987 10.8967 0.71443 -0.846333 0.527485 -0.473274
O 0.47614 1.47071 4.11282 -1.172296 -0.137277 0.450373
O 5.03524 5.02008 8.45801 -0.349277 0.093681 -0.498041
O 2.38778 8.04702 3.61011 -0.172051 -0.315926 0.37452
O 10.2576 8.24697 8.32538 0.857745 1.304185 -0.549619
O 12.2997 7.1002 0.16783 -1.433587 -0.35034 -0.219401
O 11.9841 0.74755 1.82972 -0.13154 -0.648466 -0.764798
O 10.3975 9.17836 3.88144 -0.302661 1.495454 -1.853305
O 9.90352 4.87881 5.34197 0.141274 1.21351 0.052911
O 4.87026 2.63582 1.99031 0.271762 -0.633007 0.621317
O 2.72133 5.87702 9.61096 0.222312 -0.634531 0.426779
O 9.53735 3.77989 8.89631 -0.293581 -0.06738 -0.247371
O 12.36589 8.59121 10.0008 -0.291584 -0.783765 -0.356661
O 8.67395 11.9353 11.9205 1.67069 0.712612 0.927588
O 8.80628 7.48028 2.49327 1.264088 0.77715 0.080231
O 8.06982 10.1563 8.2335 1.240284 2.042557 1.105445
O 1.57698 7.43763 6.38776 -2.057547 -0.58126 1.504749
O 11.0504 2.18731 6.06458 0.594843 -2.307824 0.18205
O 7.35101 5.5055 5.95618 -0.279714 0.347792 -0.783226
O 3.28591 10.6605 4.18829 0.896584 -1.046876 0.568493
O 4.40611 5.02693 1.18386 -0.844666 0.408417 -0.880154
O 0.27431 8.90436 1.90076 0.092194 0.015038 1.819044
O 8.05906 10.0028 5.46379 -0.463729 -0.031119 -0.960023
O 7.81261 2.53675 2.80492 -0.141927 0.255584 -0.215836
O 1.86929 5.23918 0.0038 0.709731 2.164393 -0.726201
O 2.24104 8.66631 8.63831 -0.628447 -0.854566 -1.094276
O 0.22484 2.88454 0.23671 -1.347996 0.791635 2.059387
O 2.04893 11.4195 8.385 0.159464 -0.420263 -0.561035
O 11.3179 7.25652 5.92124 -0.164775 1.235664 0.425833
O 0.85431 1.17818 10.6858 0.564864 2.315931 1.079607
O 6.81017 7.7372 4.12522 -0.351058 0.354638 1.443965
O 9.84388 11.9535 9.58826 -0.459428 0.591946 -1.129707
O 2.57665 3.24631 4.23997 -0.664683 1.719612 2.42827
O 8.60089 4.30038 11.3303 -0.275747 0.370966 -0.16186
O 0.30227 2.40822 8.1373 0.747972 -0.549412 1.776987
O 6.39708 0.68998 6.60904 0.103752 1.025343 -0.294942
O 9.93621 11.4738 2.44924 -1.059373 0.738167 1.190414
O 2.10864 12.1962 5.8718 0.144848 0.076155 0.351162
O 3.53971 0.33475 2.01665 -2.394913 -3.098153 -0.140527
O 8.59822 1.10798 7.82492 0.746059 0.082024 0.394179
O 3.28215 11.5481 11.4413 -0.182794 -0.357127 -0.079308
O 4.39017 6.06733 3.71221 1.257027 0.433984 0.972958
O 12.227 11.145 9.98152 -0.393669 0.268781 0.508981
O 4.76914 9.15026 9.87213 0.919095 0.274545 0.725142
O 11.8857 5.14698 8.15555 -0.824368 0.833205 -1.01803
O 10.6378 5.17156 0.24286 -1.412596 -2.275381 0.766436
N 4.5904 9.04665 0.62189 1.147986 0.572819 0.204027
N 9.22456 8.24038 11.6242 0.96021 2.131949 0.632099
N 6.54293 10.875 3.05818 0.276416 -0.503872 0.705111
N 12.2899 5.6217 3.16577 0.082909 0.006136 0.144686
N 11.1112 10.8437 6.28188 -3.050185 1.491293 -1.895844
N 11.9651 10.4647 6.82938 2.989808 -1.415402 1.897358
N 5.57962 9.54915 0.71515 -1.219363 -0.954623 -0.391612
N 9.68018 9.21996 11.9209 -0.912498 -2.285051 -0.627084
N 0.25862 5.63253 4.20851 0.151296 -0.187957 -0.31412
N 6.17015 11.6012 2.32179 -0.027795 0.863589 -0.513533
N 3.70339 2.58454 11.342 0.244123 0.422722 -0.190233
N 4.27097 3.49763 11.0776 -0.216944 -0.372115 0.199245
N 4.82575 7.56253 6.49524 -0.017312 0.186233 0.11227
N 5.39503 8.16867 7.22414 0.109147 -0.153812 -0.159938
Na 2.83983 0.68495 9.60776 0.31801 -0.075135 0.238592
191
energy=-1082.58060304 config_type=nep2xyz pbc="T T T" virial="-16.16496114521696 -6.710172029654151 -6.47078738328438 -6.710172029654151 -2.521333425149261 1.245749797968123 -6.47078738328438 1.245749797968123 3.1752024239280168" Lattice="12.4 0.0 0.0 0.0 12.4 0.0 0.0 0.0 12.4" volume=1906.6240000000003 Properties=species:S:1:pos:R:3:force:R:3
H 6.98302 8.18445 4.78225 0.918761 2.536648 1.432242
H 9.24392 2.88137 8.7558 -0.75327 -0.337893 -0.424499
H 7.26814 6.43039 0.93055 -0.664714 0.247101 -0.806738
H 3.40237 9.5686 4.21014 -0.440049 -0.525548 -0.723688
H 2.63656 3.47592 4.78559 -0.110401 -1.897865 -1.270039
H 10.6856 2.94502 6.24803 0.335277 0.243111 -0.361424
H 10.1551 1.75006 7.02158 0.680971 0.562822 -0.903022
H 7.31998 7.20525 3.69351 0.35901 0.123217 -1.221607
H 3.85988 5.70799 4.48413 -0.731438 -0.554657 0.909336
H 7.64046 5.41661 6.4928 -0.686258 0.159223 2.939661
H 6.85608 1.98238 6.10874 -0.132546 -0.196193 -0.59361
H 3.32501 2.37777 3.81349 1.625553 -0.190599 -0.733637
H 7.59373 6.05836 5.17977 0.049205 0.463141 -0.405771
H 4.34956 11.6332 4.83122 -0.698357 -0.314757 -0.356619
H 7.28402 5.38569 12.1871 -0.152827 0.067602 0.33821
H 4.67312 6.25178 10.1848 0.471315 0.795399 0.438616
H 8.00585 11.6146 10.8173 1.135215 0.067 0.355309
H 0.07952 0.5874 0.91261 -0.269167 -0.051106 -0.104979
H 0.78049 10.995 12.1936 -0.326637 -0.28005 0.064099
H 12.0602 5.26291 9.11533 -0.626531 0.837915 0.073279
H 0.02999 3.40186 10.6695 -0.021116 0.309543 1.543756
H 1.14009 7.82533 9.49412 -0.902533 -0.090769 0.606847
H 12.1245 9.83584 10.2439 0.006224 -0.571828 0.197083
H 9.9833 1.72991 0.45234 -2.061678 -1.16386 -0.670152
H 3.45792 7.94318 3.82765 -0.744908 0.915393 0.224847
H 0.85556 2.16309 3.67288 -0.009596 -0.124136 0.522263
H 3.77921 3.62163 7.98223 -0.315447 -0.509578 0.185911
H 2.43173 4.01772 8.63626 0.459501 -0.561219 -0.731132
H 10.681 12.1671 2.31232 -0.00293 0.081783 -0.25632
H 9.85067 1.36627 5.06167 -0.274464 0.171033 -0.281183
H 4.55887 0.44178 1.21861 0.384969 -0.647736 -0.740407
H 12.0901 1.30555 4.39974 0.386287 0.797983 -0.263442
H 5.08283 6.64022 4.25453 -0.874199 -0.089169 -0.51535
H 7.76361 1.37907 7.12244 0.391479 -0.455987 0.496711
H 8.82916 3.55902 12.281 -0.228962 -1.718982 0.5548
H 4.38911 9.71818 9.69523 -0.72316 0.306454 -0.42879
H 9.49055 3.28284 2.98876 0.712931 0.409187 0.203924
H 0.89185 10.5891 1.32177 0.237262 0.329838 -0.59502
H 2.81437 5.53589 10.588 0.360316 -0.3594 -0.100813
H 9.84482 12.0842 3.62985 -0.029503 -0.144916 -0.496703
H 11.326 5.71241 7.90182 -0.68872 0.171791 0.01785
H 3.39828 4.78671 0.57209 -0.118714 -0.125549 -0.206526
H 2.40361 9.9602 8.54638 -0.058527 -0.004729 -0.002091
H 2.98631 6.57683 9.448 -0.434305 -0.124091 -0.118761
H 1.74576 7.67984 8.04367 0.123857 0.680713 0.525503
H 2.10969 1.10614 5.84305 0.132976 0.477298 -0.204464
H 11.501 11.9375 9.33033 -1.148063 0.307593 -0.111632
H 11.8892 8.47021 1.44485 0.086954 -0.381116 0.097171
H 11.0664 5.57568 5.77485 0.024701 -0.27752 0.040782
H 1.10811 9.11742 3.39137 -0.237723 -0.552746 -0.748522
H 9.08785 7.09637 1.97253 -1.029819 -0.276018 -0.261324
H 9.61053 5.14419 6.16343 2.036741 -0.204931 0.456102
H 9.44278 10.9792 8.06434 0.123902 0.169752 0.208449
H 11.9024 1.38374 2.11136 0.113021 0.139912 -0.221475
H 8.24203 8.36117 1.84574 -0.047896 0.459328 -0.452713
H 5.1626 1.52644 8.34687 0.003776 -0.612769 -0.039584
H 12.2081 9.87932 3.4486 -0.187881 -0.380359 -0.655786
H 2.62609 12.0782 5.62899 -0.76611 0.993931 0.462802
H 9.00151 4.35001 10.8719 -0.759708 -0.24981 0.336821
H 2.66053 11.2019 7.64959 -0.154405 0.328899 0.105946
H 9.75163 5.21613 0.59775 -0.069206 -0.026874 0.491077
H 1.80108 1.85964 8.31133 -0.045269 0.000783 0.211097
H 9.66267 8.82472 7.31829 -0.670691 1.510817 0.464417
H 4.68664 5.68118 2.49593 -0.421367 0.506146 0.655276
H 9.56625 1.34868 8.68969 -0.150363 -0.103102 -0.096803
H 2.27599 8.41993 5.40348 -0.468146 -0.603068 0.894718
H 6.61464 5.91134 8.81422 -0.257707 0.835878 0.835043
H 5.16598 3.37031 2.59826 -0.974214 2.869304 -1.820029
H 3.81044 12.0938 3.40571 -0.689244 -0.523301 0.676703
H 4.76254 10.8922 11.823 -0.617483 -0.067832 0.055625
H 11.6954 7.03238 10.4177 -0.95931 -2.013402 -1.151586
H 6.06697 3.16491 4.59003 -0.582196 -0.260115 -0.932848
H 11.007 7.11919 1.01 0.751071 1.799303 -0.289088
H 8.29106 10.214 6.04238 -0.71441 -0.525389 -0.309956
H 8.2875 1.7116 3.28472 0.639817 -0.555256 0.725704
H 5.95099 10.8008 6.0721 1.34997 -1.609864 -0.103951
H 1.8196 4.45347 0.30351 2.231992 -0.107785 -1.254973
H 0.89041 7.82065 5.84985 0.331052 0.260083 0.449086
H 3.29613 1.46382 12.3213 0.103902 0.516464 -0.155695
H 5.9539 12.3374 5.97162 -0.133169 -0.793683 0.68143
H 0.23996 2.65656 9.40395 0.031913 -0.063618 -0.544427
H 5.45763 5.4403 1.12952 0.030726 -0.341235 0.31965
H 8.37444 0.98819 5.16291 -0.314811 -0.329026 0.178573
H 7.98049 4.96271 9.10348 -0.264787 0.134796 -0.534691
H 12.3208 3.12352 0.66171 -0.062884 -0.734234 0.205761
H 7.66416 10.4095 4.576 0.05929 -0.567257 0.919013
H 10.8732 7.6893 6.00658 1.501116 -0.310823 -0.578694
H 1.07809 0.62183 7.88771 -0.050705 -0.398285 -0.258735
H 3.22546 2.91276 11.7454 -0.306604 0.673908 0.277414
H 11.7123 7.98051 11.6523 0.484378 0.011849 -0.718794
H 4.75213 1.49861 2.38292 -0.017746 -0.006502 -0.324276
H 8.83886 0.77252 12.0613 0.727485 0.025675 0.253053
H 8.033 10.2819 8.23164 0.699302 0.355158 0.059115
H 2.61437 4.74193 6.82893 0.175525 -0.537497 -0.020844
H 11.0651 3.16605 3.2205 -0.369992 0.218414 0.420686
H 5.03592 8.4336 10.3241 0.737723 0.240416 0.117233
H 10.0468 11.972 9.88396 -0.009734 -0.068203 0.442271
H 2.32181 6.08675 6.06685 0.121083 0.041109 -0.134315
H 10.3903 5.0088 2.1116 -0.193741 -0.534108 0.32697
H 5.54052 3.50123 7.13188 -0.070043 -0.79827 0.228495
H 6.39451 12.0179 9.18947 1.197852 -1.321089 0.633771
H 8.18015 1.79107 1.71537 0.423925 -0.054249 -0.814452
H 6.54516 2.57231 2.79424 -0.776634 -0.00151 -0.009308
H 3.30326 11.1431 0.06628 0.762526 0.132036 -0.108845
H 11.8481 4.58065 0.64471 -0.792381 0.811083 0.31869
H 5.69254 6.61176 11.3724 0.218657 0.380479 -0.312845
H 9.99764 9.23197 1.07115 1.972817 -1.602772 -0.59972
H 4.92238 0.00022 7.81216 0.046352 0.610558 0.073997
H 0.99456 10.6655 10.1204 2.033575 -0.07569 -1.289101
H 10.3317 7.60973 7.90366 0.891208 -0.805113 1.55382
H 11.4399 7.95529 4.53836 0.619735 -0.507796 0.44388
H 6.09284 3.92804 8.45601 -0.367756 -0.643149 -0.034368
H 7.02882 3.97063 5.52522 0.38516 0.190503 -0.19801
H 8.8553 11.0589 12.0474 0.374846 0.167257 -0.109793
H 6.23275 10.5295 9.68991 1.137132 0.309133 0.216924
H 10.0273 4.53161 9.60484 -0.163059 0.249306 -0.577247
H 9.55629 10.468 1.89374 0.023329 -0.093606 -0.274317
O 5.45289 3.22453 8.07813 0.549661 1.408978 -0.496511
O 9.10223 0.96602 4.48966 0.650176 -0.151512 0.355614
O 7.18415 5.23316 8.4773 0.471505 -1.101188 -0.611786
O 6.38121 3.24222 5.49963 -0.193082 0.699644 0.875734
O 5.37218 11.533 6.13243 -0.868942 2.60936 -0.222811
O 5.34301 6.94374 10.5053 -0.417291 -1.056891 -0.327198
O 4.92269 0.58931 8.59829 0.246416 -0.007904 -0.09351
O 2.73943 5.20756 5.97686 -0.112967 0.551342 -0.70684
O 10.3099 3.79549 3.23335 -0.519396 -0.456924 -0.538619
O 6.97019 11.2186 9.51881 -2.245134 0.980216 -0.663302
O 8.99279 1.5578 0.25952 1.556888 1.226647 0.778616
O 6.67168 6.05551 0.21587 0.743474 -0.433126 0.361124
O 1.22928 1.1476 8.6793 0.379267 0.827804 0.329906
O 1.18508 11.2421 0.64708 0.004627 -0.000392 0.445665
O 12.2967 1.94345 3.68263 -0.14477 -0.593637 -0.204272
O 2.7959 3.50099 7.86201 -0.393909 0.590532 1.425665
O 2.87191 8.76653 3.95389 1.038237 -0.02627 0.16535
O 9.8245 7.90126 7.17363 -0.113316 -1.112563 -2.010397
O 11.3142 8.10128 0.74489 -0.900667 -1.947786 0.841489
O 11.7333 1.17786 1.15328 0.389139 -0.010614 0.445166
O 9.30826 9.85157 1.15602 -2.460165 1.785632 0.553112
O 10.6102 4.99318 6.4129 -1.568264 0.342846 -0.602807
O 5.54123 2.6793 3.07882 1.890739 -2.323141 1.681748
O 3.23286 5.66141 9.7048 -0.354226 0.099305 0.276907
O 9.12237 4.18797 9.68091 0.891642 -0.118676 -0.904257
O 11.9881 7.86734 10.6853 0.798344 2.483491 1.312809
O 8.86112 11.7697 11.3657 -1.52239 -0.747862 -0.718893
O 8.13855 7.39905 1.93859 1.328762 -0.310369 0.973703
O 8.88848 10.2519 7.73513 -0.667485 0.151646 -0.316653
O 1.79691 8.03767 6.21812 -0.210032 -0.171554 -0.949253
O 10.7517 1.97204 6.21527 -0.512524 -0.429457 0.652093
O 8.05302 5.35153 5.6595 0.402237 -0.514494 -1.643575
O 3.54685 11.5594 4.22081 1.344884 0.499518 -0.410187
O 4.83185 5.03984 1.7997 0.172895 -0.876106 -1.495123
O 0.21852 9.14358 2.94168 0.556583 1.094594 1.104991
O 7.62759 9.83922 5.38273 0.475996 1.079472 -0.560722
O 7.97663 2.2571 2.54849 -0.696087 0.927866 -0.050375
O 2.78084 4.49268 12.2589 -2.010888 0.22496 1.372093
O 1.9226 7.99439 8.9696 0.888646 -0.005082 -1.111626
O 0.20881 4.02331 0.49675 0.726961 -0.197223 -0.466475
O 2.5749 10.9239 8.57328 0.160028 -0.721262 0.329282
O 11.7128 7.50123 5.36785 -2.285684 0.711058 0.223281
O 3.27373 1.97819 11.4924 -0.032124 -1.138403 0.144495
O 6.68843 7.40207 4.38639 -1.138394 -2.575669 -0.526684
O 10.5701 12.2138 9.09924 0.722024 -0.351391 -0.023501
O 2.52702 2.60028 4.2447 -1.753426 2.211462 2.217791
O 8.69424 4.43225 11.9618 0.489183 1.994479 0.614184
O 0.09216 3.557 9.74162 0.118231 -0.126671 -1.014517
O 7.25187 1.0889 6.34117 -0.110312 0.099648 0.166896
O 10.2562 11.5294 2.90515 0.069406 0.262691 0.777711
O 2.15768 0.26618 6.30827 0.565053 -1.352511 -0.765238
O 4.10635 0.90745 1.91216 -0.613176 0.089809 1.097624
O 9.09121 2.03137 8.17052 0.446401 0.196132 1.145647
O 4.13944 11.5694 12.1542 -0.498999 -0.164255 -0.215677
O 4.18604 6.37292 3.88167 1.711141 1.35936 0.275779
O 0.1472 10.6681 10.4968 -1.84645 0.549681 0.959223
O 5.13993 9.44773 10.2141 -0.126571 -0.216399 0.347269
O 11.4929 6.0383 8.82011 1.167502 -1.561761 -0.251005
O 10.3491 5.60963 1.33435 0.052988 0.805443 -1.171798
N 3.08932 7.44852 0.16113 0.723727 -1.526794 -0.820841
N 8.6413 7.34024 10.7732 0.184568 -0.024122 0.079083
N 5.95217 10.2932 2.56717 0.634858 0.720252 1.153614
N 1.38093 5.87348 3.06483 -0.070869 0.050964 -0.095535
N 11.371 10.5796 6.34931 -2.789428 -0.334256 3.74186
N 12.0334 10.6778 5.50551 2.924608 0.481932 -3.732851
N 2.68665 8.34873 0.63278 -0.7525 1.620141 0.831019
N 8.38912 8.03485 9.95324 -0.114903 0.105307 -0.048041
N 0.66125 5.44708 3.78671 -0.015323 -0.103676 -0.058681
N 5.53762 9.73924 1.71759 -0.535715 -0.762279 -1.101581
N 6.45474 2.52758 11.0058 0.088783 -0.382008 -0.0186
N 5.95523 3.50968 10.9897 -0.158334 0.288135 0.046548
N 4.91268 8.70614 6.77418 -0.091471 2.213919 0.111791
N 4.93164 7.61594 6.73839 0.071316 -2.345752 0.054412
Na 3.20237 0.40522 10.0175 -0.089138 -0.108765 -0.22183
191
energy=-1082.09317123 config_type=nep2xyz pbc="T T T" virial="-12.140940464365944 1.8869450719316168 -10.393406365402207 1.8869450719316168 -18.745950328581156 -1.1659826830040856 -10.393406365402207 -1.1659826830040856 -19.660921858976494" Lattice="12.4 0.0 0.0 0.0 12.4 0.0 0.0 0.0 12.4" volume=1906.6240000000003 Properties=species:S:1:pos:R:3:force:R:3
H 6.98062 8.39375 5.04865 -0.009299 -0.940229 -0.434209
H 10.3312 1.37137 7.32866 0.934315 0.637908 -0.207718
H 7.33453 6.10899 1.0091 -0.32349 -0.649904 -0.760399
H 2.52855 9.74195 3.54407 0.480057 -0.061402 0.414671
H 2.70011 3.99716 5.0233 0.243544 0.763844 -0.18126
H 10.9071 3.48401 6.15171 0.075819 1.087056 0.285687
H 12.1752 2.66639 6.87265 -1.019011 0.670981 -0.144355
H 7.34346 7.25134 4.07863 0.808989 -0.273372 -1.243714
H 3.76748 6.22461 4.83614 0.435919 0.738631 -1.966765
H 7.59523 5.95615 7.59517 0.291482 0.61473 2.104343
H 6.34628 2.30613 6.73615 0.067782 -0.009468 -0.105129
H 3.68613 3.14415 4.0064 -0.444115 0.142587 0.490473
H 7.46776 6.48095 6.09823 -0.327174 -1.363098 0.658665
H 4.29348 11.5366 4.20743 0.082673 0.385019 -0.285217
H 6.9664 4.83576 12.3746 0.113478 1.271481 0.785957
H 5.14454 6.82411 10.3638 -0.14085 -0.779921 0.395677
H 8.26027 0.98299 10.3616 -0.083431 0.828542 -0.599821
H 0.45724 0.16097 1.35386 -0.252826 0.019097 0.102979
H 0.42712 10.6131 11.9283 -0.314911 -0.404774 -0.24704
H 11.6469 4.06445 8.65303 -0.967359 1.301105 -0.867379
H 0.97817 2.50384 8.93417 -0.006604 0.6295 -1.48103
H 1.5093 7.67519 8.72835 1.208643 0.526417 -0.361824
H 12.2074 9.15212 9.9615 0.181511 -0.791673 -0.495504
H 10.641 0.85032 0.9176 0.683955 0.044972 0.028525
H 3.13968 8.26277 3.94191 -1.863163 1.238549 -0.353861
H 1.61859 2.12604 4.51756 -0.834894 -1.102289 0.178878
H 4.45621 3.82859 7.4013 2.1767 -1.031738 -1.765937
H 3.89935 4.54945 8.51284 -0.2929 0.923951 1.437064
H 9.53738 12.0534 2.40153 -0.279073 0.048236 0.242253
H 9.83377 1.81637 5.18779 -1.392321 -0.988507 -0.399419
H 3.77424 1.68407 2.02421 1.095203 1.067759 0.527356
H 0.1827 2.06277 5.12019 -0.136984 -0.707731 -0.227356
H 5.06181 7.08196 4.41546 -0.045992 -0.28469 -0.484876
H 6.88112 0.98626 7.56061 -0.140342 0.647511 -0.455455
H 8.35976 2.88167 12.3709 -0.506156 0.437416 -0.284902
H 3.49584 9.0844 9.44741 0.49017 -0.032619 0.205379
H 8.91974 3.69491 2.97327 -0.422889 -0.019876 -0.501896
H 0.71489 9.99727 0.9144 -0.192703 -1.451413 0.896155
H 3.07203 5.53015 10.4316 -0.190576 -0.056791 0.756663
H 9.55396 12.1383 3.96236 -0.133211 0.281446 -0.321575
H 11.6376 5.63288 8.71108 -1.595826 -1.887594 -0.978407
H 2.90705 5.01789 0.69006 0.900062 0.428138 0.571595
H 2.32121 9.80043 8.16823 -0.643794 1.821635 0.175426
H 3.19839 6.48106 9.16794 0.477265 -0.433056 0.641048
H 1.97206 7.51537 7.3342 0.690674 0.661543 -0.037149
H 1.60478 0.19572 5.51274 -0.112116 0.058127 0.239962
H 11.5109 11.3573 9.99411 -0.589651 0.765235 -0.245361
H 0.61724 6.26504 12.3211 -0.01716 0.41741 -0.861713
H 10.3633 5.76802 5.8061 -0.261966 -0.036648 -0.340193
H 1.19725 8.37087 2.708 0.36548 -0.063235 0.171452
H 9.02695 5.98577 2.67626 -0.847128 1.30772 -0.780736
H 9.09255 4.91145 6.03874 -0.859944 0.266878 0.606597
H 9.04089 11.6822 7.57303 -1.335203 -0.637407 -0.020612
H 0.45491 0.71425 2.77967 -0.19092 0.504315 0.340775
H 9.42123 7.48881 2.58637 0.16544 0.779287 -0.117651
H 5.79927 1.50649 9.59721 0.3993 0.161238 -0.418815
H 0.26661 7.71791 1.5428 0.109371 0.217854 0.192061
H 2.75435 11.6255 5.22183 0.473112 -0.493501 -0.8243
H 9.1017 4.65827 11.1833 -2.122239 -1.711229 -0.063476
H 2.03833 11.1452 7.40855 -0.24654 0.010803 0.090122
H 10.2899 4.39589 12.1583 0.336538 0.37006 0.296194
H 3.37105 2.14177 6.42691 -0.145153 1.454021 -2.418603
H 9.05442 9.36137 7.71668 0.332881 -0.25816 0.040844
H 4.48111 5.90492 2.69825 -0.506264 -0.706432 -0.479148
H 10.3597 0.28515 8.6951 -0.068043 1.285797 -2.09778
H 1.02711 7.98508 4.90297 0.960636 -0.079437 0.334755
H 7.26939 7.05366 9.82944 0.636809 -0.480531 -0.38108
H 4.85303 3.81244 2.34429 0.419396 -0.065017 0.127314
H 3.23006 12.173 3.06239 0.579957 0.251803 0.076923
H 2.46012 10.9371 11.6659 -0.97794 -0.596528 0.946073
H 11.1165 7.76029 8.82278 1.091143 0.149507 0.486477
H 5.46946 3.91343 5.30976 0.358841 0.046376 0.178664
H 11.5803 5.94312 12.0948 -0.093331 0.72123 0.039377
H 7.82886 10.5081 5.99165 -0.452395 -0.664544 -1.887537
H 8.07078 2.17306 3.42445 -0.277377 -0.766542 -0.95729
H 6.07372 11.0507 5.40108 2.288873 -1.255924 -0.507135
H 1.81271 4.24375 12.39478 0.066677 0.316057 -0.273476
H 12.3117 7.40333 5.70244 -0.347214 -0.324745 0.345244
H 0.10548 0.71083 10.2449 0.085395 0.291902 -0.487471
H 5.49874 0.00373 5.89223 0.31255 -0.17322 -0.132933
H 1.86396 3.28898 7.82861 -0.47698 -0.191021 0.359929
H 5.2316 5.35832 1.41601 -0.068631 0.315145 -0.430119
H 8.49802 0.98891 5.53774 0.155135 0.735305 -0.218916
H 8.69035 6.29819 9.89453 0.224707 -0.459251 0.739166
H 0.55972 2.23815 0.99064 0.09099 0.625861 -1.127398
H 8.06078 10.6414 4.36998 0.068052 0.028022 -0.226084
H 10.3078 7.98657 6.37584 -0.36211 0.149086 -0.538004
H 3.15946 0.63177 6.83295 -0.480731 -0.10538 -1.106798
H 0.9537 1.74673 11.0261 0.015762 -0.110136 -0.358984
H 11.7484 7.14427 10.1266 -0.086784 -0.810946 2.012556
H 3.48727 0.57782 1.0393 -0.359646 0.16743 0.034781
H 9.21733 0.4825 0.23829 1.017261 0.577991 0.475959
H 7.73651 11.111 8.43601 -0.039221 -0.165028 -0.42405
H 2.76208 5.32302 6.67071 -0.145326 -0.065323 -1.412527
H 9.71019 4.56737 3.9712 0.207715 0.271008 -0.161728
H 4.73457 8.67368 10.3195 0.699818 -0.978733 0.534236
H 10.1746 12.2489 10.476 0.682057 0.460155 -0.507295
H 1.72503 6.02397 5.59889 -1.009811 1.109791 0.056965
H 10.1523 4.50969 1.33741 0.786577 0.04665 -0.224341
H 7.70684 2.85392 10.9034 0.019736 0.397708 0.104681
H 6.11557 11.7888 9.5272 0.138702 -0.807667 -0.184498
H 8.50783 1.81369 1.94634 -0.572862 -0.085089 0.505533
H 6.05312 2.66946 2.68552 -1.114333 0.509526 -0.341645
H 3.87631 10.5812 11.0441 -1.291389 0.868813 0.101442
H 12.0731 3.31567 0.23008 1.337785 -0.45521 0.114353
H 6.20803 7.00291 11.6122 -1.044595 -0.013841 -1.350752
H 11.3579 8.82893 2.88906 1.290659 -0.194765 -0.614553
H 4.61138 1.18719 8.46165 1.220099 0.137596 1.511728
H 0.90668 10.316 9.75682 -0.071074 -0.262927 -0.698645
H 9.02154 7.87738 8.30307 -0.457588 -0.135545 0.011745
H 10.5224 7.96238 4.68631 -0.071781 0.015714 1.304161
H 7.97725 2.19603 8.92687 -0.235068 -0.263931 0.667275
H 6.5851 4.47499 6.42776 -1.000542 -0.448681 -0.847805
H 8.22225 11.9314 10.9952 0.906034 0.847094 -0.188015
H 6.13478 10.207 9.32378 -0.473177 0.069541 0.110564
H 10.1043 4.94983 9.8921 -0.578389 -0.315306 0.768572
H 10.0975 9.72241 3.04736 -0.080134 -0.158033 0.402449
O 7.52973 1.90795 9.75036 -0.373517 0.665269 -0.464261
O 9.03056 1.34588 4.78808 1.310479 0.736746 1.029584
O 8.03428 6.67108 9.29536 -1.096152 1.136753 -0.688587
O 5.90949 3.73701 6.15573 0.299339 0.788697 0.624077
O 5.28678 11.5323 5.50808 -2.73229 1.810311 0.509408
O 5.83305 7.39784 10.744 1.091834 0.219653 1.020226
O 5.01339 0.95207 9.38696 -1.096205 -0.202593 -1.7091
O 2.53738 5.5246 5.70517 2.000749 -1.478575 1.255616
O 9.48978 4.47979 3.0013 0.032813 -0.355771 0.707314
O 6.69487 10.9742 9.49018 -0.384457 1.106596 0.790635
O 9.69811 0.80348 1.06956 -1.69492 -0.28787 -0.57612
O 6.65812 5.72297 0.3843 0.633274 -0.4238 0.123238
O 3.38789 1.52871 7.11511 0.854756 -1.689056 3.652293
O 0.7188 10.8042 0.43027 0.451206 1.862172 -0.642604
O 0.83929 1.47047 4.68031 1.08937 1.417704 -0.211262
O 3.63364 4.14184 7.69652 -2.139792 0.61836 0.47545
O 2.27985 8.84786 3.8654 1.814079 -1.234116 -0.103913
O 9.5239 8.47498 7.71359 0.038609 0.436162 0.354775
O 12.2241 6.66833 11.8844 0.270526 -1.188494 0.89396
O 0.04478 0.85639 1.9112 0.344649 -0.536664 -0.52976
O 10.4526 8.81818 3.19706 -1.479904 0.356531 0.587324
O 9.95643 4.88575 5.62689 1.031395 -0.300739 -0.63381
O 5.08768 2.93028 2.74586 0.264165 -0.790049 0.460927
O 3.70385 5.90011 9.80416 -0.20246 0.725326 -1.178032
O 9.71724 5.2385 10.7789 2.115965 1.860843 -1.872269
O 11.9697 7.6079 9.33639 -0.987245 0.619406 -2.523699
O 8.8473 0.30818 10.926 -1.077041 -2.436027 1.440046
O 8.69262 6.90266 2.34005 -0.070239 -1.998796 0.795816
O 8.2794 10.9773 7.60306 1.855767 0.477081 -0.77872
O 0.9031 7.34956 5.64006 -0.816108 0.751717 -0.165409
O 11.3373 2.63638 6.31239 0.849342 -1.463691 0.05748
O 7.5429 5.65178 6.70785 0.122126 0.58142 -2.50247
O 3.49138 11.4234 3.63102 -0.666837 -0.752313 -0.037093
O 4.39574 5.25793 1.91859 0.34694 0.305379 0.15311
O 0.3935 8.46357 2.15514 -0.421044 -0.016003 -0.781872
O 7.51499 10.18 5.03079 0.603133 0.351266 2.527332
O 7.75821 2.21108 2.47045 1.192662 0.6259 0.993256
O 2.37445 5.05804 12.2926 -1.326271 -0.639067 -0.323252
O 2.36642 7.82037 8.20054 -2.495099 -0.946629 0.333808
O 0.57097 2.84484 0.16534 -1.153766 -0.138562 0.894297
O 2.05387 10.7709 8.33263 0.844312 -1.75311 -0.394156
O 10.7002 7.52571 5.58733 0.247649 -0.146548 -0.734071
O 0.95291 1.23174 10.1745 -0.061124 0.345547 0.865804
O 6.81914 7.40984 4.85639 -0.259416 1.646617 1.201921
O 11.0585 12.2656 9.92873 0.169696 -1.271223 0.720294
O 2.97131 3.12483 4.69586 0.529448 -1.18117 -0.421028
O 7.88884 3.47487 11.7467 0.450869 -0.71381 0.008015
O 0.93155 3.12123 8.10857 0.337825 -0.814066 1.277069
O 6.79555 1.43538 6.69566 0.353833 -1.41131 0.332477
O 9.24959 11.5876 3.2202 0.312707 -0.858604 -0.018341
O 2.19193 11.9187 5.94318 -0.448706 0.406646 0.764409
O 3.06625 1.12563 1.72567 -0.6029 -1.354607 -0.42688
O 9.90091 0.65467 7.77989 -0.533437 -1.993541 2.111978
O 3.2346 11.3264 11.294 1.968008 -0.21913 -0.196515
O 4.25262 6.68298 4.00514 -0.527068 0.086521 2.841752
O 0.09268 10.037 10.2056 0.062948 1.557216 1.0746
O 4.28992 9.41124 9.90298 -0.494757 0.757811 -0.625812
O 11.0218 4.8379 8.42339 2.793522 0.798676 1.916329
O 10.7922 4.5364 0.58068 -0.286409 -0.624921 0.545082
N 3.39935 7.88245 0.75985 -1.518927 0.802353 -1.467727
N 10.0781 8.99564 12.2781 0.040056 1.726227 1.076495
N 6.37701 11.3771 1.57285 -0.204642 2.470129 -0.084844
N 12.1492 5.50075 3.49411 1.29989 -3.098531 -0.732614
N 11.8745 10.9279 4.96872 -0.262295 0.247569 -0.540628
N 12.2808 10.5068 5.9013 -0.014465 -0.381374 0.546936
N 2.62068 8.21395 0.02633 1.638237 -0.709135 1.42845
N 10.1233 9.91191 0.51828 -0.135884 -1.722613 -1.268729
N 0.15826 4.47171 3.27847 -1.145424 3.100466 0.664747
N 6.25911 0.0912 1.51769 0.078508 -2.666629 -0.043052
N 4.68859 3.52029 11.2413 1.326743 1.613706 -0.857614
N 4.10586 2.71462 11.6904 -1.128898 -1.713094 0.850643
N 5.20406 8.63945 6.84104 -0.084265 1.447795 -0.924642
N 5.23696 7.72089 7.4348 0.047743 -1.488764 1.018306
Na 2.98005 0.178 9.62259 -0.444294 0.224376 -0.244452
191
energy=-1081.7469354 config_type=nep2xyz pbc="T T T" virial="1.4668914207305737 2.7837449799861984 -3.296882082365624 2.7837449799861984 -0.41850662375880465 -2.645416926227885 -3.296882082365624 -2.645416926227885 -8.650798953831444" Lattice="12.4 0.0 0.0 0.0 12.4 0.0 0.0 0.0 12.4" volume=1906.6240000000003 Properties=species:S:1:pos:R:3:force:R:3
H 6.5094 8.03747 3.92234 -0.46388 -0.926994 0.08338
H 10.9862 3.42045 9.14898 -0.942368 -0.393821 -0.253097
H 7.9333 6.55039 0.30657 -0.211543 0.380699 -0.745555
H 2.34057 8.85593 3.81569 -0.432187 -1.149431 -0.300145
H 2.52823 3.45895 6.68432 -0.243386 0.467687 -0.128643
H 11.0063 2.72485 5.73377 0.218199 -0.208834 0.254015
H 11.8447 1.99148 6.89978 -0.263124 0.488538 -0.102156
H 6.81651 6.95634 2.87431 -0.301371 -0.13754 1.198163
H 3.77805 5.44245 4.01496 0.088354 -1.618457 1.09108
H 7.28284 5.78512 6.82627 -0.136493 -0.336687 -1.240872
H 6.82472 1.84209 6.5023 -0.429691 0.248039 0.694757
H 3.6714 3.06981 5.68952 -0.685447 -0.433314 0.680913
H 7.26688 6.02228 5.23563 -0.216412 0.670452 -0.501294
H 4.32524 10.197 3.87023 0.84934 0.105267 -0.10364
H 7.85125 5.25343 11.8316 -0.344405 0.416657 -0.80645
H 5.03378 7.29514 10.541 1.910284 1.362365 -0.058139
H 7.72411 3.61698 10.2358 -0.680766 0.432306 -0.835764
H 0.18071 0.09476 1.74965 -0.780168 0.442191 -0.415514
H 0.28873 10.7694 12.37821 -0.321847 0.06971 0.217958
H 10.7288 5.0998 7.94704 0.363742 -0.099894 0.948547
H 0.4603 2.1772 9.02546 0.237234 0.287512 -0.382794
H 0.91093 7.55953 9.03023 -0.450521 0.326271 -0.229682
H 11.9896 9.575 10.3183 0.399735 -0.26583 0.209156
H 10.5095 1.1999 1.91454 -0.829706 -0.369539 0.499343
H 2.29835 7.23156 3.77128 1.675605 -0.618093 -0.075751
H 1.70135 2.02643 5.25666 0.772281 -0.060506 -0.326014
H 4.44826 3.84558 7.7747 -0.305597 -0.597378 -1.890108
H 4.11708 4.69933 8.96283 0.65506 -0.675577 0.383948
H 9.29796 11.8024 2.76218 -0.607642 0.241909 0.484789
H 9.9096 0.96076 6.1599 0.281951 -0.350482 -0.513895
H 4.00503 1.37514 2.77697 0.235683 -0.004056 0.034143
H 0.3363 1.53456 5.04113 -1.380131 -0.180597 0.169377
H 4.73622 6.60305 3.82163 -0.554083 0.051487 -0.423859
H 8.01717 1.15913 5.8001 -0.84524 0.8028 -0.209457
H 7.72946 3.36284 12.3413 0.346641 0.427259 -0.550809
H 5.51339 10.8474 8.76942 0.283868 0.064724 0.796286
H 8.51272 3.96003 2.23235 -1.620645 -1.425173 -0.170676
H 0.40695 9.88744 1.19632 -0.272272 0.137406 0.420517
H 2.31075 5.23287 10.4417 -0.320985 -0.59077 0.668644
H 9.04965 11.6084 4.36086 -0.30236 -0.206455 -1.958434
H 10.7554 5.1831 6.53828 1.015346 0.20553 0.206229
H 2.90746 4.88284 0.06872 -1.56295 -0.276544 -1.183485
H 2.03728 9.49774 9.09193 0.427972 1.042334 -0.51283
H 2.5548 6.41147 9.44821 -0.269879 0.843425 -0.093566
H 1.68564 7.55929 7.64166 -0.634138 0.118246 -0.19392
H 2.00668 12.2539 6.48125 0.48019 -0.625301 0.042256
H 11.5858 11.8216 10.5837 -0.550843 0.848013 -1.820504
H 0.80968 5.62617 12.2176 1.367069 -0.176541 -0.277297
H 10.0709 5.26072 5.26186 -0.560671 -0.568292 -1.568852
H 0.64206 7.95096 2.38949 0.012736 0.676837 0.350314
H 8.72874 6.07228 2.19337 0.524369 -0.434573 0.191131
H 8.94744 4.40771 5.63984 -2.285311 -0.343058 0.818571
H 8.47754 11.3395 9.06756 0.125361 -0.166869 -0.2764
H 0.3491 1.01823 2.89408 0.520321 0.771392 1.414217
H 8.89499 7.68071 1.96016 0.052284 -0.325822 0.296683
H 6.90537 2.3074 8.59105 0.169304 0.42758 0.340365
H 0.17384 7.50652 1.00751 -0.376026 0.31881 -0.207802
H 2.93266 11.2545 5.75311 -0.088951 -0.067411 0.759045
H 8.8258 6.51846 10.7042 0.347992 -0.644037 -1.048056
H 2.21451 10.8217 8.26544 -0.025724 0.314583 -1.765447
H 9.70379 4.24071 12.1908 -0.464072 -0.064589 -0.463335
H 3.22582 1.75261 8.09237 0.461162 -0.635367 -0.134911
H 8.88575 9.58822 7.03134 -0.445653 -0.743762 -0.536896
H 3.90324 5.58611 1.83467 0.000684 -0.543429 0.097125
H 9.31969 3.6529 9.23257 -1.83957 -1.34313 -0.037795
H 1.07191 7.48817 5.23177 -0.040228 -0.985727 0.97442
H 6.72843 7.12431 8.63408 0.326934 -0.232078 -0.397666
H 4.85251 3.60896 2.0488 1.162436 -1.128803 -0.057557
H 3.46721 11.4242 3.391 0.422252 1.635319 -0.865598
H 2.10456 11.67 0.75043 -0.165524 -0.192975 -0.583668
H 10.8883 7.32372 9.73417 0.959429 0.490876 0.34456
H 5.03863 3.71836 3.97023 0.177942 -0.229625 0.621974
H 11.7294 5.65425 0.07961 0.277879 0.794877 -0.130483
H 7.33984 9.43322 5.24588 -0.629992 0.569465 -1.113523
H 7.34902 2.20036 4.05183 0.024311 0.095809 0.23676
H 6.42953 11.2736 6.04081 -0.096652 -0.116212 -0.193003
H 1.63295 3.98369 0.13664 -0.864801 -1.224388 -0.144327
H 12.38317 6.6251 5.96237 -1.403745 -0.11301 0.355786
H 0.48837 0.85829 10.1752 -0.924236 -0.616044 0.122347
H 6.40521 12.367 7.13998 0.279728 1.076947 0.055552
H 0.49323 3.46155 8.05128 -0.297797 -0.810531 0.022171
H 5.07869 5.6397 0.97486 1.11594 0.255847 -0.757298
H 9.28275 12.0501 6.71471 -0.423101 0.08878 -0.043416
H 8.1937 6.72052 8.77846 1.100133 -0.777955 0.605632
H 0.17951 2.22267 0.95163 0.250093 0.553546 -1.843562
H 7.51649 10.2582 3.95852 1.656702 1.298327 -1.55609
H 9.65332 7.74036 5.58778 0.447112 0.002016 -0.639334
H 3.6684 0.27932 7.73564 -0.194406 0.347997 -0.273108
H 1.13879 1.8291 11.1677 -0.225186 0.09137 0.031016
H 11.7906 7.01187 10.9049 0.79538 -0.010555 0.712013
H 2.74609 1.03875 3.58956 -1.110161 0.404123 0.813807
H 9.43744 1.08112 0.8631 -0.768727 -0.12088 -0.417546
H 9.97376 11.2415 8.71809 0.871845 0.271814 0.429989
H 2.51615 5.18314 7.94139 -1.330599 -0.8658 -0.995977
H 9.27029 4.42571 3.49808 0.142615 -0.346327 0.207698
H 5.43615 9.78141 9.88277 0.27398 0.383157 0.388216
H 10.583 0.56099 10.5529 -0.817009 0.728071 0.223646
H 1.54612 5.45939 6.7162 -0.342038 0.779147 -0.652619
H 10.402 4.32526 1.15823 0.136925 0.256304 -0.862014
H 8.89355 2.10709 11.2907 0.005663 0.913338 0.242223
H 7.20779 0.40293 9.17411 -0.268129 -0.01932 0.457073
H 8.33468 1.80129 2.89124 0.069692 -0.123534 -0.47651
H 6.12711 2.57615 2.51517 1.734495 0.160382 -0.145361
H 3.14661 0.31136 0.79243 0.809985 1.048135 0.928225
H 11.8805 3.21831 12.2223 1.481192 -0.692906 0.833113
H 6.55724 7.36315 10.992 -0.271115 0.108423 -0.090624
H 10.7283 8.7468 1.92005 -0.198034 -0.03875 0.553068
H 5.50122 1.53255 8.21118 0.63767 -0.096869 0.559544
H 0.84847 10.5736 10.2331 0.189143 -0.313098 -0.620329
H 8.26388 8.21389 7.11213 -1.22603 -2.014263 1.783091
H 10.5171 7.63675 4.21395 -0.775373 -0.24621 0.702661
H 6.60881 3.99167 9.0584 -0.127844 0.433071 0.143111
H 5.75973 4.27066 5.28566 -0.280258 0.337546 -0.22882
H 8.41705 0.69837 11.1076 -1.286919 -1.458884 -1.142806
H 6.84564 11.6946 10.223 -0.97977 -0.775562 0.089293
H 9.80652 5.50978 9.79047 -0.748076 0.541684 0.014499
H 9.6197 9.59162 2.73827 -0.074618 0.360555 0.04709
O 7.4851 3.59767 9.20519 0.656581 -0.394744 1.140207
O 9.22806 0.26977 5.95224 0.692133 -0.551639 0.681931
O 7.47697 6.74289 8.12243 -1.641895 1.080067 -0.426421
O 4.88076 4.16032 4.8466 0.106272 -0.606981 -0.098551
O 6.31744 11.4372 6.98492 -0.385693 -1.252793 0.195964
O 5.86051 7.89686 10.507 -1.744435 -1.595253 -0.050081
O 6.50015 1.46641 8.25132 -1.157999 -0.485399 -0.832074
O 1.94276 4.75183 7.23175 1.00606 -0.150167 2.028029
O 9.24671 4.45535 2.51628 1.699169 1.714681 -0.097736
O 7.57118 12.2292 9.9118 1.120158 1.005857 -0.078273
O 9.52777 1.02158 1.83205 1.765293 0.165775 0.182108
O 7.67676 6.29384 11.7541 0.22679 -0.006211 1.382123
O 3.78708 1.00151 8.38519 0.089347 -0.089286 0.257732
O 0.28898 10.8416 0.96103 0.62883 -0.042253 -0.253638
O 1.19391 1.47628 4.61101 0.970218 -0.078775 0.018671
O 4.76295 4.01132 8.6384 -0.00896 1.081161 1.58754
O 1.78396 8.02974 3.70908 -0.993843 2.122129 0.452872
O 8.5519 8.81947 6.47004 1.383073 2.779656 -0.989498
O 0.11362 6.28024 12.3204 -2.320486 -0.205585 0.530015
O 12.2856 0.99836 2.06593 0.264786 -1.264187 -0.997424
O 9.86426 8.71561 2.40577 0.846113 0.208883 -0.09339
O 9.68571 4.34984 5.05835 2.37719 1.145261 0.217857
O 5.19019 2.76896 2.48232 -3.34515 0.919698 -0.096086
O 2.87063 5.55001 9.72692 0.889586 0.338278 -0.859741
O 9.30771 6.37368 9.78982 0.715102 0.383484 1.262688
O 11.772 7.60667 10.142 -1.452982 -0.049356 -1.448978
O 9.03476 1.20936 11.6037 1.666206 0.650848 0.871354
O 8.31687 6.87373 1.83617 -1.259561 0.283012 -0.487386
O 9.13088 10.8873 8.45113 -0.287359 -0.353791 -0.888692
O 0.89891 6.85488 6.01156 1.468632 1.395171 -1.266485
O 11.4187 1.8769 6.00353 -0.6591 0.060585 -0.183272
O 7.21208 5.34362 5.90508 0.246841 -0.580286 1.745947
O 3.46361 10.5997 3.85369 -1.210055 -1.978677 1.484155
O 4.34391 5.05193 1.11368 -1.210219 0.515305 1.000599
O 0.05676 8.25053 1.66355 0.217154 -0.626366 -0.309729
O 6.84757 9.8281 4.44216 -1.310042 -2.209859 2.883802
O 7.5844 2.38076 3.1126 -0.095959 0.047503 0.078704
O 2.01787 4.66349 11.9786 3.063207 0.910585 1.248778
O 1.67016 7.94119 8.53505 0.357413 -0.461229 0.820443
O 0.36204 2.73277 0.06254 -1.738319 -0.127541 1.230962
O 2.25602 10.4857 9.14447 -0.315343 -1.526311 2.086784
O 10.1855 7.14075 4.99956 0.383983 0.088286 -0.124859
O 1.27686 1.3892 10.3014 0.926141 0.355797 -0.343219
O 6.30039 7.06241 3.74919 1.158154 1.420169 -1.164245
O 11.2248 0.16835 9.95477 1.096988 -1.791314 1.429565
O 2.9482 2.66752 6.27495 1.115759 -0.097292 -0.894344
O 8.21725 3.8948 11.6813 0.033559 -0.90182 0.355587
O 0.02148 2.60097 8.23192 0.620434 0.94823 0.666034
O 7.28568 1.86085 5.66679 0.924552 -0.62951 -0.720527
O 8.78304 11.2791 3.42764 1.305102 0.195481 1.536111
O 2.6244 11.5058 6.66871 -0.392318 0.844636 -1.267258
O 3.34559 0.67192 2.95577 0.871703 -0.147133 -1.075694
O 10.1814 3.9846 9.12335 2.70835 1.483054 0.04545
O 2.74322 12.1335 0.1697 -0.618384 -0.96201 -0.554381
O 3.78757 6.29936 3.63457 0.369316 1.521348 -1.010146
O 0.06402 10.3153 10.7438 -0.443131 0.450342 0.454403
O 5.48911 10.7586 9.76342 -0.83237 -0.790476 -1.230491
O 11.3482 5.43638 7.27516 -0.925006 -0.234644 -0.778527
O 10.5985 4.43346 0.17784 0.426742 -0.346496 1.282325
N 3.49727 8.94454 0.60849 -0.736017 -0.478379 -0.470208
N 8.84075 9.35929 11.9548 -1.684578 -2.430996 -0.353658
N 6.96316 12.0845 1.5088 -1.376615 -0.685087 -2.131366
N 1.40557 4.14668 2.77873 -4.088004 -1.344071 0.064572
N 11.5835 10.1879 5.45136 0.036446 0.427142 -0.561883
N 11.5967 10.8246 4.54278 0.100102 -0.422935 0.571544
N 4.3518 9.42717 1.10191 0.766944 0.387082 0.465718
N 9.45324 10.2511 12.0621 1.662152 2.487996 0.218378
N 0.33253 3.77673 2.78223 4.14875 1.617908 0.122818
N 6.448 11.7444 0.57281 1.11826 0.733548 1.957222
N 5.87548 2.50845 11.7308 -1.602514 -1.187609 -0.95404
N 5.16045 1.91021 11.1164 1.123306 0.879289 1.048016
N 3.89801 6.87158 7.01561 -0.635053 -0.685392 -0.148568
N 4.70416 7.60929 7.11318 0.929505 0.866606 0.042957
Na 3.46447 11.9641 10.2832 -0.066828 0.398503 0.316462
