193
energy=-1086.38233914 config_type=nep2xyz pbc="T T T" virial="-10.568779776296584 2.3820414542923225 -2.0102788597113097 2.3820414542923225 -10.238394215689906 -2.0585818165424348 -2.0102788597113097 -2.0585818165424348 -19.443838208197146" Lattice="12.4 0.0 0.0 0.0 12.4 0.0 0.0 0.0 12.4" volume=1906.6240000000003 Properties=species:S:1:pos:R:3:force:R:3
H 10.4621 4.28701 8.88739 1.180681 0.895754 1.322593
H 1.51256 12.1328 6.84787 1.337509 -0.369748 -0.077468
H 2.99429 7.19181 1.39569 -0.688641 0.074072 0.203736
H 7.37064 1.46153 4.14286 -2.193805 -0.25591 0.923578
H 7.36149 7.95697 8.39009 -0.141853 -0.491205 -0.957642
H 7.11953 1.31342 10.3974 1.532971 -0.497786 -1.734479
H 6.91772 6.51532 7.3426 -0.97366 -0.920938 0.499313
H 7.26877 11.8381 9.39247 -0.077556 -0.104106 -0.060431
H 6.47444 2.4728 6.34044 0.299477 0.320109 1.026629
H 0.91044 8.53166 6.95567 -0.734627 0.687506 -0.283003
H 1.24967 4.03754 5.4216 0.070966 -0.656866 -0.92763
H 10.0529 5.21983 10.7732 0.678589 -0.312353 0.304512
H 6.74008 4.01132 11.432 0.388838 -0.097947 -0.059057
H 1.79142 3.33232 1.76534 -0.747345 1.007802 -0.091298
H 10.6095 6.69771 0.21641 0.064776 0.697393 0.359533
H 3.59936 11.5004 10.2563 0.508915 0.53391 0.38906
H 1.53492 4.62577 9.75054 0.824018 0.166838 -1.427337
H 1.61647 1.96477 9.45133 0.189813 0.403536 0.039848
H 12.1066 7.56981 9.78633 0.267326 0.074019 0.535622
H 10.1598 7.39775 8.20422 -0.422866 -0.023503 0.497035
H 12.2479 10.1659 8.15108 -0.130679 -0.319317 -0.351578
H 0.33606 10.3821 2.18889 0.322124 1.891177 0.527061
H 4.95608 7.66689 12.1303 -1.003187 1.039423 0.670847
H 11.7363 6.57983 3.71939 0.205379 0.032991 -0.261826
H 8.1645 7.07244 6.8247 0.310979 0.435678 -0.498406
H 1.64065 7.94304 1.41575 -0.309063 0.311457 -0.053545
H 3.78534 11.7997 6.20507 1.826002 -0.139073 -1.288636
H 6.74043 10.9285 8.25103 0.146206 -0.015981 0.588463
H 9.74221 1.29105 0.4908 -1.273785 -0.834874 0.558651
H 1.31814 4.73984 8.16072 -0.380634 -0.173094 -0.08247
H 4.7479 11.2444 0.38092 0.394766 -0.662931 0.385181
H 1.30834 6.75118 5.46555 0.238951 0.114164 -0.672328
H 9.93307 12.2396 6.86123 0.100859 -0.282682 -0.110142
H 11.6892 4.73045 7.21663 0.987234 0.185439 -0.582498
H 9.7533 7.68974 0.92603 -1.385024 0.365565 0.099942
H 10.9486 11.1447 8.46669 -0.95978 0.118057 -0.404363
H 5.23496 2.29439 4.00902 0.665462 0.331565 0.594106
H 12.3003 4.92901 1.13381 0.580661 -0.735277 -0.767748
H 0.42362 1.04408 9.16958 0.68214 1.072587 -0.756855
H 10.0859 4.68512 0.67523 -0.166505 0.327121 -0.073511
H 8.38037 2.50778 3.58687 -0.001246 -1.325996 0.534271
H 2.85738 11.5312 8.83463 -0.243177 0.226749 0.649544
H 9.68181 4.01516 2.9512 -0.072991 0.671107 0.275214
H 7.81471 0.25516 1.02131 0.669244 -0.335425 0.612746
H 10.6062 3.27865 1.00746 -0.107839 1.840968 0.594546
H 4.84427 10.5487 2.12626 0.25621 -0.391183 -0.397702
H 12.0385 10.7889 3.43571 -0.812652 0.154336 1.122447
H 10.1879 0.76927 9.26596 0.665305 -0.071601 1.091564
H 5.75078 2.89915 1.806 -1.165761 0.067146 0.258552
H 3.12234 0.54437 4.76251 -0.808566 0.791877 -0.547468
H 6.39245 4.52471 7.87407 0.168523 -0.710622 -0.319832
H 0.84297 6.62952 9.51966 0.667306 -0.710473 -0.152812
H 0.54633 0.1514 1.07847 -0.201687 -0.681684 0.75953
H 6.78531 7.86679 10.5685 0.385126 -0.252779 -0.789968
H 4.56613 9.5907 0.75578 -0.131599 -1.197022 -0.38974
H 11.2232 1.49723 0.40664 1.275629 -0.629182 -0.035465
H 2.25294 10.7552 6.81038 -0.193363 0.327306 0.321571
H 1.22224 5.71356 0.95226 0.038652 -0.824941 -0.569814
H 0.6885 3.99873 11.7535 0.013123 -0.006248 -0.415049
H 2.49886 6.78274 6.57053 -0.641607 0.084695 -0.018211
H 4.1291 2.81679 2.04248 1.622531 0.8406 0.359998
H 7.77877 2.94016 7.17535 -1.225098 -0.132974 -0.108687
H 8.62904 0.52132 2.31963 -0.483744 -0.243773 0.255078
H 5.66674 11.3484 10.6866 -0.393811 1.122791 0.516381
H 8.94185 11.1548 7.06946 -1.850078 -0.443277 -0.005933
H 5.57913 0.37486 11.4351 0.498371 0.974155 0.233571
H 0.66736 5.73348 6.77949 -1.516428 -2.233949 0.728318
H 10.1437 2.36453 6.18507 0.009282 -1.102238 0.193063
H 7.66438 6.73347 1.48601 0.4535 0.920663 0.361421
H 1.07308 1.40421 0.42402 -0.412577 -0.041389 -0.305577
H 6.15687 5.08785 1.84589 -0.570193 -0.070963 -0.247272
H 1.69683 1.26423 4.90833 0.923023 -0.727106 -0.482093
H 6.28479 11.4934 6.28611 1.530738 -0.348407 0.206446
H 7.23862 1.51372 8.81504 0.22427 -0.270592 0.182395
H 5.48047 5.605 8.57489 0.794403 0.035345 -0.539934
H 4.58337 11.14 4.88165 0.150063 0.267136 0.234472
H 9.4044 7.40286 9.68921 2.147449 -0.369036 -1.851607
H 0.0119 3.39508 10.4215 -0.256167 0.387867 0.190319
H 9.44848 1.50918 5.13342 0.13138 -0.736447 0.187007
H 9.79007 8.34822 6.01196 0.16729 -0.163605 -0.014394
H 1.99836 9.40299 4.69942 0.040035 -0.429469 0.472606
H 1.443 6.68565 3.35374 0.311726 0.456156 -0.819338
H 1.95321 1.87742 2.34349 0.650072 1.056491 -0.631371
H 0.29482 9.46746 12.3291 -0.234445 -0.013208 0.458199
H 8.6624 5.51338 11.2236 -0.180783 -0.202937 0.676124
H 12.1612 10.7588 9.79132 -0.426466 -0.060387 -0.237529
H 7.33748 4.74927 2.70564 0.644231 0.122049 -0.24259
H 11.9331 8.79864 1.18691 -0.262071 -0.447457 -0.934266
H 10.5825 1.08491 10.7383 -0.366304 0.635827 0.834109
H 8.3468 10.5896 2.22976 -0.125119 1.889575 -1.119461
H 7.54394 9.19367 4.00085 -0.125832 -0.220114 0.789579
H 5.46887 9.35512 3.85519 1.408841 -0.60142 0.451303
H 10.9332 8.86109 4.20767 0.260727 0.442773 0.458711
H 6.54173 6.4462 11.2657 0.408151 -1.501234 -0.700312
H 3.5274 8.41895 11.9459 0.606043 -0.443667 -0.003
H 7.51349 9.27374 9.14734 0.102199 0.239863 0.443328
H 1.99678 8.35971 10.3723 -0.128646 -0.946391 0.153644
H 1.36615 11.0297 10.3692 1.524133 0.228681 -0.082224
H 12.1982 9.49466 6.22757 0.152298 -0.226687 0.031813
H 7.13629 10.2293 5.96781 0.299171 0.530546 0.392681
H 1.99609 3.1035 4.30491 0.03857 0.351596 0.38756
H 4.00808 9.76529 3.69015 -1.529296 -0.301237 -0.018011
H 10.8482 5.73897 9.35305 0.157251 -0.784869 0.121917
H 7.02373 8.00361 5.05971 0.296271 -0.086334 0.292687
H 8.30333 9.01459 2.16867 -0.204939 -0.040693 -0.553829
H 1.08897 5.36141 4.02635 0.341908 -1.705138 -0.073263
H 2.72878 9.57847 10.0108 0.924382 0.14251 0.295667
H 3.16456 5.85087 8.65987 0.593718 -0.273392 -0.136406
H 6.70974 4.66765 10.0382 -1.038765 0.028158 -2.895329
H 10.5711 7.04491 2.72724 0.52736 -0.266339 0.534645
H 0.83581 1.33334 6.93461 -1.265281 -0.029533 -0.497011
H 0.30885 11.5555 11.3146 -0.033698 0.11898 0.483342
H 1.72378 10.2732 3.52023 -0.137754 0.470366 -0.406242
H 10.6069 7.03093 6.01316 -0.00924 -0.289004 -0.55154
H 4.98724 1.20719 5.06033 0.804021 0.067569 0.254004
H 7.51809 7.55359 0.24869 0.195256 0.931949 0.594972
H 3.93954 7.09128 9.11538 0.262307 0.008963 -0.264041
H 9.21948 4.46574 4.45365 0.651985 0.417053 0.746611
H 10.2327 10.1407 4.79661 0.385954 0.002683 -0.040922
H 12.0536 0.70115 5.92014 -1.586218 0.558469 0.29433
O 11.7284 10.6928 8.82483 0.963151 -0.465784 0.497046
O 0.45902 9.4317 6.95779 0.643023 -0.504595 -0.206531
O 7.63361 0.97571 9.54428 -1.44947 1.265016 1.483198
O 6.80035 2.72605 7.26022 0.984987 -0.02809 -0.822524
O 11.1047 9.70395 4.73737 -0.631185 -0.840271 -0.527441
O 2.51039 1.1892 4.31803 -0.233219 -0.115463 0.652531
O 0.57237 0.83151 6.10575 2.317971 0.157706 0.895548
O 10.0627 1.39306 5.90548 -0.008008 1.146146 -0.220328
O 0.34986 11.1482 2.90806 0.731369 -1.911007 -2.067468
O 6.84639 10.9385 9.24211 -0.169753 -0.106427 -0.516735
O 10.6057 4.25715 1.38794 -0.129382 -2.042347 -0.545092
O 5.09583 11.9641 11.2562 -0.306232 -2.480538 -0.516922
O 1.55272 6.99701 6.40076 0.65148 0.131503 0.562731
O 0.28452 9.34958 0.90038 0.538089 0.003791 0.462136
O 9.86763 7.47764 6.42883 -0.081891 0.43592 0.657424
O 2.0656 7.14091 1.75096 0.743236 -0.305625 -0.254745
O 4.03101 6.35986 8.47384 -0.860345 0.390493 0.544443
O 10.6747 7.44804 0.86874 1.034246 -0.854124 -0.247192
O 7.65579 8.30856 9.24057 0.164695 0.72471 1.097066
O 0.84706 6.28847 4.00408 -7.7e-05 1.340039 0.665832
O 5.00352 3.23159 2.38083 -0.720999 -1.060571 -0.515008
O 8.4033 9.8002 2.73306 0.283862 -1.98978 1.785646
O 2.74566 11.4121 9.81711 -0.079383 -0.253792 -1.490307
O 0.8324 3.46445 10.9258 0.50504 -0.246405 -0.250247
O 6.44772 5.34991 8.37187 -1.245066 0.23 0.615141
O 7.11142 5.18243 1.86112 0.004138 -0.069795 0.465499
O 6.4472 7.3875 11.3525 -0.893756 1.100791 1.374227
O 7.2027 11.0887 6.49261 -1.959507 -0.320827 -0.604262
O 10.885 0.62415 9.95864 -0.24295 -0.363788 -1.806479
O 0.35062 0.73306 0.34641 0.822731 0.452478 -0.376305
O 4.90882 10.019 3.46733 0.0357 1.205582 -0.247856
O 2.40017 9.64653 3.8647 -0.177119 0.035749 0.230508
O 7.22355 7.3171 6.89104 0.470279 -0.014986 -0.368763
O 7.12393 4.7058 10.8608 0.843382 0.419959 3.053885
O 9.00708 3.96641 3.67511 -0.58274 -0.616725 -1.436887
O 2.41172 11.6814 7.08601 -0.820633 -0.51261 -0.358322
O 10.3902 1.87189 0.12202 -0.084059 1.169417 -0.651758
O 0.25872 4.75601 6.95624 0.79738 1.902023 -0.649338
O 8.21069 1.50194 3.73915 2.364899 1.516951 -1.094531
O 4.66013 11.8104 5.59614 -2.08867 0.267225 1.212665
O 11.0498 4.76649 9.58807 -1.267654 -0.517566 -1.62564
O 8.51945 12.2576 1.60004 -0.412636 0.758303 -0.880862
O 4.17202 8.10383 0.24863 0.788758 -0.074371 -0.679275
O 0.62229 7.36665 10.0954 -1.044303 0.668522 -0.343266
O 10.8507 6.99037 3.67504 -1.180989 0.912663 -0.332917
O 7.905 7.66923 1.17234 -0.461063 -1.667141 -0.649813
O 0.7882 4.85483 0.66247 -0.657851 1.553208 1.937768
O 1.45609 3.90271 4.45222 -0.008756 -0.0458 1.04591
O 7.09909 8.94861 4.88265 -0.014755 0.813662 -1.374725
O 2.25698 2.51422 1.63485 0.347991 -2.174649 0.702027
O 10.2727 7.1621 9.15816 -1.497804 1.015689 0.982683
O 0.59481 10.7309 10.8784 -1.580606 0.205907 0.561857
O 1.94529 4.99844 8.87308 -0.888171 -0.229227 2.265366
O 9.86404 11.3075 7.19992 1.688943 1.302767 -0.028654
O 1.1134 1.6163 8.70647 -1.315031 -1.421227 0.538296
O 2.91179 8.71316 10.4341 -0.743836 0.389022 -0.47679
O 5.62525 1.92668 4.85538 -0.987295 -0.194953 -0.947
O 9.58253 5.61751 11.5466 -0.391109 0.094017 -0.156639
O 4.71233 10.5086 1.09334 -0.073173 1.668256 -0.328892
N 8.98655 10.6096 11.562 -0.48572 0.662148 0.105747
N 4.5837 8.80354 6.38467 0.229803 -0.58694 -2.135446
N 3.49725 3.08349 7.25666 1.272642 -0.541147 2.984073
N 4.1836 4.29467 11.6341 -0.991434 1.345131 1.627418
N 4.33374 6.05439 3.85541 0.559385 -1.431359 1.812805
N 3.91634 2.92249 8.28997 -1.134286 0.384766 -3.100706
N 3.76854 4.92358 0.06325 0.884764 -1.294288 -1.710341
N 4.39428 9.06107 7.42822 -0.309209 0.61136 2.118837
N 4.58171 5.37166 4.70875 -0.534951 1.455547 -1.768552
N 9.56591 9.69678 11.3599 0.485834 -0.653208 -0.165714
N 11.9457 2.23162 3.03988 0.739664 0.795386 -0.177942
N 11.2394 1.4038 3.18511 -0.792276 -0.915436 0.193968
Cl 9.69393 4.19544 6.92053 -0.287177 0.087661 -0.082701
Cl 6.54473 2.05962 12.3187 0.076871 -0.483798 -0.032868
193
energy=-1086.76709013 config_type=nep2xyz pbc="T T T" virial="2.805760370510362 -0.18545288969111726 6.1302509426143965 -0.18545288969111726 -7.1243707769968765 4.984736622692237 6.1302509426143965 4.984736622692237 -0.38137796514507993" Lattice="12.4 0.0 0.0 0.0 12.4 0.0 0.0 0.0 12.4" volume=1906.6240000000003 Properties=species:S:1:pos:R:3:force:R:3
H 8.80908 4.936 9.62684 0.801522 0.466263 0.226313
H 2.07033 12.2314 7.0597 -1.281286 1.808504 -0.111486
H 2.68516 7.39749 1.41647 0.275205 0.282227 -0.707271
H 6.80178 1.29816 4.23594 -0.460545 0.423203 -0.359593
H 7.11871 7.43177 9.01871 0.982915 0.813302 0.926029
H 7.56491 1.0344 9.88932 1.747683 -1.052506 -1.53736
H 6.28518 6.4404 7.21517 0.004716 0.196412 0.277102
H 7.41621 11.4253 9.20376 0.215452 -0.883356 -0.610441
H 6.34326 1.9249 5.81435 -0.69826 -0.752431 -0.738373
H 0.84124 8.7503 7.22381 -0.48921 -0.540891 -0.565126
H 12.1288 4.26435 4.12089 -0.030799 0.031554 0.57333
H 9.79318 5.26152 11.5026 -0.055976 0.116132 1.959748
H 7.09572 3.89482 9.98057 -0.035438 -0.605322 0.521826
H 2.29017 3.14096 1.42587 -0.264824 -0.445072 0.321557
H 9.47692 6.92311 0.95518 -0.117495 -3.537117 -2.053631
H 3.89402 11.0682 10.087 0.989123 0.412634 0.234734
H 1.73344 4.42592 10.9493 -0.016321 0.29412 -0.831979
H 0.89167 1.82474 7.68474 0.405129 -1.140565 -1.106172
H 11.7174 7.56521 9.73837 -0.514756 -0.039216 -0.421884
H 10.2769 7.83428 8.00514 -0.006114 0.151132 -0.229083
H 12.3161 10.7335 8.41966 -1.545059 -0.626323 0.423277
H 0.18231 9.99331 1.44536 0.355764 0.419183 -1.005038
H 4.85074 7.78109 12.2559 0.528153 -0.830381 -0.0388
H 11.1903 6.40913 3.43218 0.006222 -0.286616 0.099672
H 7.75403 6.51022 7.32975 0.30342 -0.05373 0.031173
H 1.09989 7.56422 1.13542 0.07267 0.32882 0.056472
H 3.64159 11.4529 6.00731 1.344356 -1.248021 -1.126235
H 6.5982 10.5449 7.62449 0.048284 -0.412468 -0.343194
H 9.79873 1.84523 12.0429 1.158489 0.475493 -2.262547
H 1.22608 3.57464 9.70466 0.237251 0.361411 0.03883
H 5.80973 11.4248 11.7979 -0.350578 0.82512 -0.257375
H 1.18093 6.90879 6.19544 -0.195347 0.388625 -1.695906
H 10.6624 0.15315 6.24426 -0.841793 0.321039 0.119216
H 11.9653 5.53597 7.32239 0.066955 0.054966 0.05211
H 8.5906 8.10263 1.48428 0.540639 0.114074 -0.153443
H 10.9145 10.5114 9.29049 0.246953 -0.484449 -0.406061
H 5.16647 1.10538 3.27561 -0.479076 -0.1325 0.231698
H 0.79435 4.23055 0.70572 1.248738 0.714134 -0.825929
H 0.35778 0.81289 6.60524 -3.538729 -2.023368 -1.316628
H 10.8098 4.15567 0.69147 -1.184214 0.45044 -0.438633
H 8.12609 2.26504 3.92607 -0.843744 -0.942232 0.43584
H 2.915 11.1362 8.7728 0.765575 0.280507 0.275261
H 9.75349 4.38489 3.30648 -0.262756 -0.397787 0.077991
H 8.88663 0.52812 1.67398 0.0795 -1.091786 0.837362
H 11.12 2.64647 1.12448 -0.272207 0.645423 -0.259172
H 5.76824 11.3789 1.44632 -2.460055 0.284153 1.102779
H 0.39909 10.5189 2.76766 0.474678 0.663311 0.551693
H 9.53613 1.79383 9.75445 0.21906 -0.547032 0.108599
H 5.32068 1.3525 0.71487 0.139339 -0.086798 0.735981
H 3.36414 1.46673 4.5981 1.785111 -0.141026 -0.20762
H 5.26306 3.93221 7.15173 0.182473 1.490966 0.582791
H 0.287 6.32541 10.0928 -0.403478 1.332972 0.26112
H 0.68809 12.2559 1.22841 -0.072141 -2.222384 1.273352
H 6.51872 7.39216 11.319 0.866673 -0.618202 -0.469587
H 7.22936 11.7428 1.36494 -0.394316 -0.623279 -0.575998
H 8.45954 1.61867 0.23585 -1.282779 0.258866 -0.576282
H 2.13478 10.6762 7.26262 0.341771 1.183148 -0.799199
H 1.62681 5.41046 1.15006 0.54433 1.32783 0.194811
H 0.88858 1.31366 9.79982 -0.279111 0.617655 -0.280304
H 1.62641 6.51352 7.48127 0.520674 -0.262856 1.159386
H 3.91079 1.57221 1.31841 1.041796 -0.625597 0.887515
H 7.02608 3.18087 6.20121 0.639129 0.530248 0.195747
H 8.43249 0.28408 3.17934 -0.651021 0.689729 0.432228
H 6.15137 10.8653 9.70648 -0.065834 -0.473338 -0.403434
H 11.3987 11.8599 5.02761 -0.281796 -0.512815 -0.503536
H 5.16226 0.19847 10.8881 0.348379 1.563138 0.377932
H 10.6741 4.61162 7.44689 0.554265 0.1703 -0.390618
H 8.70209 1.38119 6.34256 0.153027 0.213129 -0.121637
H 6.96663 9.60331 1.32363 0.367279 -1.274336 -0.315687
H 0.94022 1.46706 1.16947 0.764424 -0.211761 -0.030087
H 7.21208 3.51782 0.74999 -0.169405 0.827143 0.3438
H 2.08189 1.43324 5.40902 -0.726513 0.190282 0.115493
H 5.66196 10.7065 6.13782 -0.925401 0.355677 -0.344798
H 8.33112 0.8786 8.38285 -0.026575 0.176484 -0.042327
H 4.48915 5.17462 7.93529 0.012403 -0.280283 -0.574991
H 4.1934 10.3643 4.70559 -0.178535 0.914767 0.754706
H 9.4699 7.96073 9.36954 -0.592854 -0.295083 -0.014282
H 12.0324 2.24386 9.50993 1.271227 -0.249197 -0.28059
H 9.72387 2.30747 7.0896 -0.523657 -1.723717 -0.53244
H 10.5223 7.56188 5.18937 0.250013 -0.440694 0.122229
H 3.96246 9.56201 0.64077 0.770175 -0.778058 -0.228826
H 2.33172 8.00992 4.20114 1.250825 0.692679 0.045562
H 2.28291 2.27048 2.824 -0.438362 -0.379303 -1.493369
H 12.2245 8.0128 11.982 0.053627 0.171571 0.219458
H 8.6614 4.97084 0.16036 1.010345 0.171325 0.814652
H 0.24018 11.7801 9.98472 0.039305 -0.205608 1.069188
H 7.83434 4.28317 2.00603 -0.81462 0.398587 -0.876846
H 11.2664 8.01452 0.80793 0.143194 0.334641 0.072256
H 10.1153 3.22087 9.9987 0.106039 -0.315018 0.443918
H 9.4356 11.1355 2.76907 0.022749 0.306738 -0.124894
H 9.03777 9.87149 4.6613 0.319486 -0.01826 0.098443
H 4.8764 8.7911 3.75364 0.86531 -0.56171 -0.252605
H 0.47862 8.96069 4.42062 -0.794052 0.172578 -0.251677
H 6.42912 5.99527 12.175 0.011134 1.066771 -0.175265
H 3.45629 7.95528 11.5306 -0.334894 -0.010168 -0.961409
H 7.5785 8.79553 9.66001 -0.303671 1.158464 -0.285382
H 1.77443 7.98777 10.0528 -0.590286 0.226925 -0.037317
H 1.81045 11.8425 10.5922 -1.61614 0.053047 -0.234809
H 0.30013 10.013 6.26931 0.058662 -0.849621 0.171957
H 7.28784 10.3027 5.99059 0.314639 -0.605791 0.938939
H 11.6219 4.07094 2.67148 0.246742 -0.692244 -1.755482
H 3.85131 9.5616 2.84036 0.454615 0.164306 -0.635446
H 10.3578 5.21733 9.22013 0.557494 0.2777 -0.644556
H 9.19701 8.854 5.91622 -0.410829 1.349707 -0.512067
H 9.73931 9.68179 2.50646 -0.093631 -1.018616 -0.872029
H 1.30753 7.04529 3.87189 -0.78133 -0.808044 -0.989241
H 2.91603 9.18044 9.87182 -0.763501 -1.091974 0.097994
H 2.519 5.42634 9.00818 0.252301 -0.018463 0.151534
H 6.41989 4.9224 9.11953 0.734376 0.175083 0.110871
H 10.5129 7.71936 3.03332 -1.452357 0.372672 -1.799595
H 1.73618 3.4623 5.11843 -1.403517 0.240684 0.973473
H 0.66119 0.48945 12.1733 -0.077026 -0.235389 -0.578284
H 3.00032 10.4039 1.24972 -2.423566 1.055858 0.363403
H 9.70967 6.67346 6.27926 1.213077 1.800394 -0.597184
H 4.9781 0.21385 4.63642 -0.205525 -0.26399 -0.361707
H 6.88747 7.9913 0.89597 -0.547161 -0.116146 -0.543746
H 3.3101 6.8249 8.94344 -0.724743 -0.964007 -0.427824
H 8.72844 4.48554 4.35264 -0.632977 0.713256 2.388294
H 11.4416 9.69918 4.06191 0.211292 -0.285614 0.06153
H 0.61049 3.70118 6.34809 0.727959 0.313382 -1.870629
O 11.682 11.0655 9.12201 1.374191 0.794242 -0.675696
O 0.68748 9.70859 7.12208 0.611134 1.468303 0.483871
O 8.28447 0.52477 9.28981 -1.877709 0.857443 1.70849
O 6.59935 2.40928 6.58279 0.125992 0.601824 0.879051
O 12.3735 9.81361 4.31955 0.651283 0.322408 0.233376
O 2.43591 1.61695 4.51925 -0.923418 0.514183 -0.261541
O 0.90469 3.93654 5.40843 0.236538 -0.398756 0.670333
O 9.49641 1.33486 6.90839 -0.095795 1.666249 0.455582
O 0.62791 10.7783 1.84076 -0.332534 -1.101158 0.27591
O 6.85507 10.5844 9.05101 0.217923 1.720629 0.673929
O 11.4674 3.55655 1.07619 1.429411 -1.166343 0.370433
O 5.31499 11.6761 10.9599 -0.092855 -2.589811 -0.276048
O 0.83657 6.90363 7.08246 -0.277392 0.099599 0.729233
O 12.1519 8.33935 0.51548 -0.438812 -0.404669 -0.505337
O 10.2261 7.56521 6.14193 -1.622026 -1.876496 0.621905
O 1.79914 7.15451 1.69071 -0.3277 -0.744358 1.0215
O 3.08062 5.9982 8.41486 0.408204 0.646622 0.562113
O 9.51722 7.68515 1.44897 0.946505 3.330865 2.289345
O 7.57349 7.86552 9.85215 -0.683241 -1.564381 -0.385384
O 1.58718 7.57508 4.60521 -0.305238 0.416988 0.524342
O 4.81499 1.19862 1.55416 -1.077542 0.627549 -1.147766
O 9.92487 10.3581 3.14057 0.457724 -0.199479 0.914109
O 3.06596 10.7976 9.68763 -1.299049 -0.407927 0.098595
O 0.63159 2.15415 9.30517 -1.613435 -0.637625 0.545781
O 5.3372 4.8697 7.4992 -0.205693 -0.910945 0.09561
O 7.27308 4.41354 1.16888 0.684743 -1.094111 0.363857
O 6.30752 6.97777 12.1793 -0.211895 -0.684155 0.210747
O 6.46375 10.3254 6.5907 1.09725 0.180588 0.088123
O 10.2716 2.25728 10.2022 0.119199 0.893901 -0.308341
O 0.49037 0.66111 0.74638 -0.69068 1.999226 -1.027081
O 4.02106 9.20109 3.7357 -1.151327 0.100538 0.672934
O 3.92397 10.2959 1.29656 1.201951 -0.229262 0.174165
O 6.98242 7.07745 7.4968 -0.493589 -0.493962 -0.461455
O 7.12707 4.83993 9.81832 -0.752547 0.107165 -0.665884
O 8.79071 4.21177 3.46607 0.701682 -0.855505 -2.288856
O 2.70703 11.5426 7.19206 0.131167 -2.871077 0.58823
O 9.38843 1.57785 0.43625 0.200663 -0.710762 2.630223
O 11.6142 4.7173 7.72997 -0.318708 -0.177484 0.252681
O 7.7699 1.38754 4.26626 1.951057 0.760329 -0.232259
O 4.42614 11.1443 5.34968 -0.785662 0.47068 0.432534
O 9.77367 4.97828 9.938 -1.319741 -0.70347 0.328881
O 8.52797 12.2286 2.32147 0.390461 1.046307 -1.727657
O 3.94061 8.07476 12.356 -0.550365 0.732471 1.234756
O 0.07381 7.287 10.291 1.139512 -1.357963 0.322657
O 11.0904 7.34881 3.66736 1.35578 -0.5363 1.607089
O 7.31639 8.66293 1.45102 -0.756789 1.881553 0.907694
O 1.67054 4.71676 0.48285 -1.965172 -2.351404 0.485911
O 11.4439 4.53323 3.47515 -0.027433 1.223871 1.438962
O 8.83674 9.77274 5.61196 -0.306226 -0.769067 0.380474
O 2.15635 2.22651 1.8064 0.409747 1.070775 1.128832
O 10.3324 8.05611 8.94671 0.649819 0.242258 0.109461
O 0.86788 12.2053 10.6955 1.534175 0.356602 -0.103126
O 1.61197 4.45559 9.96548 -0.174276 0.100907 1.083604
O 11.4992 12.2853 5.86663 1.227818 -0.260957 0.786446
O 1.10045 1.29367 6.81938 3.261222 2.766306 2.54667
O 2.72264 8.18837 10.0161 1.036482 0.741377 -0.141537
O 5.13657 1.12018 4.269 0.453616 0.097468 -0.12956
O 9.63194 5.24464 0.14936 -0.591739 -0.191354 -2.616559
O 6.49588 11.2249 0.89229 2.681464 0.024704 -0.407997
N 9.40943 10.2109 10.9077 0.159736 0.154829 0.650268
N 4.50069 8.63566 7.53322 3.060989 2.693479 4.479303
N 4.48266 1.92391 7.9892 -2.186134 0.635507 2.284821
N 6.68494 6.23146 3.79558 0.54958 -2.585142 -0.282975
N 3.82131 5.03374 3.57241 0.74885 -0.146201 -2.052298
N 3.82403 2.32765 8.80734 1.735382 -1.046009 -1.980382
N 6.46277 7.28647 3.9452 -0.649742 2.613375 0.410825
N 3.93159 8.15742 6.76158 -3.15276 -2.66628 -4.479052
N 3.40301 5.0986 4.57957 -0.605921 0.157721 2.015797
N 9.69117 10.4255 11.9578 -0.208234 -0.092646 -0.481693
N 11.0586 1.53966 3.5162 1.459944 -0.456796 -0.084778
N 12.1191 1.19446 3.5144 -1.612604 0.572164 -0.190579
Cl 8.77003 4.6505 6.67144 0.080213 0.126928 -0.14802
Cl 6.69257 1.84919 11.577 -0.135354 0.415602 -0.273803
193
energy=-1083.90345336 config_type=nep2xyz pbc="T T T" virial="-4.272723192507501 -8.598687929450195 -1.0070672640529061 -8.598687929450195 -12.552866271389687 -2.5757530904827752 -1.0070672640529061 -2.5757530904827752 -7.590394943654592" Lattice="12.4 0.0 0.0 0.0 12.4 0.0 0.0 0.0 12.4" volume=1906.6240000000003 Properties=species:S:1:pos:R:3:force:R:3
H 8.36365 0.59774 8.05307 0.545117 -0.193563 0.295794
H 6.65622 10.567 7.60738 0.089195 1.120762 -0.595168
H 2.26115 6.41306 0.44272 -0.297574 -0.721583 -0.18928
H 9.02703 3.43492 7.58314 -0.099775 0.313191 0.036972
H 6.56598 6.89697 10.3399 1.649185 -2.576146 0.100134
H 8.9728 1.91495 6.31834 -0.407099 0.106256 -0.313805
H 6.83487 4.82587 9.21088 -0.23668 0.225286 -0.159267
H 3.9503 9.11644 9.46931 -0.371409 0.32318 -0.00336
H 4.82511 1.91847 6.91963 -0.067569 -0.792825 0.547474
H 1.09638 11.4037 8.25948 -0.702426 -0.538097 -1.007838
H 0.36819 7.63433 2.18441 0.549857 -0.753299 0.728054
H 5.58143 8.61198 1.12208 0.4042 -0.237428 1.667714
H 7.70242 2.31411 10.4263 0.214214 -0.064497 0.094816
H 3.45039 1.9143 1.91375 0.493675 1.294811 -0.34742
H 12.1445 0.17636 2.91692 0.238703 0.204328 0.099424
H 2.9931 11.1793 10.8261 -1.082864 0.328045 0.673001
H 1.98191 3.58878 9.63846 0.712614 0.99538 0.220621
H 1.48879 0.77584 3.96828 0.503583 -1.04459 0.242318
H 0.65069 9.68123 9.79164 -0.321023 0.535926 -2.94343
H 9.53595 3.05047 9.8717 0.752576 0.048484 -0.576278
H 10.2593 7.19507 9.30308 1.059058 -0.83191 -0.126669
H 12.2239 9.77695 4.55762 -0.971137 -0.506235 -1.543927
H 3.71011 8.14797 12.2783 0.120423 0.018404 -0.224189
H 9.39477 8.37198 7.81896 -0.157259 -0.166529 -0.962534
H 8.13996 4.69046 10.0478 -0.563031 0.66307 0.062887
H 1.28586 5.15614 0.03426 1.416958 0.898881 1.364227
H 4.85973 10.4926 6.00322 0.409875 -0.001107 -0.117713
H 3.38791 7.72176 7.00935 -0.11765 -1.114719 -1.336121
H 10.5139 10.7873 10.3409 -0.481778 -0.148965 -0.757243
H 2.76412 3.03442 8.45239 0.651842 1.379742 0.815307
H 7.32203 11.5806 11.8728 0.338641 0.349372 0.89875
H 11.5856 5.87972 8.2086 -0.616529 -0.716735 0.064922
H 0.49848 3.81952 6.50524 -0.436786 -1.521192 0.05263
H 10.6109 4.753 6.39135 -1.63874 -0.560214 -0.489087
H 10.6409 0.1401 2.77829 -1.76925 0.905112 0.203325
H 8.78154 6.7929 9.50772 -0.606985 -0.72909 -0.261448
H 5.30026 0.85215 4.25489 -0.197017 -0.472599 0.036315
H 0.1024 4.62113 10.324 0.28773 0.572986 0.30939
H 1.08666 2.10363 4.71528 0.420646 -0.210024 -0.708364
H 12.2142 1.37007 9.70918 -0.209552 -0.017635 1.679739
H 8.45849 4.32085 6.44536 -0.895106 1.485781 -0.582723
H 4.43023 10.9248 10.6792 0.375086 0.02181 -0.385298
H 10.2699 9.10827 3.99017 0.091947 0.484727 0.101255
H 11.1436 11.5481 9.00205 1.049479 -0.353667 -0.51623
H 11.9709 0.67117 11.1775 -0.056815 0.592305 -0.675666
H 7.01806 12.3012 1.81184 -0.26106 -0.011137 -0.607167
H 11.7975 10.3794 3.15852 -0.196374 1.423776 -0.234515
H 9.53113 9.4955 11.8374 0.064349 -0.110927 0.443326
H 7.04117 2.22782 1.48596 -1.131612 -0.403727 -1.279352
H 2.09109 10.5973 4.30934 1.193486 -2.350054 2.760214
H 5.61412 3.19392 8.12725 0.068215 -0.609647 -0.213673
H 0.9961 8.991 10.9532 1.176582 -2.043351 1.540472
H 9.72594 12.1007 12.3365 -0.877349 0.310216 -0.290208
H 6.50289 8.02662 2.75433 0.914883 -0.795696 0.217848
H 7.48443 11.6117 3.02048 0.598487 -0.184518 1.685988
H 9.54816 11.9683 9.4713 0.967412 0.330923 -0.056114
H 6.25007 12.1687 7.21065 0.125178 -1.196503 -0.429904
H 0.29584 3.3475 11.1117 0.341713 0.193939 0.29941
H 2.85964 0.97951 7.50268 -0.302211 -0.689045 0.053881
H 0.15824 6.65159 8.96062 -0.516674 -0.649874 1.007662
H 5.78575 1.68394 0.60423 -0.620922 0.315157 0.362939
H 6.22068 1.77576 6.3309 0.36793 -0.140071 0.020308
H 8.4167 1.95475 2.48633 1.081784 -0.181883 0.501302
H 4.64727 7.76258 9.29907 -0.136205 0.404623 -0.209236
H 0.29519 2.18788 6.87241 -0.409443 1.567167 -0.2631
H 6.98418 10.7536 10.6441 -0.777501 -0.050181 1.273552
H 11.814 5.6853 5.87956 0.024377 -0.538773 0.554075
H 10.6452 1.13376 7.20985 0.096119 0.040364 -0.135354
H 8.42158 10.6004 4.45928 0.280006 -0.332761 0.27781
H 3.37524 0.58022 1.14979 0.616351 -0.387687 0.390567
H 8.32121 10.2069 1.11454 0.345402 -1.345028 0.414663
H 1.79189 10.7712 2.92807 -0.132102 0.444246 -0.005847
H 3.56886 7.43478 5.44208 0.091213 0.248471 -0.471935
H 8.66252 0.43401 5.75702 0.673967 0.203652 0.659974
H 4.6811 4.32689 8.70798 1.168918 -0.557952 -0.579114
H 3.80104 9.77857 5.05416 0.268128 -0.290677 -0.139773
H 10.6258 2.94129 8.68017 -0.102387 -0.187214 0.521103
H 2.40654 2.41577 6.84483 0.051498 -0.872204 0.104098
H 12.0658 0.64436 7.67537 -0.507031 -0.260802 0.196727
H 7.04719 8.94556 9.56912 0.100991 0.439169 -0.352906
H 2.2312 9.36638 0.68966 1.16767 -1.126045 -1.125924
H 1.64488 6.97377 5.79913 -1.342787 -0.495664 -0.350205
H 4.37122 0.81375 2.61909 -0.277934 -1.640919 1.134813
H 11.4933 8.68443 0.09854 -0.220114 -0.080028 1.751645
H 5.85324 9.61277 12.34333 -0.168872 -0.269113 0.371145
H 3.06831 10.9722 7.27522 -0.50201 0.937294 1.078687
H 8.61052 8.56405 1.37457 -0.287144 -0.069202 0.319707
H 11.1973 8.99257 1.7001 -0.264934 -0.279251 -0.728728
H 9.66205 8.54805 10.6632 -0.025101 -0.420173 -0.916355
H 8.8044 0.85195 1.48304 0.15911 -0.324255 0.615
H 11.5439 11.8637 0.6292 0.093153 0.165024 0.934239
H 4.2695 8.42388 3.35826 -0.753031 -0.364061 1.010639
H 12.3293 8.34656 6.08604 -0.100693 2.050634 0.641501
H 6.26371 9.57409 2.78265 -0.277025 -0.339145 0.305065
H 3.00278 7.67456 11.0036 0.063183 -0.318907 -0.832227
H 5.88529 7.97793 11.2375 -0.075799 -0.139939 0.915431
H 1.53578 0.42856 12.3658 -0.311564 0.458999 -0.291011
H 3.04618 11.194 8.89006 0.70025 -0.002618 -0.043657
H 12.23003 10.7175 7.39084 0.744724 -1.128972 -0.924587
H 7.04164 2.58311 3.94636 -0.407015 -0.942475 0.709943
H 1.23875 6.32797 2.38476 -0.162917 -0.136325 -0.60183
H 2.71811 8.06733 3.20554 0.129539 -0.086064 1.014098
H 7.68554 12.0451 9.14386 0.639243 0.955371 -0.256586
H 7.40936 1.04511 4.07505 -0.454917 0.33932 0.48265
H 11.8576 11.0071 11.8021 0.813087 -1.568664 -0.667224
H 0.75208 6.92385 4.47143 -0.063836 0.246994 -1.200216
H 1.97051 11.4877 0.67865 0.585689 0.609818 -0.629611
H 2.13342 5.78915 8.6766 0.243358 -0.300338 0.056278
H 7.63478 2.27497 11.9205 -0.986555 -0.00572 1.538457
H 9.2633 8.71403 6.16424 0.027654 0.515689 1.248981
H 2.66291 4.10747 1.77892 -0.335965 -0.119402 -0.112944
H 8.68085 0.71792 11.678 0.379846 -0.087825 0.727706
H 0.85473 9.72033 1.08802 -0.597321 -0.574943 0.513666
H 8.31227 9.64994 8.88463 -0.732324 -0.117921 0.041508
H 4.22132 11.9311 4.47652 0.918399 1.909592 -1.345879
H 7.30552 11.2206 5.54291 1.615613 0.268476 -1.986222
H 2.58231 7.31933 8.82979 -0.367207 -0.468355 -0.100925
H 8.9337 8.36292 3.74126 -0.055407 0.35556 0.114631
H 11.0851 9.18119 6.63981 0.02018 0.256361 0.028711
H 2.19968 2.86932 2.72447 -1.845296 -0.249622 1.928551
O 9.35094 7.47357 9.13756 -0.484865 0.861145 0.43389
O 0.09812 11.2563 8.13708 0.13893 1.619912 1.548712
O 9.08477 0.95531 6.50655 -0.392485 -0.832373 -0.337795
O 5.72151 1.55968 7.14887 0.022048 0.392796 -0.635005
O 12.0405 9.32289 6.4065 0.376539 -2.507649 -0.938798
O 1.78291 11.2639 3.77738 -1.082652 2.044798 -2.787429
O 2.76199 3.17633 2.05001 1.436363 0.528174 -1.649653
O 11.466 1.42279 7.6913 0.225613 -0.488683 0.070501
O 11.8588 9.559 3.62928 0.851646 -0.985124 1.978391
O 3.90432 8.31472 8.9298 0.451927 -0.580126 0.07108
O 12.2568 1.49823 10.6994 0.354184 -0.009732 -1.104796
O 6.58529 11.0541 11.5289 0.007229 -0.775977 -2.127889
O 11.6971 6.14075 9.14738 1.16591 1.1152 -1.039881
O 11.8351 8.6501 1.04589 0.134743 0.524501 -1.399837
O 7.37942 9.79823 9.16125 0.222383 -0.248875 0.124758
O 1.87306 5.57426 0.78453 -1.420079 -0.610475 -0.928867
O 1.81502 6.69606 8.78985 0.030793 0.648102 0.253905
O 11.4195 12.0504 2.56223 1.413116 -0.734366 -0.773821
O 6.00706 7.63355 10.3399 -1.151958 2.27028 -1.107069
O 0.68336 6.84142 5.42832 0.945985 0.577062 1.925405
O 6.72671 1.59018 0.72944 1.202914 0.760121 1.263192
O 11.4787 11.8269 12.0657 -0.481192 1.063881 1.035576
O 3.5895 10.7388 10.2246 1.038236 -0.697187 0.867067
O 3.09976 1.89657 7.36109 0.069148 1.281352 -0.465428
O 5.58206 4.13713 8.30551 -1.157387 1.124512 0.94501
O 8.87455 9.39648 0.9069 -0.093518 1.611874 -0.528998
O 5.84945 8.70248 2.99686 -0.243396 1.265671 -0.678196
O 3.23943 7.05587 6.26934 -0.092065 0.853523 1.75033
O 10.0649 9.35056 11.0021 0.124979 0.971256 0.833189
O 8.78908 0.03272 12.39615 0.829474 -0.192487 -1.095719
O 3.42025 8.22288 3.89363 0.599296 0.741483 -1.744838
O 1.78591 9.89762 1.32255 -0.667095 1.709014 0.634213
O 7.47196 5.35145 9.76072 0.797709 -0.503236 0.207367
O 8.25956 2.43716 11.2147 0.711607 0.110544 -2.151151
O 9.3155 9.14749 4.23197 -0.364725 -1.105815 0.03666
O 6.55474 11.255 6.88102 -0.872316 0.145932 1.236197
O 10.5342 11.628 9.76232 -1.916728 -0.080998 0.439181
O 11.5189 4.95006 6.49158 1.949513 1.328066 0.126351
O 8.75946 3.45801 6.63164 0.888117 -1.197402 0.705427
O 4.02597 10.6032 5.52295 -0.546769 0.148649 0.310264
O 8.38194 0.34823 9.03362 -0.98 -1.261816 -0.106532
O 8.85631 1.05301 2.45314 -0.204301 0.833385 -0.451408
O 2.83667 7.87118 11.9207 -0.014071 0.511773 1.028162
O 0.55272 9.766 10.7061 -0.697495 1.581591 1.499406
O 9.45391 9.05585 7.09635 0.042154 -0.182762 -0.801287
O 7.92393 11.4102 4.69031 -1.351467 0.347479 1.972797
O 0.69155 4.24716 11.0166 -0.81959 -0.807278 -0.616813
O 0.92395 7.12243 2.83815 0.031444 1.01481 -0.339343
O 6.78971 1.69987 4.48193 0.689986 0.677155 -0.950222
O 4.04053 1.11868 1.70887 -0.954744 0.531443 -2.313216
O 9.88154 3.45515 9.038 -0.471967 -0.155181 0.298873
O 2.7236 11.5437 8.03528 -0.279719 -0.443239 -1.903754
O 2.74967 3.85709 9.07501 -0.984764 -1.704327 -0.665534
O 0.84643 2.88067 6.42093 0.80118 0.155803 -0.395337
O 1.42503 1.71804 3.85775 -0.851495 1.241762 0.589545
O 2.31255 12.3034 0.16659 -0.080703 -1.315664 0.846059
O 4.51443 0.35613 3.89066 -0.006756 -1.179228 1.918617
O 5.40148 8.76242 0.20721 -0.323602 0.925582 -1.951382
O 7.09017 11.4107 2.18329 -0.808091 -0.68341 -1.518091
N 10.304 5.09621 11.6105 -0.130025 -0.56733 0.010532
N 6.31476 7.79979 6.15229 0.259693 -0.625988 0.675771
N 4.82249 1.83915 10.699 -2.414065 -2.93612 -0.803493
N 5.27941 4.43074 12.2384 0.650534 -0.389322 0.071355
N 4.66485 4.29513 4.67204 -0.146669 0.018185 0.102181
N 4.09962 0.99557 10.4865 2.467825 3.247943 0.672872
N 4.30002 4.93366 12.233 -0.168641 0.39692 -0.267203
N 6.67724 7.02856 6.8648 -0.255119 0.665859 -0.688848
N 3.88193 3.90898 5.35057 0.1341 0.084477 -0.141048
N 10.326 6.14314 11.9503 -0.023571 0.599434 0.172654
N 11.663 4.71727 2.68751 0.291851 1.427759 0.675008
N 11.3923 3.7288 2.30443 -0.421622 -1.627682 -0.67067
Cl 8.27547 6.79091 2.41238 -0.008201 1.658558 -0.113829
Cl 7.70022 3.99107 2.74195 -0.39486 -1.928284 0.004031
193
energy=-1086.53288644 config_type=nep2xyz pbc="T T T" virial="-1.9319873709229465 -1.4591800839415694 2.4345451856396796 -1.4591800839415694 -7.380034912143434 -1.4671413251635506 2.4345451856396796 -1.4671413251635506 -1.4916795604396724" Lattice="12.4 0.0 0.0 0.0 12.4 0.0 0.0 0.0 12.4" volume=1906.6240000000003 Properties=species:S:1:pos:R:3:force:R:3
H 8.82293 3.28288 9.26689 -0.968934 0.765506 0.112311
H 4.62277 12.1045 8.78799 0.878837 -0.329913 -0.649394
H 2.3022 6.38787 0.98273 0.37524 0.100287 0.083267
H 10.7025 1.14999 5.67838 -0.445272 -0.274526 0.189925
H 5.35581 6.82517 9.15918 0.07172 1.155527 0.314163
H 6.90461 1.84449 7.29567 -0.563235 0.799611 -0.800923
H 8.43652 5.5344 9.05719 0.899766 0.666116 -0.948907
H 3.16205 9.51695 11.4179 -0.21028 1.574563 0.441593
H 6.0271 2.89151 5.61015 -0.162002 0.635618 1.544732
H 1.8685 9.89407 7.73622 -0.174632 0.609125 -0.082462
H 0.23761 4.61513 3.29116 0.441799 0.256203 -0.060823
H 6.79429 7.43231 12.3038 -0.469136 0.316438 0.241442
H 7.35929 3.70651 10.9549 0.005337 0.796875 -1.474776
H 1.79755 1.69557 12.1605 -0.435902 -0.737234 0.353481
H 10.1378 10.5906 4.27404 0.441521 -1.592552 1.809694
H 3.16085 11.9328 12.36277 0.794831 -0.698737 -0.74458
H 2.61456 4.05064 9.93071 -0.092846 -0.941504 1.934139
H 3.45912 1.78569 4.64159 -1.999727 -0.185877 -0.004101
H 12.1782 6.79856 10.5826 -0.84356 -0.68337 -0.688616
H 10.6011 5.67226 9.39561 -1.10712 0.461016 0.19834
H 11.2714 8.14842 7.71129 -0.423569 -0.07387 0.597587
H 11.7276 9.10698 1.77603 0.30404 -0.263594 -0.138273
H 4.24396 7.54807 1.73156 -1.539552 0.395495 -1.257774
H 10.3085 8.76188 6.1279 -0.297499 0.147034 -0.030432
H 9.09781 5.35799 7.61525 -0.022957 0.303817 0.091974
H 1.14685 6.26155 12.37541 0.124791 -0.498872 0.964335
H 5.14037 11.4038 6.67282 0.803078 0.211808 -0.586085
H 3.51583 9.13936 6.03749 -1.004729 0.066956 0.624327
H 9.9543 11.2936 9.12818 0.390983 0.236893 0.204178
H 2.29483 3.71043 8.45214 0.435897 0.723613 0.642536
H 6.87788 10.9682 0.129 -1.025617 -0.694966 -0.262448
H 0.5012 7.40651 6.16014 0.770233 0.140739 -0.448667
H 12.2872 0.56032 5.61805 1.603809 -0.680931 0.406863
H 0.20268 5.48874 7.26645 -0.897247 -1.527387 -0.549995
H 9.31368 11.6747 3.77344 -0.461515 0.286863 -0.428484
H 9.95583 7.47599 8.12111 -1.069975 -0.677065 0.591252
H 5.33136 1.75622 3.84432 0.217663 -0.206885 -1.192901
H 0.57035 2.85073 11.1768 1.414369 0.467606 0.544843
H 2.01799 0.98307 4.93663 0.203548 0.609542 0.108775
H 11.2335 3.04969 10.2212 0.017305 -0.137092 -0.389533
H 10.1375 2.58088 5.58593 0.38745 0.245916 -0.388677
H 4.60371 11.147 11.9098 -0.503947 0.405199 0.21612
H 11.5117 6.51425 3.62417 0.125279 -0.595283 -0.067905
H 10.1676 0.31723 10.9457 -0.128132 -0.649918 0.173053
H 11.7115 1.5396 10.1897 0.019126 1.046046 -0.237304
H 6.82913 11.9537 1.75308 -0.787672 1.217579 0.409963
H 11.4123 10.305 2.67756 -0.126862 0.70412 -0.190212
H 10.163 9.65251 8.42877 -0.553206 -0.386923 0.230054
H 5.83679 1.59334 1.75804 -0.184237 -0.667447 -0.262543
H 2.64814 11.5353 2.36004 -0.099766 -0.810527 0.042886
H 5.82886 4.52287 7.62685 -0.288635 -0.27086 -0.482396
H 1.0696 7.58142 10.6255 -1.255218 -0.068811 0.660499
H 11.9099 10.85 0.72554 -0.574141 0.552446 -0.346656
H 5.53025 6.95125 3.84112 0.381316 -0.189071 0.157833
H 8.28469 11.9511 1.09842 -0.541136 -0.176008 0.595991
H 9.63726 1.08161 9.75801 0.740542 -0.795678 -0.638091
H 6.06646 0.10836 8.17315 0.732472 1.390795 -0.285976
H 1.29981 3.84223 12.2964 0.236654 -0.380373 -0.141154
H 2.46559 1.5259 8.22069 0.42813 0.951088 -0.456258
H 1.02785 7.27539 7.70612 1.10134 0.433133 0.363666
H 4.69377 0.40659 2.07448 1.354146 0.768966 0.062979
H 7.28773 3.58641 6.13563 1.115943 0.663506 -0.115713
H 8.86578 1.60157 0.42835 -0.038869 0.073655 0.056235
H 3.91435 8.56175 10.5392 1.326116 -0.431945 -0.853645
H 0.64525 11.5675 5.47122 -0.009312 0.249269 0.002785
H 6.83014 10.5436 11.0104 -0.982922 -0.114496 0.212133
H 11.4124 4.62491 6.71191 -0.379606 -0.037824 -0.269474
H 9.01733 0.11108 5.75627 -0.175814 0.052771 -0.377625
H 7.71098 10.006 2.7569 0.317486 0.458119 -0.717989
H 0.19387 12.0698 0.11073 0.476174 0.862544 -0.622951
H 8.68319 6.17854 1.68279 0.260935 1.295528 0.786888
H 2.77076 0.56955 3.01655 -0.465468 0.613552 0.806914
H 3.68289 8.33872 7.36162 0.174839 -0.338153 0.490116
H 7.58663 1.64674 8.61829 -0.165988 -0.820283 -0.948664
H 4.47718 4.8333 8.45805 1.366599 -0.179991 -0.080893
H 4.64991 10.7309 5.39009 0.073192 0.093088 -0.764637
H 11.7886 5.08101 8.81557 0.392465 -0.146547 0.736161
H 1.70536 2.14843 7.04357 -0.349497 0.121543 -0.502608
H 9.4157 11.7079 6.93933 0.799022 0.303203 -0.058365
H 6.51698 9.39042 9.05249 0.545023 -0.197733 0.278019
H 2.36712 9.00544 1.97516 0.39894 0.441721 -0.117041
H 2.247 7.59211 4.78185 -0.895219 -0.128335 -0.663868
H 2.05258 0.56172 0.8654 0.31028 0.110995 1.478561
H 11.5057 7.54626 0.39062 0.553462 -0.095595 -1.060478
H 6.0301 8.78658 12.1845 0.421512 1.540698 0.003754
H 2.32037 11.9717 9.04689 -0.952805 -1.425504 -0.690075
H 9.47469 6.97411 2.80279 0.164638 -0.498323 0.70759
H 10.3735 7.32803 1.39443 -0.969153 -0.09089 0.098408
H 8.69937 10.4307 8.70282 -0.70015 -0.692397 0.062739
H 10.1973 0.90935 0.8421 2.028011 0.252472 1.55268
H 12.0534 1.3029 2.60547 -0.122047 -0.036703 -0.599584
H 4.24168 9.04463 4.06014 1.810022 -1.821793 -0.984492
H 1.21415 9.56897 4.81468 -0.238921 0.243476 0.351696
H 6.1597 8.33619 3.34138 0.992153 0.136607 0.151196
H 3.61623 7.94016 0.24523 -0.033672 -0.221409 0.60247
H 5.67969 7.55604 10.5333 -0.455913 0.38642 -0.719761
H 0.22788 10.2924 9.36713 0.240739 -0.142976 1.010674
H 2.94518 0.13885 10.3017 0.042519 -0.073287 0.754111
H 0.90271 11.1599 7.39617 0.94775 -0.922548 1.020211
H 7.55578 0.65797 4.07711 -0.508389 0.153 -0.407252
H 0.76152 5.63814 2.10242 -0.498357 -0.174579 1.466781
H 2.93295 9.76911 3.63679 0.742385 0.026839 0.672195
H 9.67989 2.62521 8.1058 0.248372 0.269623 -1.022066
H 7.07939 11.5703 4.38745 -0.379279 -0.098239 0.14135
H 11.1863 0.07768 2.81267 -0.87136 -0.97592 1.002963
H 1.18962 6.88192 3.77102 0.10463 -0.523884 0.308035
H 12.3872 9.10691 10.526 -0.466333 0.702837 -0.459037
H 2.25606 6.14841 9.24894 -0.00336 1.350252 -0.352375
H 6.59466 4.32057 9.62493 0.097476 -0.128315 0.002212
H 10.4074 8.05878 4.68883 0.267628 1.224642 0.805506
H 11.9471 2.53498 4.22302 0.666811 0.899383 -1.213555
H 12.0527 10.8014 11.3726 0.051132 1.026182 0.166434
H 1.12407 9.87855 2.48142 1.29732 0.217252 -0.476772
H 6.52233 10.8892 8.87995 -0.396054 0.224548 -0.05721
H 5.24146 0.72949 4.96814 -0.192951 -0.185981 0.345146
H 8.33484 9.06171 3.85495 -0.91524 0.598498 -0.385526
H 2.53684 7.79709 9.51222 0.776863 0.12891 0.594504
H 10.2825 5.94948 4.572 0.710705 1.118494 -0.804944
H 12.1223 9.6359 5.12503 -0.1336 0.378561 0.29592
H 1.05705 2.65276 3.85837 0.531408 -0.023673 -0.089743
O 10.367 8.34905 8.1055 2.322076 -0.183069 -1.321648
O 1.33368 10.63 8.14592 -0.911794 0.629576 -0.947839
O 7.28541 1.13647 7.8149 0.690418 0.094545 1.702561
O 6.39517 3.39751 6.4169 -0.892206 -1.318116 -1.397229
O 0.55849 10.1398 5.27251 -0.001073 -1.558935 -0.812695
O 2.91757 0.04912 2.22139 0.962401 0.412751 -0.597572
O 0.1884 2.89768 3.49131 -1.26474 -0.697739 1.24419
O 9.80905 12.3156 6.28234 -0.613782 -0.713276 0.663657
O 12.0599 10.0266 1.99607 -0.909547 -0.972335 0.181341
O 3.12526 8.63033 11.0597 -0.929001 -0.80267 0.322003
O 12.0155 2.48269 10.1351 -0.247287 -0.982554 0.239564
O 6.24444 10.5798 11.8143 1.605133 0.355334 0.050283
O 0.32373 7.12937 7.06492 -1.807252 0.006593 0.067777
O 11.3256 7.46039 1.31877 1.080158 0.813974 0.540917
O 7.10894 10.1595 9.20811 0.433114 -0.544891 -0.028268
O 1.56102 5.7857 0.74613 -0.649254 0.373825 -1.250479
O 2.0274 7.13371 9.05736 -0.686648 -1.867623 -0.444179
O 10.1047 11.1601 3.53334 0.067301 0.981258 -1.288789
O 5.33555 7.73018 9.59864 0.451819 -1.378903 0.101033
O 1.35237 7.64668 4.36961 0.786333 0.65375 0.853894
O 5.66703 0.71603 2.19368 -1.318264 0.179768 -0.058678
O 11.6472 0.5365 2.13017 0.994714 1.399682 -0.494713
O 3.61633 11.213 11.8461 -0.149855 0.000198 0.054709
O 2.4919 2.29206 7.57082 -0.086866 -0.817024 1.061549
O 5.47614 4.9664 8.41435 -1.583864 0.504574 0.906336
O 8.89556 7.09254 2.03306 -0.99068 -1.317685 -1.306064
O 5.37411 7.77019 3.37486 -1.342898 0.042225 -0.490582
O 3.06266 8.90831 6.90858 0.490606 0.227548 -1.048766
O 9.66341 10.5625 8.48989 -0.329109 1.382005 0.34254
O 11.832 11.4816 12.2953 0.54339 -2.054043 -0.156013
O 3.6383 9.66676 4.39619 -2.115741 1.553061 0.627105
O 2.14999 9.88907 2.37008 -1.291392 -0.670987 0.241818
O 9.0627 5.97275 8.39023 -0.949878 -0.831796 1.010929
O 7.47373 4.0514 9.97979 0.048315 -0.293611 1.544157
O 10.6424 6.74735 4.0382 -1.007828 -1.077206 0.785016
O 5.43972 11.7865 8.27814 -2.257387 -0.524275 0.999425
O 10.1688 0.24306 9.96766 -0.615907 0.960209 0.457764
O 12.1746 4.5515 7.29369 1.079026 1.304377 0.636742
O 10.7711 1.96579 5.15888 0.101652 0.091985 -0.022069
O 5.37545 11.3006 5.70414 -0.714304 0.217016 0.683108
O 9.42501 2.57921 9.01362 0.436219 -0.946174 1.12728
O 9.41812 0.80196 0.34021 -2.170865 -0.479551 -1.513397
O 3.391 7.66975 1.17304 1.372053 -0.143625 1.126588
O 0.15117 7.56078 11.0598 2.048511 0.445637 -0.073913
O 10.3545 8.99311 5.18763 0.315922 -1.114505 -0.76656
O 7.4961 9.46285 3.51898 0.37638 -0.883362 0.959303
O 1.45135 3.06693 11.7224 -0.929338 0.59196 -0.515289
O 0.47788 5.56846 3.10538 -0.029799 -0.082619 -1.435448
O 7.77559 12.2285 4.49474 0.99545 0.234047 0.27418
O 1.73444 0.68315 12.3785 -0.473507 0.283046 -1.5694
O 11.4867 5.4731 9.69882 0.721739 -0.473409 -0.492441
O 2.94702 0.21283 9.34486 0.957787 1.00167 -0.235977
O 2.54677 4.4694 9.09873 -0.07545 0.415672 -2.353547
O 0.74813 0.09816 5.83721 -1.266671 1.069318 -0.174133
O 2.43199 1.74205 4.44824 1.528746 -0.568399 -0.033344
O 12.1913 10.0676 10.2579 0.062039 -0.536779 0.05089
O 5.02889 1.66541 4.74347 0.312225 0.035921 0.962979
O 5.91565 7.83972 12.2013 0.333423 -1.770429 -0.168201
O 7.56271 11.3897 1.51003 1.702896 -0.622123 -1.034649
N 9.28271 8.54262 11.4301 -0.414561 0.573478 0.747543
N 7.40128 8.31644 6.11606 3.844292 3.251689 -1.9283
N 4.38883 2.20866 10.6185 -3.837978 1.171746 1.673624
N 3.9102 4.54068 2.88764 0.405964 1.999729 3.307298
N 3.37984 5.47379 5.8554 -1.424226 -0.558481 0.349678
N 5.35846 1.9525 10.219 3.92216 -1.115123 -1.571158
N 3.81262 3.99876 1.95587 -0.395057 -2.047201 -3.341719
N 6.65493 7.66336 6.52874 -3.911861 -3.303236 2.057866
N 2.37146 5.05302 6.07993 1.652177 0.558785 -0.433957
N 8.86777 9.15228 12.2629 0.529813 -0.551199 -0.874481
N 10.7571 3.3561 0.73519 0.243496 -0.43782 0.241865
N 10.4677 4.32703 0.30447 -0.183582 0.658918 -0.188179
Cl 9.34632 4.47501 5.79042 -0.235287 0.118164 -0.015717
Cl 7.04765 3.27862 0.61397 0.201758 -0.29139 -0.036626
193
energy=-1085.73866644 config_type=nep2xyz pbc="T T T" virial="-4.719409516137234 1.2452856897354514 1.2486891501083761 1.2452856897354514 -22.274541421160833 -1.9020464398100838 1.2486891501083761 -1.9020464398100838 0.4301926310532526" Lattice="12.4 0.0 0.0 0.0 12.4 0.0 0.0 0.0 12.4" volume=1906.6240000000003 Properties=species:S:1:pos:R:3:force:R:3
H 9.18705 3.05118 10.322 -0.454024 0.56344 -0.523145
H 2.79605 12.3888 7.97479 1.727277 -0.700112 -0.652114
H 2.00456 6.62811 1.07777 -0.775262 -0.425273 0.678174
H 8.09842 1.77367 3.5563 -1.373062 -0.431273 -1.353571
H 7.17073 6.06449 8.37521 -0.798017 -0.699233 -0.341939
H 6.20404 1.05251 8.1179 0.160601 1.426647 -0.629581
H 8.7223 6.46856 6.90973 -0.737343 -0.11862 0.309649
H 6.69717 9.10308 10.8883 -0.247339 -0.810122 0.560077
H 5.57289 2.56859 6.00926 -1.378916 -0.450089 -1.005664
H 1.22583 9.47314 7.92201 1.155619 -1.08274 -0.713499
H 11.87 4.26354 3.55814 -0.016869 0.613765 0.397705
H 8.67078 5.77893 10.8694 -0.651982 -0.817469 0.325252
H 7.57167 3.80826 11.6105 -1.035855 -1.195295 2.108828
H 2.0319 2.4864 0.27988 0.283821 0.867923 -1.418359
H 9.23587 9.70327 5.03473 -0.547214 0.365255 0.197249
H 2.96812 10.5951 11.8454 -0.334161 -0.22762 0.980569
H 3.1647 4.38941 9.9458 0.849501 0.333629 -0.184762
H 0.6965 2.74569 6.19075 -0.846324 -1.680351 -1.277355
H 1.01805 7.02752 9.95588 -0.77713 -2.166895 -1.842706
H 11.4011 5.51686 9.00441 -0.414671 -0.265084 -0.249773
H 11.9083 8.98164 8.62861 0.551573 0.328519 0.075793
H 11.7192 9.40575 1.4744 -1.10732 -1.039558 -0.199367
H 4.36347 7.29085 0.56135 0.660531 0.241768 0.94049
H 10.5347 8.68606 6.92798 0.120412 0.469748 -1.169615
H 9.22469 5.32575 5.91396 -0.074748 0.892464 0.658124
H 0.47872 6.61924 0.73099 0.582807 -0.18693 1.372075
H 3.64842 11.8216 6.0001 -0.219963 0.116874 0.035088
H 4.10716 8.93825 9.02947 -0.082597 -0.54177 0.915267
H 9.75656 11.6814 10.5002 -0.415685 1.258596 0.551992
H 2.99275 4.56198 8.47769 0.670646 0.266145 0.04701
H 6.13708 11.3434 11.6909 0.33524 -0.710954 -0.363274
H 2.54561 8.21949 5.92888 -0.141145 -0.110634 -1.382864
H 11.7239 12.2777 6.41114 -0.407322 -0.527942 0.071042
H 0.90047 7.00517 6.39334 -0.977691 -2.29776 -0.377069
H 7.91777 10.6539 5.32732 0.743289 -0.673942 -0.345602
H 10.8552 7.97035 9.21371 0.044218 -0.493901 0.062809
H 4.87107 2.01246 3.65855 0.279935 -0.26461 -0.172334
H 1.40924 3.42202 10.8829 -0.834316 0.095486 -0.363774
H 0.36318 1.19789 5.72527 0.325043 -0.023186 0.320239
H 11.7447 2.75199 10.097 -0.150082 0.049964 -0.064889
H 8.56242 1.68964 4.81557 -0.956414 -1.265859 1.000378
H 4.2216 11.2319 11.1225 0.795308 -0.292984 -0.139183
H 10.5756 6.55554 2.90554 -0.812088 0.691667 0.605631
H 9.61757 0.02814 12.1311 -0.590907 0.35232 0.199129
H 0.44726 1.65772 10.0054 0.564671 0.575446 -0.031761
H 5.81022 12.3349 1.25884 0.780672 -0.133889 -0.159787
H 12.0832 10.2776 2.78715 -0.09703 -0.70981 -0.085343
H 9.82331 10.2266 8.93669 1.923887 -2.239563 -0.749778
H 5.10324 2.17521 1.53844 -0.133169 0.317149 -0.420863
H 3.01563 1.84116 3.55543 1.667082 0.143273 0.390014
H 6.21475 3.79558 8.15822 0.062184 1.117593 0.756564
H 2.37462 7.71033 10.419 -0.495894 -0.165121 -0.390417
H 0.19573 11.4578 1.02996 -0.45604 0.550881 -0.474392
H 6.58355 6.78037 1.15102 -0.360058 0.349388 0.314911
H 7.4068 11.8957 0.93619 -0.967091 0.221304 0.276612
H 9.74297 0.99219 10.6708 0.215191 -0.358243 -0.002356
H 4.39104 12.3178 7.86993 1.689785 0.835675 1.047156
H 1.86998 4.78984 11.649 -0.002258 -1.139903 -0.531633
H 0.99433 3.41118 8.55882 -0.458643 -0.171528 0.443002
H 3.14833 8.46279 7.25529 1.270867 0.365898 1.139547
H 3.67499 1.39357 1.31944 -0.011207 0.510107 -0.247004
H 6.98486 2.71631 6.40799 -0.010987 0.035446 0.710376
H 8.55462 1.00759 1.20106 0.482589 -0.86879 -0.713548
H 6.4942 8.08265 12.1408 -0.126229 0.132547 -0.277785
H 0.24971 11.3381 5.41036 -0.50448 0.575955 1.00177
H 6.45765 11.3072 10.1234 -0.401742 0.001048 0.180367
H 0.13525 5.95699 5.38377 0.195034 0.162102 0.804406
H 9.71395 1.01265 7.11845 0.224548 -0.625506 0.559064
H 6.51237 10.4808 2.06351 -0.063949 -1.285164 1.241877
H 0.88173 0.45933 0.46521 -0.144631 0.176822 -0.181601
H 7.79219 5.00111 1.28095 0.217839 0.451424 0.553279
H 1.68919 2.08213 4.27895 -0.17818 -0.327792 -0.551945
H 3.57761 10.1185 8.14066 -0.360581 1.252844 0.216553
H 6.4302 12.0323 7.63043 0.194786 0.289173 -0.26947
H 5.20805 4.62488 8.99165 0.003237 -0.07599 0.143786
H 3.5817 11.214 4.50585 -0.17209 -0.740452 -0.864399
H 12.3164 6.41859 8.10995 -0.318175 -0.428664 -0.903946
H 0.88601 4.57042 7.4415 1.14146 -1.158934 0.67281
H 9.75001 12.1032 8.13647 -0.024979 0.526912 -0.586896
H 6.81955 8.62497 8.17397 0.072272 -2.322591 0.008096
H 2.83057 8.90583 0.50818 0.156485 0.404325 0.597828
H 2.39482 8.6796 3.62381 -0.51798 -1.162851 -0.487086
H 1.61766 2.01844 1.61773 0.41244 -0.875704 0.420247
H 12.2886 7.7591 11.4015 -0.129973 -0.095521 0.435214
H 8.48866 7.35105 10.8273 -0.081447 -0.808779 0.112327
H 1.15407 11.9542 9.35587 0.032645 -1.076704 -0.701331
H 8.58686 6.13269 2.14672 -0.686882 0.17474 -0.474691
H 10.8252 7.59919 11.9663 -1.857259 -0.793742 -0.738489
H 8.31271 10.6159 8.73748 1.754435 -0.117565 1.48736
H 9.63921 0.0 1.7447 -0.078772 -0.567526 0.308631
H 10.3872 0.94795 3.147 0.30127 0.136401 0.594329
H 4.73443 9.92232 3.15957 0.130874 -0.189888 -0.160734
H 0.61484 9.06206 4.374 -0.911756 1.400781 0.040647
H 6.1653 8.09609 1.75587 0.523068 2.485911 2.394419
H 3.47744 7.13374 11.741 0.003423 0.181445 0.115828
H 8.21082 6.91943 8.99713 -0.409514 0.002362 -1.116364
H 12.0072 9.75561 11.4277 0.137626 0.731425 -0.023165
H 2.44986 12.0605 10.4107 -1.232018 -0.239285 -0.48971
H 0.4692 10.7396 7.56744 -0.111988 0.636072 -0.617664
H 6.85196 12.1894 5.08409 0.01761 -0.42817 0.803741
H 0.24866 5.33692 2.82468 0.297044 0.464616 0.084636
H 3.35614 9.9887 2.36623 -0.081108 0.123932 -0.979635
H 9.78176 2.46981 8.92263 -0.527918 0.355602 -0.751249
H 5.63515 11.5456 5.67943 -1.843001 -0.406452 -0.511525
H 9.55497 12.1084 3.68106 1.019452 0.06665 -0.449696
H 1.31177 7.45518 3.05173 1.389216 1.307773 1.204612
H 0.18853 10.5774 10.2057 0.22158 -0.302249 -0.436486
H 4.18919 6.36749 9.74038 0.200483 1.49001 0.29013
H 7.24196 4.21667 10.1249 -0.36505 0.134079 0.005523
H 10.2657 7.53359 6.1052 -0.430173 -0.996939 -1.044513
H 9.98417 3.21961 3.67173 0.12565 -0.360111 -0.266353
H 0.0728 11.671 11.767 0.011548 0.183608 1.484511
H 1.60286 9.57497 1.20232 0.695104 0.678237 -0.129209
H 6.12565 9.9632 8.04625 -0.329163 -0.244178 -0.042349
H 4.40691 0.85782 4.63155 -0.111836 -0.645108 0.027633
H 7.03346 9.68105 3.44595 0.094034 0.472564 -0.351074
H 5.07283 7.55567 10.5263 0.950482 -0.125197 -0.010293
H 9.58933 6.9757 4.00912 -0.265177 -0.101146 1.261245
H 11.6525 9.41245 5.05677 -0.297482 -0.029963 0.009495
H 10.9969 2.58796 4.57975 0.989399 -0.419356 1.5671
O 10.9726 8.80573 8.75497 -1.050909 0.192661 -0.104189
O 0.77743 10.2058 8.31998 -0.664738 0.66004 0.943741
O 6.14317 0.15269 8.40767 -0.116927 -1.606125 0.373105
O 6.08856 2.63944 6.80747 1.509563 0.132371 0.594649
O 12.358 9.85837 4.54176 1.154754 -1.250076 -0.283936
O 2.09071 1.73738 3.44616 -2.130429 0.260473 -0.213581
O 10.7115 2.56785 3.67618 -1.137724 1.106231 -1.324855
O 10.2444 0.2645 7.49224 0.023121 0.357094 -0.153011
O 12.2994 10.043 1.8464 1.394699 1.574224 0.32734
O 6.71363 8.14307 11.1722 0.070958 0.650367 -0.800219
O 0.31058 2.64215 10.0007 -0.483667 -1.045601 0.102979
O 6.05424 10.7987 10.852 0.134054 0.659318 0.138256
O 2.33517 8.17031 6.84948 -1.650996 -0.409683 0.049076
O 11.6937 7.8611 12.1834 2.16977 0.937881 0.225291
O 6.98644 9.54253 8.14897 0.648269 2.776786 0.106849
O 1.11135 6.32714 1.46303 0.326553 0.915728 -1.875023
O 4.23462 7.33407 10.0849 -1.181935 -1.389653 -0.404005
O 8.64876 10.4121 4.69464 0.000407 -0.086736 -0.137822
O 7.66453 6.86191 8.14067 1.010526 0.404253 1.597895
O 1.7274 7.95917 3.84638 -0.406242 0.000577 -0.767796
O 4.5662 1.39635 1.70634 0.54855 -1.073227 0.590533
O 10.3399 12.3724 3.11203 -1.074563 -0.535632 0.116593
O 3.2664 11.1672 11.1363 0.08186 0.351873 -0.786915
O 1.47065 3.83157 7.83328 -0.65477 1.518826 -1.478988
O 6.18312 4.51461 8.88124 0.784004 -1.13332 -1.213713
O 7.84001 5.95834 1.50765 0.583066 -0.683022 -0.103076
O 5.87289 7.50714 1.10951 -0.045655 -2.477896 -2.267031
O 4.17185 9.37956 8.18955 0.841327 -0.477681 -0.983779
O 9.20228 10.8257 9.27058 -3.611654 1.791115 -0.476872
O 0.11123 12.2256 0.3563 0.6094 -0.351417 0.401088
O 3.76053 10.0406 3.23473 -0.339861 -0.302788 1.237513
O 2.53036 9.78614 0.89787 -1.032282 -1.284004 -0.420029
O 9.17137 6.30653 6.05996 0.793616 -1.115063 -1.128519
O 7.90821 4.23539 10.8634 1.414431 0.751194 -1.957258
O 9.79026 7.1407 3.09614 1.084612 -0.900265 -1.649445
O 3.59712 11.9471 7.5298 -3.839803 -0.009126 0.632258
O 9.91452 0.10109 11.1329 0.328281 -0.675712 -1.680252
O 0.35689 6.12285 6.33985 1.03658 1.906805 -0.334096
O 7.86756 1.18314 4.29569 2.111486 1.640972 0.594107
O 4.02222 11.8261 5.09254 0.393535 0.375497 0.448004
O 9.82774 2.45882 9.882 0.865208 -0.858857 1.392447
O 8.98365 0.09414 0.96528 -0.529979 1.600062 0.610973
O 3.42429 7.35515 0.2954 -0.877173 -0.413696 -0.731585
O 1.39638 7.6828 10.4852 1.127135 2.206911 1.828429
O 10.4836 8.46841 5.94732 0.446848 1.115943 2.039436
O 6.37918 9.68584 2.71949 0.035018 0.761339 -0.805417
O 2.15894 3.94762 11.2185 0.86965 1.193467 1.163587
O 12.077 5.23055 3.60489 -0.197021 -0.957572 -0.368346
O 6.57882 11.4847 5.73649 1.707835 1.301607 -0.169768
O 1.92859 1.66602 0.74459 -0.349945 -0.18455 1.243612
O 12.108 6.15713 9.01025 0.454351 0.574609 1.149898
O 1.65366 0.12101 9.91795 0.412619 1.85208 0.610742
O 3.69616 4.76113 9.16698 -2.112612 -0.337084 0.484304
O 0.22913 11.9762 6.20321 0.487263 -0.665516 -0.545842
O 0.28729 2.14013 5.46899 0.840074 2.058701 1.21901
O 12.1895 10.666 11.0796 -0.520662 -1.508014 -0.781044
O 4.64128 1.80274 4.56779 0.256678 1.470384 0.283144
O 9.04179 6.59052 10.5185 0.762205 2.141371 -0.325588
O 6.43432 11.6307 0.92424 0.029365 0.37639 0.141027
N 9.11601 9.39513 12.1634 0.273496 -0.445279 -1.305292
N 6.46478 6.67999 5.07772 -1.131988 4.913878 -0.423788
N 5.24689 1.2128 11.334 1.733143 2.754753 -2.092745
N 4.44632 5.56526 2.5472 0.083989 -3.318573 0.462477
N 2.97686 4.30338 5.49111 1.106802 0.991496 0.805826
N 5.79143 2.02402 10.7646 -1.789701 -2.689549 1.964363
N 4.53544 4.44543 2.63628 -0.196602 3.194462 -0.313922
N 6.23083 7.79383 4.994 1.037236 -4.943772 0.443249
N 3.69319 4.92291 6.08062 -1.059966 -0.934104 -0.986636
N 8.97095 9.74104 0.79414 -0.197291 0.330627 1.424712
N 11.8946 3.52441 0.97528 1.046358 -1.545186 1.090315
N 11.3592 4.2862 0.4056 -1.166295 1.527201 -1.204335
Cl 9.2555 3.21682 6.70225 0.026832 -0.344551 -0.105575
Cl 7.56603 2.78829 1.57174 0.154423 -0.093386 -0.255776
193
energy=-1085.72658286 config_type=nep2xyz pbc="T T T" virial="-11.043895704230225 3.9519530024648883 -7.160214212812432 3.9519530024648883 -10.745414609566943 -3.628231560070929 -7.160214212812432 -3.628231560070929 -7.379499402644198" Lattice="12.4 0.0 0.0 0.0 12.4 0.0 0.0 0.0 12.4" volume=1906.6240000000003 Properties=species:S:1:pos:R:3:force:R:3
H 8.51609 3.00184 8.72895 -0.413151 0.125734 0.58052
H 4.91641 11.7088 8.11279 0.797015 -0.266714 -0.050555
H 2.33034 6.37596 0.4586 0.730976 0.452277 0.400022
H 10.0667 0.93193 4.52001 0.548968 1.640925 0.606554
H 5.72039 6.48181 9.458 -0.370913 -1.36491 -0.530514
H 7.21112 0.46417 5.81732 0.578762 0.848411 0.476072
H 8.37904 5.03186 9.22135 -0.594299 -0.294902 -0.476226
H 3.50229 9.44744 10.2178 -0.35144 1.201748 0.508397
H 5.20597 2.81047 6.31802 0.821266 2.268588 0.072082
H 1.77418 9.96036 6.95382 -0.884632 1.044919 1.192277
H 0.16001 4.70248 3.25404 -0.325192 -1.94364 0.543494
H 6.07659 8.34897 1.13921 0.594385 0.145951 1.621884
H 7.38056 3.78391 10.9566 -0.132951 0.110736 -0.929506
H 2.44401 1.57468 12.2524 0.581828 1.60538 0.063063
H 11.373 11.0992 4.24588 -0.297884 0.217737 -0.262133
H 3.5413 11.6098 11.8963 -0.23094 0.160167 0.146549
H 2.47554 4.04466 9.98549 0.014974 -0.038746 0.427321
H 2.57418 1.58874 5.37469 0.234113 -0.040464 -0.017099
H 11.9572 5.93542 10.3933 -0.45973 -0.284095 0.330908
H 10.341 4.848 9.30293 0.766719 -0.425366 -0.227152
H 11.502 7.78054 8.52571 1.110501 -0.103062 -0.44105
H 11.9064 9.62911 0.8972 -0.117553 -0.124101 -1.057876
H 3.93816 8.06078 0.45696 0.674783 -0.129129 0.39979
H 10.2366 8.37534 6.95075 -0.317404 0.223393 -0.834651
H 8.87967 5.33411 7.67977 -0.583922 -0.710502 -0.714879
H 1.14859 5.89474 12.1159 -0.253183 -0.458929 0.6385
H 5.27816 10.9817 6.17058 -0.204092 0.130421 0.094135
H 3.12343 8.63815 8.22453 0.084114 -0.425034 1.058832
H 9.9193 12.0788 10.0987 -0.066475 0.536706 0.134717
H 2.31055 3.60977 8.57076 -0.149857 -0.267144 -0.776481
H 7.07123 10.8728 12.2922 -0.599074 -0.174203 -0.043252
H 0.87156 7.4768 6.17388 -0.216267 -0.188805 0.354044
H 11.7382 1.98462 6.31548 -0.11395 -0.350696 -0.060278
H 11.8167 5.34376 6.60338 0.483819 0.754916 -0.024358
H 9.92845 11.2908 3.73594 -0.813991 -0.196977 -0.0155
H 10.1621 7.19057 8.80245 -0.72566 -0.317414 0.163069
H 4.81903 1.81875 4.09065 -0.341071 0.025002 1.016966
H 1.22212 2.9203 11.0564 1.033435 -0.009734 0.382011
H 1.16334 0.94777 5.64093 -0.293891 -0.097473 0.072744
H 11.7936 2.96012 10.0831 0.525456 -0.677837 1.060397
H 9.8832 2.39894 5.21803 -2.290407 1.457166 0.574228
H 4.92009 11.0522 11.4227 0.855916 -0.097723 0.018942
H 11.3841 6.53653 3.59532 0.01295 -0.078039 -0.39011
H 9.44316 1.15885 11.3902 0.354976 0.035074 0.533041
H 11.8201 1.48726 10.696 -0.302677 -0.441324 0.01446
H 7.34812 12.0189 2.01638 -0.38373 -0.0979 0.091988
H 11.4696 10.6821 1.92625 -1.324323 0.664217 1.744973
H 10.6691 10.1654 9.59918 0.599112 -0.411725 0.17859
H 5.70766 1.56371 1.8239 0.06964 -0.563476 1.121242
H 2.55389 11.7118 2.47966 0.679651 0.450407 0.434471
H 5.41153 4.32809 7.98829 -0.385491 -0.03384 -0.323406
H 0.90908 6.70487 10.1548 -1.067836 0.515483 0.858906
H 12.1381 11.7311 0.31516 1.009572 0.279311 -0.582959
H 6.57217 7.9526 3.41646 -0.111525 -1.68391 0.068779
H 8.37632 12.0625 0.92536 0.0919 -0.085159 0.069397
H 9.6043 1.08239 9.4511 0.239168 0.322339 0.330474
H 6.41264 11.9076 7.49615 0.242841 1.043075 -0.204136
H 2.14362 3.97704 11.8875 -0.024185 -0.542293 0.005652
H 2.54489 1.5254 8.49394 -0.918482 1.195742 -1.195738
H 1.05279 6.90808 7.69401 -1.389007 0.587911 -1.663518
H 4.68051 0.51889 2.43088 -0.707408 -0.39218 0.10443
H 6.53182 3.74836 6.27918 -0.334756 0.070316 -0.114762
H 8.73101 2.16175 0.39417 0.569589 -0.17783 0.067386
H 4.49693 8.23228 10.0475 -1.536351 -0.448528 -0.364083
H 11.4092 0.5446 6.84169 0.074745 0.247248 -0.15967
H 7.04047 10.2522 10.8228 0.226374 -0.192749 -0.88661
H 10.7345 4.27138 6.55152 -1.915196 -0.177839 -0.73214
H 9.22914 12.1184 6.97169 -0.392643 0.022691 0.243027
H 8.73661 9.78559 3.64219 0.483221 -0.394915 0.428105
H 1.06671 0.43215 12.3011 0.250107 -0.75619 0.311404
H 8.97076 8.68407 2.03069 2.167548 1.23527 1.634394
H 2.66648 0.52613 3.60271 0.196336 -0.977643 -1.206904
H 3.40394 8.41847 6.73659 0.429709 -0.841308 -0.731375
H 7.40754 1.33727 7.30578 0.184917 -1.256472 -1.153117
H 4.18827 4.54097 9.05054 1.268765 0.26569 -0.586015
H 4.16607 10.6341 5.13809 0.365997 0.55468 -0.203917
H 11.6217 4.28058 8.61707 0.071967 0.25613 -1.211585
H 1.15841 2.00027 7.71592 2.207234 0.547749 0.801796
H 10.3186 11.1724 7.62817 -0.523907 -0.116939 0.628666
H 7.13026 8.7696 8.90926 0.185718 0.731798 0.35287
H 2.36332 9.41264 0.95131 0.197187 0.619935 0.705418
H 2.44151 8.38586 4.43297 -0.285132 0.267798 -0.654156
H 2.52974 0.7391 1.27062 0.717433 0.593612 2.614265
H 11.9894 7.62947 11.8607 -0.024771 0.317379 0.358222
H 5.97016 9.10673 12.1797 -0.356519 -0.972978 0.876917
H 2.3462 11.7516 7.99544 -0.282905 -0.061137 -0.687581
H 10.146 8.34678 3.01802 0.077569 -0.904542 0.551291
H 12.1843 7.74108 1.01828 -0.082292 -0.138777 -0.213694
H 9.13403 10.0125 9.32459 -0.089394 0.423953 0.057286
H 10.3021 1.31643 0.52648 -0.792733 0.590918 0.704281
H 12.0043 1.81741 2.03065 -1.823726 -1.220645 -1.467218
H 4.3955 9.09776 3.56479 -1.77976 0.564584 0.083962
H 0.19609 9.47486 4.87883 1.229434 -1.345517 -0.593437
H 6.79898 9.34891 3.58154 -0.871059 0.144079 -0.84854
H 3.08712 8.06236 11.6625 -0.417447 -0.020705 0.031471
H 6.07614 7.17369 10.8152 0.053879 -0.105004 0.507481
H 0.64367 10.3945 9.0396 0.249372 0.195041 -0.786805
H 3.07013 11.7366 9.31249 0.357548 0.326167 0.128373
H 0.43772 10.7628 6.69932 -1.107066 0.102931 -1.138112
H 6.69456 0.54836 3.73858 -0.442705 0.132839 -0.384005
H 0.83717 5.52015 2.19998 1.205676 -0.036641 -2.430252
H 2.98314 9.73631 2.86072 0.795708 -0.956283 1.58271
H 9.06011 2.56187 7.37517 0.194475 0.185823 -0.389635
H 7.5546 11.7241 4.3064 0.056208 0.908168 -0.273333
H 11.1859 0.59111 2.37776 -0.666021 -0.516892 -0.440917
H 1.34784 7.26445 4.03537 0.183147 0.69526 0.523627
H 0.41042 9.51627 10.3066 0.115529 0.514879 -0.066583
H 2.22104 5.87676 9.12994 -0.489741 0.104286 -0.219367
H 6.5009 4.12963 9.66389 -1.346339 0.284563 -0.236715
H 10.3231 7.70077 5.51836 -0.530209 1.112062 0.169844
H 11.7121 2.51172 3.92173 -0.914734 -0.3554 0.595044
H 0.41179 11.7073 11.2392 0.514742 -0.829823 -1.173696
H 1.26216 10.3153 1.7111 1.007557 -0.215957 -0.426787
H 7.04551 10.3604 8.58933 -0.10626 -1.18219 0.965868
H 4.57329 0.7932 5.18907 0.036462 -1.050433 0.286615
H 8.47413 9.8251 5.23425 0.491958 -0.406339 0.180155
H 2.63833 7.40958 9.60838 -1.814485 -0.571857 -0.815003
H 10.0702 6.02262 4.14942 -0.566938 -0.006877 -0.159926
H 11.1346 9.5187 5.50477 0.347459 0.012155 -0.05933
H 0.86062 2.45216 3.77658 -0.755436 0.262629 -0.18546
O 10.595 8.03936 8.64638 -0.572072 0.34678 -0.059812
O 1.12985 10.6664 7.33734 1.779902 -1.044519 0.471781
O 7.4463 0.46548 6.80629 -0.095432 0.512234 0.394213
O 5.59226 3.74555 6.56808 -0.234857 -2.359264 -0.608947
O 11.9245 10.0634 5.1765 -0.987488 1.150598 0.768971
O 3.03595 0.1367 2.72382 -1.00264 0.367789 0.999433
O 0.03842 2.84241 3.37593 1.759085 -0.206389 -0.552369
O 10.0934 11.6949 6.85634 0.69759 0.395003 -0.911082
O 12.0255 10.5819 1.17486 0.768338 -0.084636 -0.340624
O 3.46596 8.50976 10.0225 2.713829 -0.460409 0.211671
O 12.3273 2.29414 10.6388 -0.571696 1.448354 -1.120425
O 6.49116 10.4855 11.579 0.503847 0.216905 0.839749
O 0.36666 7.08154 6.92939 1.341482 -0.279007 1.279419
O 11.8528 8.25763 0.26778 0.147358 -0.579616 0.202146
O 7.51048 9.64308 9.15259 -0.307882 0.252431 -0.794134
O 1.72023 5.62252 0.48853 -0.91998 -0.27686 -1.004516
O 1.84612 6.84127 9.21376 1.932977 -0.248566 0.345763
O 10.8025 11.64 3.59338 0.87377 0.525187 -0.177191
O 5.75721 7.31879 9.91985 0.162405 1.465339 0.239265
O 1.49913 8.08326 4.57275 -0.823503 -1.268151 0.121158
O 5.53826 0.93643 2.58645 0.750489 1.307792 -1.370248
O 11.3549 1.08773 1.5442 2.439644 1.811158 2.202445
O 3.96809 10.9538 11.3331 -1.250846 -0.10758 -0.600206
O 2.11103 2.32355 8.00984 -1.673755 -2.630436 -0.290934
O 5.183 4.72541 8.86943 -0.745814 0.376668 1.071948
O 9.673 9.11246 2.68 -2.350197 -0.554056 -2.863838
O 6.21058 8.73452 3.02176 0.890792 1.475765 1.020845
O 3.11271 9.05052 7.37153 -0.295049 1.208587 -0.902066
O 9.86934 10.6688 9.47034 -0.312801 -0.066177 -0.056676
O 0.22864 12.3136 11.9576 -1.542892 0.257531 0.83958
O 3.42096 9.3525 3.76005 1.959172 0.326086 -1.392895
O 2.25964 10.1773 1.61182 -1.279394 -0.584703 -0.514849
O 8.90433 5.58241 8.60357 1.143096 1.084046 1.292311
O 7.37043 3.82731 9.95799 1.623164 -0.24314 1.565954
O 10.4595 6.82488 3.76388 0.687492 -0.350271 0.619781
O 5.83081 11.3298 8.02356 -1.141515 -0.757201 0.290158
O 9.98048 0.68439 10.2805 -0.526328 -0.51698 -0.878236
O 11.6021 4.44498 6.861 1.650622 -0.55318 0.550311
O 10.4681 1.81518 4.80049 1.352437 -2.664149 -1.580385
O 4.83318 11.3199 5.37307 -0.258054 -0.506025 -0.080779
O 8.89165 2.24047 8.2671 0.054365 -0.328725 0.073767
O 9.3644 1.41608 0.07754 -0.544434 -0.045643 -0.403835
O 2.99909 7.90079 0.2282 -0.066728 0.564301 -0.267724
O 0.04334 6.64726 10.855 1.206552 -0.402807 -1.028863
O 10.0305 8.54682 5.97139 0.491694 -1.365474 0.846713
O 8.17156 10.1502 4.38328 -1.135381 0.630682 -0.219937
O 2.19908 3.18676 11.2925 -0.921461 0.256332 0.514974
O 0.39828 5.57956 3.01696 -0.60699 2.303629 1.909009
O 7.50013 0.32563 4.22303 0.549213 -1.164351 0.714681
O 2.38321 0.75834 0.34707 -0.928233 -1.179218 -3.226429
O 11.2487 4.45624 9.48334 -0.749901 0.4443 1.280792
O 3.07577 12.2047 8.45741 0.215681 -0.224137 0.859958
O 2.56388 4.4359 9.07995 0.44363 0.872129 0.690195
O 12.122 1.22999 6.78632 0.603138 -0.041385 0.493348
O 1.86457 1.06173 4.97279 -0.161103 0.332306 -0.243664
O 0.49312 10.441 9.99919 -0.337971 -0.749304 0.818046
O 4.42722 1.72549 5.00749 0.560811 0.809867 -0.854759
O 5.69434 8.25024 0.28594 -0.567818 0.719907 -2.384602
O 7.73736 11.4506 1.3336 0.553378 0.396578 -0.25411
N 8.52371 7.51471 12.2999 0.402357 -0.180744 -0.878172
N 6.63577 7.16922 7.05947 -3.090237 3.206017 -1.771247
N 6.09601 1.47469 11.8156 0.109755 -1.623404 -1.959007
N 3.85937 4.84377 2.61775 0.94423 1.770206 0.500641
N 3.13026 5.44664 6.37188 -2.588246 -0.785857 -1.999884
N 6.31333 0.84967 10.9087 -0.304156 1.563562 1.809037
N 3.36409 3.90554 2.35986 -0.876458 -1.829117 -0.441277
N 5.89876 7.9386 6.65663 3.0753 -3.261718 1.540734
N 2.25978 5.13912 5.72369 2.714226 0.722335 1.917728
N 8.80986 7.25912 11.2572 -0.285188 0.194903 1.017965
N 11.294 4.26674 0.37889 -0.771827 0.043683 1.226432
N 10.7484 4.2398 1.35064 0.653174 0.048056 -1.263441
Cl 8.6237 4.32789 5.65592 0.410166 -0.1201 0.30233
Cl 7.33892 3.68159 1.1553 0.423875 -0.542264 -0.608379
193
energy=-1087.20630462 config_type=nep2xyz pbc="T T T" virial="-4.333104863599179 -2.347768846341192 -2.2940155928289507 -2.347768846341192 -9.005829851614093 -3.790907445727857 -2.2940155928289507 -3.790907445727857 1.9547762751682294" Lattice="12.4 0.0 0.0 0.0 12.4 0.0 0.0 0.0 12.4" volume=1906.6240000000003 Properties=species:S:1:pos:R:3:force:R:3
H 1.34661 6.53144 0.13439 -0.677628 -1.437315 0.070295
H 4.37299 9.57557 6.12893 0.667603 0.157477 -0.717432
H 3.55239 8.32863 2.33754 1.679441 0.765705 0.087893
H 7.79913 4.16527 3.04963 -0.53538 0.133469 -1.107614
H 9.70036 4.21148 11.2172 0.040996 0.47309 -0.656441
H 8.5622 0.04003 3.82486 -0.11039 -0.015418 -0.348401
H 8.86752 4.70777 7.40269 0.646309 1.19909 1.717512
H 4.31672 8.18018 7.66362 -0.022089 -0.924139 0.028938
H 6.37459 2.5725 6.88787 0.147452 0.745186 0.022184
H 10.9652 7.57821 11.1816 1.196076 0.667491 -0.709572
H 1.61427 5.84211 6.14903 -1.195276 -1.049921 -0.099149
H 10.0474 8.03539 0.78842 0.038288 0.240977 -0.372377
H 7.91674 6.64472 8.21738 -0.07428 0.009803 0.016884
H 3.49287 4.15346 10.8555 -0.201318 -0.029047 -0.0942
H 8.65117 7.01855 4.73061 -0.017159 0.257833 0.201377
H 4.58816 9.55642 0.8326 0.817214 -1.033225 0.419535
H 3.09042 6.09204 2.10984 -0.043671 -0.440502 0.184722
H 2.67291 0.58735 1.52214 0.077175 0.145727 0.790105
H 10.9276 0.16064 11.112 0.436619 -1.113217 -0.010488
H 3.68127 6.90985 11.8196 0.454403 0.099072 0.219514
H 0.39296 9.94871 7.48546 -0.791137 0.120143 0.246871
H 11.8986 7.1773 2.23788 0.407627 0.56417 0.046747
H 5.91961 9.44038 2.38913 0.110372 0.956876 0.310033
H 5.00121 0.66914 10.7632 -0.232008 -0.207629 -0.130722
H 9.3248 4.85502 8.96302 0.42609 -0.910756 1.587908
H 2.4044 8.0459 1.3533 0.256475 0.007939 0.416216
H 5.70782 11.4002 6.15054 -0.136994 -1.657439 -0.480859
H 5.7902 9.93793 9.90255 -0.150111 0.357029 -0.274785
H 11.4201 1.74846 0.68021 0.162209 -0.020923 -0.8348
H 3.40244 4.54303 1.94961 0.166254 -0.017117 0.280096
H 6.32663 0.40337 7.53319 0.460474 -0.411392 0.847684
H 2.34806 9.08449 12.1104 -0.625919 -0.9712 0.055626
H 11.8814 0.164 4.64753 -0.373549 -0.575917 0.156277
H 11.822 4.00954 10.5992 0.033881 0.501797 0.040586
H 8.98141 7.11819 2.61945 0.594453 1.849742 -1.252924
H 12.1981 8.77653 9.94778 0.80902 -0.644916 0.954936
H 7.88627 0.32591 0.08044 0.163874 0.639585 0.219543
H 10.7935 3.77183 1.9389 1.745635 1.668231 -0.235322
H 1.19685 0.86001 2.4372 1.514619 0.297824 -1.243734
H 12.2545 4.4607 3.69703 -0.391162 0.004803 0.13343
H 7.45288 5.19812 1.89983 -0.153297 0.43489 0.32832
H 4.04059 10.8639 0.35724 -0.407115 0.679138 -0.183278
H 9.99468 7.69998 5.31985 -0.450507 0.882845 0.593352
H 11.544 1.58017 2.79691 0.484919 -0.368706 0.813362
H 11.0944 3.94625 4.61593 -0.036759 0.182342 0.276779
H 8.07854 10.863 10.9323 -0.391549 0.653754 -0.869306
H 0.86006 8.02354 2.38651 0.410068 -0.027446 -0.41933
H 8.06921 3.79091 0.57278 -0.343732 0.429928 0.059533
H 5.88556 3.4931 10.1029 0.15592 0.529729 0.036295
H 4.80803 12.3201 1.91983 0.810384 -0.399368 0.486048
H 4.14641 5.84322 7.37561 -0.145709 -0.445979 -0.196527
H 11.7763 11.7084 12.0604 -0.137399 -0.775155 -0.652183
H 0.31798 2.13744 11.2599 -0.232926 0.323451 0.121971
H 5.9046 6.73676 0.65798 -0.070679 -0.26836 -0.330092
H 9.47852 10.8759 11.6639 -1.478532 -0.548916 0.097044
H 9.83602 1.81667 1.06371 1.291167 -0.413503 0.384649
H 3.22895 8.41489 5.86344 0.169618 -0.620347 -0.885056
H 11.9431 4.85311 1.4653 1.713739 0.243558 -2.375887
H 11.7099 10.8119 9.82823 0.107198 0.173854 0.328387
H 0.98777 9.31428 0.30713 -0.203454 -0.457634 0.055729
H 6.74531 4.01853 8.93157 -0.103892 -0.115663 0.650016
H 7.04069 4.0194 6.72469 0.098858 -0.380115 -0.564135
H 12.3811 2.27211 3.99174 -0.340417 -1.219897 -0.584475
H 5.52008 7.30682 8.13696 1.920817 -0.03323 0.29025
H 11.9763 11.1831 5.57238 0.073153 0.303114 0.088983
H 7.27596 0.45153 6.23806 -0.652952 0.039381 0.627742
H 0.74575 4.40966 11.3555 -0.075641 0.46714 0.567518
H 9.07147 1.37174 5.381 0.190586 -0.459764 -0.255647
H 7.74362 9.2584 11.5985 -0.491379 -0.976989 -0.053803
H 0.88959 1.30255 0.0662 -1.28152 0.004644 -0.415555
H 5.66896 3.6052 1.80773 0.123112 0.34828 -0.144149
H 4.64778 0.69215 0.50224 -0.124159 -0.276773 -0.514136
H 3.36255 10.2138 9.61843 -0.302335 -0.26094 -0.060045
H 8.24613 0.45423 2.27056 -0.139811 -0.951305 0.495046
H 4.72129 4.40244 7.16425 -0.64055 0.150829 -0.106827
H 6.65657 10.1467 6.04976 -0.877514 -0.16932 0.080717
H 4.27407 5.55091 12.0734 0.324065 -0.572908 -0.07377
H 8.51594 11.7222 8.42171 -1.517059 0.567022 1.270513
H 9.84085 12.3219 5.3102 -0.457942 0.629375 0.144104
H 3.83711 1.68122 10.9375 0.311176 -0.357426 0.446136
H 11.9708 11.0343 1.59639 -0.105984 0.094268 0.501788
H 1.763 7.0999 4.06283 0.096226 -0.352805 0.962235
H 4.34754 3.49736 12.1115 0.127161 0.222074 1.472409
H 9.36649 7.77773 11.0608 0.812016 -0.438056 0.699234
H 9.38227 5.77093 3.09484 -0.102963 -0.081714 0.194218
H 0.8298 10.6424 9.52075 0.437496 -0.162707 0.306106
H 5.04448 2.25639 1.63345 -0.47788 -0.640661 0.04618
H 10.2057 9.16632 1.95943 0.328007 0.67038 -0.035193
H 7.66794 3.85001 11.4244 -1.343051 0.537991 -1.274454
H 9.6864 11.1445 2.47434 0.070585 0.368113 0.775634
H 9.63112 12.2985 7.48713 -0.393105 -0.519045 0.055685
H 5.8175 10.9955 3.99024 -0.240219 -0.053468 -1.028713
H 1.47144 9.87012 6.45368 -0.390444 -0.166676 -0.484288
H 7.25562 7.44386 0.37503 0.020672 0.096223 -0.785948
H 6.19115 8.03341 1.62208 -0.958999 0.905006 0.314512
H 10.2549 5.64441 10.9363 -0.173123 -0.301211 -0.245809
H 2.75049 6.44584 10.198 -1.154423 -0.844397 0.169792
H 4.69481 9.65293 10.9456 -0.499653 0.233419 1.111087
H 0.67983 7.9555 11.0615 0.230433 0.529835 -0.169492
H 8.68104 10.144 6.99041 -1.01043 -0.320523 -0.164671
H 0.44401 4.71279 5.78632 -0.143763 -0.362983 -0.872633
H 6.99401 11.4602 3.10465 -0.976919 -0.057658 -0.861865
H 1.83367 5.32138 0.98633 -0.901814 0.009321 -0.179159
H 11.6755 6.8293 8.75069 0.340335 -0.016059 0.054005
H 10.8875 10.8252 3.52304 -0.386603 0.47557 0.456515
H 3.009 6.35049 4.4841 0.255908 -0.384496 0.095622
H 3.49331 7.55207 9.88284 1.26665 1.339616 -0.776197
H 2.91549 4.87843 8.60575 -0.071206 -0.201626 -0.033303
H 7.3574 7.68447 9.20763 -0.111186 0.083488 0.964249
H 11.4319 8.56938 4.10762 0.733627 -0.269156 -0.587273
H 10.6298 5.98998 7.96227 -0.890212 -0.24284 0.004193
H 3.01623 11.6165 10.0953 -0.690336 -0.998216 0.112004
H 0.99485 11.6822 1.13367 -0.179624 0.371878 0.393762
H 7.66582 8.99539 7.56146 0.424234 0.311399 -1.436856
H 8.11921 1.93549 0.24023 -0.380263 0.155686 -0.91292
H 6.33019 8.64145 11.0549 0.381951 -0.150982 0.059311
H 1.54419 4.64014 9.50483 1.082487 0.139505 0.056197
H 8.4986 8.28072 5.93533 0.136345 0.234598 -0.019415
H 11.7447 8.96924 5.62267 0.910899 0.17637 0.46137
H 0.15687 5.70854 6.9918 0.225714 0.172523 0.585369
O 12.3538 10.2548 9.35462 -0.162237 -0.206514 -1.038589
O 12.2993 7.91146 10.481 -1.154098 -0.0964 -1.510289
O 8.30942 12.0851 2.91664 0.684819 1.172698 -0.387052
O 6.33319 3.52994 7.15775 -0.171781 -0.525449 0.274566
O 0.48596 9.8888 6.51483 1.270982 0.19492 0.437936
O 4.21063 0.31469 1.27801 -0.23114 -0.133619 0.539365
O 11.4614 6.46384 7.87473 0.979414 0.340708 -0.241795
O 8.93899 0.38942 5.32197 0.43202 0.353333 0.087574
O 0.04433 7.75468 2.803 -0.704114 -0.404341 0.752413
O 4.58499 7.29622 8.04757 -2.249614 0.742514 -0.280067
O 12.063 4.12734 4.60004 0.464452 -0.337561 -0.087574
O 6.36477 0.6307 6.60254 0.470226 0.455581 -1.464601
O 1.52071 8.54992 12.3589 0.96446 2.008035 0.654444
O 10.1052 7.37391 11.5877 -2.307379 -0.393614 0.054276
O 4.12703 0.76323 11.1884 0.217373 0.497725 -0.851376
O 2.73517 7.86455 2.27529 -1.536348 -0.816042 -0.703323
O 2.48968 4.96894 9.49699 -0.550281 -0.215196 0.046902
O 8.64519 6.40463 3.14254 0.008708 -1.375431 1.58045
O 10.1885 4.74157 10.5196 -0.121782 -0.18365 1.033027
O 2.22086 6.74407 4.87332 -0.260455 0.660246 -0.530606
O 6.66843 4.05182 9.91669 -0.260944 -0.439627 -0.374444
O 10.5716 10.7419 2.61381 0.508996 -0.611929 -1.188489
O 3.99182 9.92569 0.14857 -0.740023 0.492559 -0.757963
O 9.17227 11.4973 7.78961 2.199569 -0.46442 -1.259088
O 3.8708 4.90803 7.13624 0.583817 0.408061 0.336046
O 4.86776 3.17783 1.43957 0.358473 0.699083 0.101884
O 6.78772 6.91942 1.05394 0.240098 -1.226712 0.301378
O 5.18168 9.24529 10.2195 -0.101919 -0.216261 -0.880684
O 8.29704 3.53655 12.0561 1.765988 -0.920307 1.305513
O 0.05572 1.4279 11.8844 1.803673 0.127504 0.748618
O 6.01584 11.1493 3.02032 0.185626 0.021274 1.763149
O 0.32609 10.994 0.97903 0.171765 -0.564389 -0.872197
O 9.00965 5.33242 8.20754 -0.909665 -0.422637 -3.545539
O 7.27093 7.38703 8.30074 0.248798 0.180781 -0.326929
O 8.99722 7.46024 5.58094 0.470001 -1.190266 -0.94624
O 3.543 9.14349 6.38481 -1.38163 0.480562 1.698174
O 10.7679 1.81937 1.41141 -1.670832 0.574942 0.430882
O 0.38789 3.85334 10.6481 -0.08264 -0.716172 -0.672194
O 7.37735 4.25852 2.14544 0.416829 -0.641708 0.719542
O 5.70304 10.4119 5.86088 0.770166 2.353728 0.246697
O 1.09204 5.57762 0.33566 1.025468 1.251906 0.04976
O 12.1889 1.37841 3.55949 0.027266 1.470786 -0.015426
O 5.50353 8.8024 1.80542 -0.024283 -0.736824 0.219514
O 11.175 11.6116 11.2641 -1.024932 1.371087 0.496303
O 11.1053 8.60363 5.01005 -1.479182 -0.485512 -0.047009
O 7.25255 8.40553 11.3605 1.025801 0.116596 0.001066
O 11.3159 4.63713 2.10775 -3.182212 -1.767319 2.247621
O 0.90796 5.17449 6.54772 0.732269 1.492377 0.242269
O 7.96348 9.47387 6.71019 0.780451 -0.294326 1.354599
O 4.05238 3.44111 11.2124 -0.063922 -0.494947 -1.688669
O 4.2421 6.40518 0.10151 -0.158603 0.424037 -0.024056
O 2.59906 10.718 9.94876 0.86663 1.45143 -0.039079
O 2.76128 5.17831 2.31163 0.24861 0.192148 -0.290575
O 11.3897 11.8081 5.09826 0.119938 0.154087 -0.241828
O 1.7591 0.94935 1.59013 -1.948023 -0.075081 0.233758
O 2.86057 7.35112 10.564 0.074777 -0.497345 -0.078497
O 7.87276 1.10371 0.68022 0.042669 -0.925657 0.448096
O 9.95241 8.26907 1.72723 -0.698957 -1.255396 0.377454
O 8.49071 10.6014 11.7553 2.290987 0.91062 0.643386
N 9.22249 1.94353 8.62108 -1.245791 0.573852 -2.24467
N 5.58211 7.27674 4.60098 -1.167311 -1.399657 0.300527
N 3.47462 0.85584 7.7739 1.118706 2.587675 0.497334
N 2.67885 2.79901 4.27751 -1.318027 3.018458 -0.033571
N 2.31778 11.2774 3.60246 0.029985 -0.392749 0.148856
N 3.9147 1.86855 7.98413 -1.133495 -2.626198 -0.472007
N 3.10438 1.80113 4.31577 1.374186 -2.938729 0.146882
N 6.24779 8.12914 4.4363 1.168478 1.099396 -0.238236
N 2.66664 10.2436 3.78993 -0.024645 0.419778 -0.001449
N 9.73565 1.76214 9.56406 1.270611 -0.43126 2.394772
N 0.36209 1.07491 7.96538 -0.091117 0.336271 -0.433069
N 0.26461 1.68811 7.04754 0.048143 -0.298963 0.454621
Cl 9.08416 3.62455 5.10207 -0.180341 -0.013497 0.098147
Cl 6.67927 11.7884 9.43062 -0.024491 0.192448 0.271702
193
energy=-1086.9681078 config_type=nep2xyz pbc="T T T" virial="-1.959512559183698 4.540632644869931 -6.407644863218859 4.540632644869931 4.594457299648738 7.606579230742625 -6.407644863218859 7.606579230742625 1.4304767747824974" Lattice="12.4 0.0 0.0 0.0 12.4 0.0 0.0 0.0 12.4" volume=1906.6240000000003 Properties=species:S:1:pos:R:3:force:R:3
H 2.95273 5.47169 0.52132 0.106625 0.149667 0.136546
H 3.96712 9.55606 7.06184 -0.337705 -0.724914 -0.292847
H 2.2864 7.91772 2.84336 0.88691 0.602422 -0.147371
H 8.47978 3.81408 3.22572 -0.138776 0.822902 -1.425096
H 9.68151 4.4974 10.8553 0.29961 0.400798 0.31853
H 6.9145 0.4085 4.6762 -0.680981 -0.202465 0.427898
H 9.72533 4.07635 7.46534 -0.508222 0.700603 -0.222814
H 5.92109 8.21753 8.92068 0.34571 0.21978 -0.747515
H 7.19649 3.46876 5.51755 -1.634626 -0.134262 -0.159421
H 10.3788 7.97438 10.088 0.12433 -0.236234 0.969047
H 1.35196 5.84901 6.13464 0.552903 0.418061 -0.155365
H 11.4321 6.06371 1.0354 -0.170359 1.024718 0.327005
H 7.75951 5.18923 8.32967 4.063998 -1.589163 -1.204603
H 3.90317 2.0658 12.1294 -0.718403 0.146579 0.375104
H 9.19865 7.43254 3.76538 -0.077873 0.523269 0.690686
H 3.26973 8.5493 0.24244 -0.061011 0.063908 0.671005
H 4.68889 6.15609 12.2641 -0.142901 -0.555049 -0.275951
H 3.40499 11.8362 2.39038 -0.713541 0.472856 0.125839
H 10.4852 11.6837 12.1104 0.930452 0.568699 -1.066081
H 5.58186 4.27066 11.3553 -0.420756 0.19073 -0.092728
H 0.15538 10.6413 7.2751 0.999214 -0.455919 -0.856382
H 11.0363 8.62927 1.49297 0.319791 -0.266493 0.632661
H 4.00152 9.17044 2.46264 -0.345684 -0.278282 -0.196966
H 6.83332 11.1493 1.01004 -0.404993 -0.782499 0.152577
H 9.85456 4.80221 8.8786 -0.498496 0.184466 -0.814967
H 1.5309 6.62632 3.02325 -0.369981 -0.064715 0.237617
H 5.1445 11.1246 6.0829 -0.325312 2.238092 0.640597
H 4.05853 8.65675 8.86531 -0.864847 0.4968 -1.437597
H 11.6434 2.13439 0.21225 -0.424809 0.491459 0.833044
H 5.00423 5.4799 1.34346 0.395604 -0.415733 -0.402696
H 6.369 0.45193 7.45362 0.390357 -0.151534 -0.532832
H 2.17463 8.20357 10.2344 0.053785 -0.154837 0.545199
H 12.0429 12.3613 3.97016 0.85948 0.663811 -0.95644
H 11.9962 4.7022 10.2603 1.199839 -0.912442 -0.697663
H 8.09783 7.31655 1.6626 -0.898311 0.394451 0.0879
H 11.6687 9.55449 8.89188 0.204531 -1.38551 0.383818
H 8.18904 1.38698 1.51861 -2.673246 -0.09508 -1.103069
H 11.5378 3.96249 1.38228 -0.540833 -2.145282 -0.648283
H 2.0272 0.36217 2.47735 -0.647343 0.119237 0.591156
H 11.9102 4.3606 3.41897 0.455173 -1.465698 1.30115
H 8.60561 5.2175 2.54276 0.090073 1.483545 0.168367
H 2.22084 9.47297 11.8511 1.504825 -1.341213 0.429554
H 10.6129 7.76834 4.62953 0.048131 0.515788 0.221719
H 12.0346 1.18077 1.95538 0.546511 0.592644 0.795524
H 11.0647 3.53482 4.49254 1.056762 0.334324 -0.114514
H 7.27252 11.902 11.2974 -0.210088 -0.20493 -1.03195
H 11.0256 9.65684 2.73221 -0.261184 -0.09109 0.317483
H 8.67326 4.12833 0.68192 -0.273925 -0.227087 -0.128443
H 5.26677 0.53547 10.7815 0.183941 -0.542721 -0.488327
H 5.93614 1.00481 2.63101 0.433097 0.184371 0.103185
H 5.75743 5.65207 7.44692 -0.786464 0.607084 0.443201
H 10.0794 10.7352 0.80571 0.252467 -0.189219 0.59415
H 0.65055 2.71962 10.9574 0.00904 1.391006 -1.075693
H 6.07925 7.33791 0.6084 0.29919 0.332185 0.282645
H 8.40776 11.6928 12.396 0.45836 0.305828 -0.187338
H 10.235 2.20824 1.12504 0.563446 -0.333809 -0.072142
H 3.03559 8.198 7.10105 0.150212 1.142171 -0.556811
H 0.57496 4.64055 1.23787 0.211259 -0.015317 -0.232837
H 10.6584 11.2838 8.55631 0.75868 -0.783074 -0.931795
H 1.97408 7.01446 9.29103 1.178895 -1.862396 -1.5799
H 5.97865 0.90482 12.1272 -0.755305 0.018351 -0.354256
H 5.69523 3.06234 4.98045 -0.141626 -0.33314 -1.237756
H 0.05745 1.79099 3.30814 -0.166651 1.308058 0.551968
H 6.84655 7.06645 8.50592 0.255614 -0.014707 -0.030472
H 0.00884 11.6628 5.35303 0.493823 -0.253466 0.073085
H 6.55109 1.51829 6.33994 -0.093682 0.809295 0.035984
H 1.11333 4.93693 10.4542 -0.055569 -0.415041 -0.267487
H 9.50043 1.30708 5.60416 -0.537841 -0.521768 -0.059565
H 7.26732 9.76686 10.9038 0.314849 -0.887059 -0.342603
H 1.61122 2.0034 11.9933 -0.696057 0.223144 -0.398799
H 6.56383 4.13367 2.22813 -1.393402 0.548423 -0.254137
H 4.7149 1.13899 1.71625 -2.905446 -1.512509 -0.537584
H 0.28589 11.4072 11.6073 -0.190009 -0.156418 -0.341639
H 8.119 0.49751 3.87703 -0.335173 0.434916 -0.568608
H 5.23667 5.01612 6.30959 -0.150425 -1.198824 -1.343476
H 6.40632 10.2076 6.2335 -0.814029 0.148101 -0.644264
H 5.79994 2.72578 11.1038 -0.524515 -0.781802 0.185062
H 8.58241 11.497 8.44349 -0.11151 0.016725 -0.869267
H 10.4168 0.09255 5.19047 -1.121226 -0.181999 0.251335
H 6.71043 9.51365 1.14843 -0.464838 1.319713 1.039975
H 0.24014 10.1007 0.77498 0.067898 0.066797 0.905807
H 2.50064 7.12317 4.97793 0.467963 0.173893 0.532769
H 3.12115 1.54348 0.92684 -0.51007 0.409973 -0.032063
H 8.93145 7.99974 10.6351 -0.030375 0.234991 0.614041
H 9.57147 7.08461 1.84879 1.710464 -0.192011 -0.678311
H 11.9697 11.3519 9.3908 1.059497 0.842283 2.049352
H 5.33199 3.23451 1.86092 0.139996 0.663543 0.342813
H 10.6877 7.22866 0.1384 0.278584 -0.365672 0.201384
H 7.6986 3.74143 11.8539 0.636435 0.200475 0.326262
H 8.95366 10.8661 4.3018 -0.59962 2.015447 2.31757
H 9.19592 11.7229 6.94535 -0.203525 0.944521 -0.280466
H 4.56177 10.4249 4.00172 0.353456 0.04251 0.105538
H 1.65988 10.1498 6.92417 -1.031007 -0.116667 -0.359392
H 7.12351 8.18555 12.1346 0.247497 0.170422 -1.15664
H 4.18167 7.64945 1.91166 -0.19753 0.083541 -0.120241
H 9.93286 5.98606 10.3223 0.501537 -0.388455 0.679597
H 3.92188 5.42926 9.90794 -0.041898 0.273177 0.097519
H 3.91226 8.53159 10.4025 0.843177 0.012038 -0.040849
H 0.17236 8.17778 9.51128 0.55397 0.18671 -0.047274
H 8.5951 9.68834 7.01237 -0.310108 0.28404 -0.773615
H 0.17842 4.92686 5.50835 0.211916 -0.066731 0.327655
H 5.36528 10.5875 2.64243 0.720801 -0.110083 -0.521971
H 2.2669 4.1337 0.15143 0.28955 0.291634 0.25443
H 11.512 7.61596 8.05777 -0.517862 -0.386388 -0.430879
H 8.54829 10.7059 2.81504 -0.18455 -0.306337 0.760093
H 3.56224 6.54768 6.09841 0.310482 -0.007388 -0.283423
H 4.81866 6.724 10.213 -0.945034 -1.792141 0.018867
H 3.17829 5.28644 7.68267 -1.105628 0.009415 0.840894
H 6.5791 4.89739 9.32282 0.505701 0.519432 -0.765828
H 0.52634 7.98692 4.1261 -1.119975 -0.185715 0.066722
H 10.5868 6.20338 7.56331 -0.986158 -0.767745 0.210663
H 0.06784 0.38887 10.9686 -0.06197 0.358913 0.16507
H 1.59509 11.0194 0.84178 0.023313 0.357858 0.851811
H 7.49521 8.66276 6.90764 0.483855 0.587002 -0.833512
H 9.39738 0.42288 1.71019 -0.440009 0.63235 -0.346203
H 7.09298 8.4881 10.0376 0.191399 -0.019295 -0.845403
H 1.61998 4.96307 8.17532 0.334141 -0.216847 -0.199363
H 9.10833 8.46431 5.07395 -0.225742 0.206111 0.290239
H 12.238 8.7299 5.31523 0.151549 0.912038 0.961321
H 12.0038 6.34155 6.81285 -0.266124 -0.005302 0.026868
O 11.6254 10.9399 8.6183 -1.643426 -0.30394 -1.496648
O 11.7107 8.49573 9.13723 -1.443947 0.502569 -1.212979
O 7.14542 0.5816 3.75551 0.742941 -0.321152 0.526335
O 6.17979 3.43416 5.69857 1.443323 0.480579 1.347054
O 0.76123 10.3291 6.52198 0.010628 0.242659 1.077043
O 5.521 1.5177 1.90668 2.758298 1.165575 0.453685
O 11.1999 6.87566 7.23365 1.127124 1.798711 0.825204
O 9.4473 0.32892 5.47483 1.508094 0.20324 -0.223265
O 11.0919 9.56337 1.77742 0.325894 0.611724 -1.256749
O 6.80807 8.05384 8.48314 -0.718643 -0.109758 0.279096
O 12.0216 3.74729 4.24165 -1.431248 1.169409 -1.169436
O 6.73614 0.59975 6.5508 -0.477506 -0.496434 0.693267
O 1.525 7.64378 9.80417 -1.195138 1.216421 1.194734
O 9.80365 7.59745 10.8297 0.682611 0.003856 -1.318093
O 6.58169 10.4125 1.64134 0.566275 -0.7562 -0.542616
O 1.69097 7.46049 3.49207 0.267853 -1.030453 -0.399614
O 2.46241 5.39702 8.37752 1.351336 0.327918 -0.126554
O 8.75042 7.0238 2.33007 -0.618717 -0.250082 0.907806
O 10.3032 5.04792 10.2912 -0.679754 0.018205 0.155217
O 2.72525 7.02381 5.94278 -0.52883 -0.460721 -0.384199
O 5.19813 1.11304 11.5497 0.696367 0.37741 0.602775
O 9.07476 10.349 3.55731 0.539792 -1.815435 -2.92767
O 3.0014 8.80974 11.7496 -1.342053 1.488778 -0.941503
O 9.28476 11.2531 7.79565 -0.25791 -0.495527 1.275942
O 4.92779 5.71093 6.88515 0.420739 0.214717 0.669073
O 5.55081 4.18207 2.08509 1.249156 -0.708304 0.03666
O 6.83798 7.978 0.63294 -0.425913 -0.947136 1.79394
O 4.45889 8.22137 9.61494 0.11307 -0.135482 1.85507
O 8.64526 3.9001 12.131 -0.139499 -0.078265 -0.607143
O 0.68939 2.00747 11.5826 0.581887 -1.539442 1.114479
O 4.46161 10.5316 3.04253 -0.842096 0.275329 0.371463
O 1.05824 10.4051 0.33943 -0.128538 -0.201232 -1.256097
O 9.44807 4.89886 7.92507 1.148233 -0.531615 0.762471
O 6.92922 5.45889 8.58019 -4.423292 0.699233 2.032068
O 9.58095 7.68698 4.70325 0.034123 -1.075245 -1.295499
O 3.16557 9.12902 7.44578 0.429228 0.217819 0.506714
O 11.2234 2.36968 1.09314 -0.390681 -0.337729 -1.195366
O 0.514 4.3158 9.98872 -1.285218 1.238478 1.101389
O 8.28076 4.34191 2.3668 -0.031507 -2.356459 1.434924
O 5.48096 10.291 5.85936 0.873943 -2.220952 -0.109153
O 2.08726 5.07606 0.34809 -0.330749 -0.660362 -0.301445
O 0.27663 1.08005 2.72122 0.144252 -1.663208 -0.790634
O 3.53552 8.36915 2.04519 0.226077 0.294586 -0.213404
O 9.86299 11.6113 0.42712 -0.145777 -0.871565 0.726321
O 12.0323 8.13829 4.60132 0.028692 -0.292899 -0.604532
O 7.53685 8.80884 10.8421 -0.226529 1.602204 0.398878
O 12.0655 4.72405 1.56275 0.494777 2.624984 0.942237
O 0.50855 5.40943 6.31658 -0.438489 -0.693825 -0.423334
O 8.01937 9.28914 6.30374 -0.090691 -0.736461 1.783995
O 3.12688 2.32059 0.31036 0.650465 -0.671131 -0.357686
O 6.21248 3.59098 11.1084 0.827088 0.795658 -0.2085
O 12.1069 11.88 10.9535 0.236768 0.109653 0.511825
O 4.75309 6.30417 0.82345 -0.235987 0.337516 0.475664
O 11.7358 11.8154 4.68402 -1.337467 -0.728553 0.707196
O 2.82058 0.14234 1.98599 1.232754 -0.760059 -0.868901
O 4.60557 5.76156 10.5205 0.646538 1.374463 -0.156858
O 9.03735 1.32434 1.86218 2.862134 -0.251019 1.369307
O 11.0658 7.03226 1.03035 -0.309875 -0.577441 -1.003341
O 7.47125 11.9447 12.2336 -0.56829 0.632331 0.541412
N 7.95517 2.79207 9.23959 -0.423436 2.103515 -0.36934
N 5.87975 7.82968 3.97057 2.701214 -1.167879 1.578091
N 2.92169 1.12769 8.55433 -0.201015 -1.64077 -0.485676
N 3.20322 4.26408 4.24028 -2.681214 0.000227 -2.103237
N 2.02676 0.19067 5.30816 0.848731 0.087854 -0.102185
N 3.03829 2.17399 8.85361 0.235014 1.586515 0.525966
N 2.32172 4.29448 3.53652 2.813857 -0.040925 2.090001
N 6.79407 7.45326 4.51009 -2.905269 1.025053 -1.611531
N 3.10564 12.3933 5.14519 -0.601817 0.103127 0.197136
N 8.17688 1.7301 9.352 0.669944 -2.366724 0.279244
N 11.4509 1.84977 8.94897 -0.655481 0.467621 1.257015
N 11.8956 1.51932 8.00365 0.630289 -0.382981 -1.350643
Cl 9.087 3.46858 5.24764 0.353795 -0.148009 -0.112483
Cl 6.39156 11.4272 9.38316 -0.032809 0.129822 0.039492
193
energy=-1088.20124278 config_type=nep2xyz pbc="T T T" virial="-3.72800292988422 -6.791974080715287 0.6544997099667452 -6.791974080715287 -2.3005131080863523 -2.26238483174072 0.6544997099667452 -2.26238483174072 -0.044173583581457086" Lattice="12.4 0.0 0.0 0.0 12.4 0.0 0.0 0.0 12.4" volume=1906.6240000000003 Properties=species:S:1:pos:R:3:force:R:3
H 9.04795 5.11413 10.1176 -1.796157 -1.284442 0.138378
H 2.29708 11.4261 8.39984 0.215707 -0.316445 0.902373
H 2.3659 7.78385 1.6052 -1.335557 -1.853575 0.614281
H 6.24855 1.60823 3.83656 -0.134933 -0.113984 0.461744
H 7.76363 6.70797 10.5486 -0.209464 0.363337 0.190364
H 6.32839 0.74628 8.42194 0.724657 -0.933421 0.338167
H 7.13605 4.6873 6.97129 0.858748 1.017401 -0.023143
H 5.47628 10.142 10.3026 -0.219891 -0.373824 0.399116
H 5.63758 1.81842 6.39455 0.422669 -0.216305 0.637296
H 1.47555 8.09919 6.57473 0.385546 -0.551746 -0.11397
H 10.8976 4.32956 3.3324 -0.777666 0.254104 -0.391684
H 8.52421 7.8179 0.12742 0.777775 -0.185478 -0.29096
H 6.98268 4.43807 10.8306 0.4967 -0.081459 0.922477
H 1.98601 2.91067 0.92525 0.015945 -0.433689 -0.374184
H 9.08363 8.56842 1.99093 -0.173802 -0.13456 -0.044289
H 2.21986 11.6957 10.6465 1.092589 0.026041 -0.129376
H 1.43146 4.72983 10.7391 -0.322646 0.128965 -0.385834
H 0.40721 3.42489 7.12094 0.932064 -0.171897 -0.521533
H 12.2088 7.89246 9.45998 0.022111 0.265508 0.545537
H 10.9352 7.54075 7.62515 0.586448 0.234713 0.152933
H 10.3199 12.1384 8.93039 -0.78731 0.688687 0.618434
H 12.1686 9.85983 0.73327 0.477192 -0.787397 -0.327467
H 4.56036 8.36368 0.65217 -1.669718 0.662966 -0.060946
H 10.5084 6.39167 3.51032 0.696513 -0.199057 0.473099
H 8.53843 4.10344 6.65127 0.061972 0.303574 0.219993
H 0.788 7.51636 1.62815 0.959854 -0.639784 0.278198
H 4.36262 11.1049 6.56919 1.353579 -0.139428 -1.229474
H 6.54074 9.49916 8.40163 0.057703 0.818112 -0.85355
H 9.81501 1.62501 11.1057 0.401714 -0.003686 0.465809
H 0.51844 4.47982 9.42921 0.347743 0.111312 0.305028
H 5.16609 12.3616 11.5784 -0.018134 0.436557 0.775329
H 2.5173 6.69982 5.35235 0.76912 0.502248 0.753527
H 0.17637 0.07973 5.58281 -0.055695 0.011302 0.117354
H 0.98742 5.58958 6.53153 0.639421 0.204752 -0.03925
H 8.08137 9.18229 3.10187 0.395134 -0.421977 -0.551563
H 10.6227 10.633 8.52771 0.855686 2.300344 0.305801
H 4.26139 1.06292 4.49633 1.74809 -0.2183 0.163467
H 0.40868 4.55649 0.25745 0.719311 -0.341659 0.211811
H 0.79002 1.98322 6.31457 -0.061038 -1.366642 -1.11109
H 10.7361 4.4011 11.4898 -0.47335 1.323053 -0.998022
H 7.26077 3.11154 3.6705 -0.664904 -0.41035 -0.483
H 3.83194 11.3512 10.3424 0.028537 0.617423 0.667425
H 8.74379 4.54761 3.23742 -0.441355 0.107248 0.331174
H 9.01809 0.87747 1.2057 -0.064414 0.194314 0.399412
H 10.8686 3.10303 12.2162 0.823943 1.129052 0.244024
H 5.57743 12.3113 1.67751 0.064683 0.464746 -0.380383
H 11.7322 11.0157 1.52093 -0.470723 0.733618 0.819709
H 9.65914 1.65494 8.60013 -0.157863 0.07691 0.100235
H 5.3673 1.90778 0.29302 0.012786 -0.440276 0.13485
H 2.91951 12.39344 3.37247 0.296752 -0.095025 -0.572424
H 5.62284 3.67297 7.97463 -0.48814 -1.741224 -0.223748
H 0.47728 6.66762 10.006 0.28498 0.017829 0.976603
H 0.3991 12.0154 11.8363 0.131571 0.369804 0.330355
H 6.39064 8.02439 11.7126 0.15681 0.351392 -0.364623
H 7.14488 12.3057 1.96182 0.29149 0.211043 -0.192524
H 9.01811 2.33558 12.1634 -1.225144 0.79868 0.379204
H 1.64803 10.2954 7.37674 1.071152 0.696738 0.187109
H 1.62005 5.41076 0.8551 -0.153175 -0.653576 -0.02776
H 11.3721 2.79518 9.0243 0.560814 -0.664945 -0.296539
H 2.89058 6.73222 7.04245 0.879455 -0.390286 0.425066
H 3.95728 1.25762 0.37308 -1.795934 0.636323 0.276578
H 7.00044 2.17247 7.01297 1.455096 0.040526 -0.326852
H 7.78021 1.71268 3.02318 -0.895418 -0.354571 -0.230671
H 4.54674 8.87065 9.94607 1.313037 0.676867 0.205219
H 1.29814 12.147 6.6679 0.690944 0.513985 -0.915458
H 5.77167 12.1372 10.1537 0.801655 0.354755 -0.538526
H 11.9496 5.28243 7.01492 -1.936732 1.131313 0.802967
H 10.4668 0.62834 5.84448 -0.038533 -0.933359 -0.216275
H 6.26595 10.3873 2.47237 0.278817 -0.407065 0.251868
H 1.30486 0.81732 12.3747 -0.664666 -0.25119 -1.279544
H 6.96314 5.04953 0.85447 0.134181 -0.700751 0.064642
H 1.98541 0.71008 4.30958 0.764436 0.5187 0.176588
H 6.42455 10.2176 6.93712 -0.045782 0.009148 0.419181
H 6.90282 11.6207 8.54932 -0.114707 0.341122 -0.109736
H 5.05446 5.12532 8.38296 0.910195 -0.83087 -0.886344
H 4.77828 10.3132 5.29531 -0.329103 -0.307057 -0.490439
H 12.0973 8.7113 7.63894 -0.264614 -0.837469 0.099669
H 10.8698 4.16177 9.00023 0.134079 0.59955 -0.744094
H 10.7585 11.6413 6.41409 -0.08434 -1.009114 1.869303
H 10.6022 6.51491 5.73618 -0.521183 0.304067 1.022621
H 3.22209 10.1342 1.59686 -0.09505 0.456435 0.658462
H 3.6039 7.80756 4.16131 -0.81847 -0.762472 0.211741
H 2.38244 1.8891 2.01449 0.003299 -0.529101 -0.582892
H 12.1664 7.9123 11.7681 -0.575076 -0.013005 1.031609
H 8.85141 6.75268 1.17792 0.554268 1.463887 -0.687203
H 0.20358 0.23097 8.68875 -0.256142 -0.050243 -0.244365
H 7.19553 5.59331 2.36152 -0.083896 0.034289 -1.57732
H 11.097 7.8479 0.61943 -1.831204 -0.687422 -0.128692
H 8.6711 1.08755 9.6072 -1.795423 -0.590002 0.013987
H 9.42447 0.0654 2.48391 -0.382339 0.043115 -0.188326
H 10.6001 11.6484 3.968 0.012772 -0.197889 0.303507
H 4.79957 9.26823 3.55937 3.414645 -0.168134 -2.642528
H 12.097 10.0119 3.74024 0.934273 -1.043681 0.677813
H 6.43013 7.2863 0.67822 -0.095361 0.000268 -0.081358
H 3.16464 8.45491 12.2761 0.365139 0.527995 0.503085
H 8.23035 8.26257 10.3842 0.019288 0.341255 -0.662044
H 1.82077 8.07843 10.2353 1.307073 0.60622 0.342423
H 1.09716 2.0877 7.81613 -0.233827 -0.325356 0.514519
H 0.74081 9.24474 5.79655 -0.521376 0.322222 -1.779445
H 8.64394 9.66277 8.54123 -0.274807 -0.154598 -0.87039
H 10.5238 4.43739 1.75434 0.059444 0.291101 0.028631
H 3.32329 9.75072 3.57533 0.317801 0.34051 -0.290009
H 9.87582 6.21706 9.85088 0.797657 1.594617 -0.206312
H 9.89778 8.92176 9.29328 -0.994828 0.608045 -0.678591
H 9.86392 10.484 3.15758 0.606209 0.251994 -0.319622
H 2.36834 7.01342 3.50302 0.255176 -0.075192 -0.227614
H 2.62618 9.43687 10.273 0.276253 0.51236 -0.111732
H 2.70256 5.633 8.97041 0.908687 -0.077273 -0.2005
H 6.83111 4.81001 9.38385 0.703154 0.653898 -0.026336
H 10.0601 7.75387 3.79983 -0.598861 0.856605 0.413866
H 10.7198 3.35639 5.3745 0.046771 -0.064928 -0.616501
H 0.63521 0.85914 10.0102 0.437837 0.401911 -0.129506
H 1.87136 10.7021 2.04371 0.746161 0.216815 0.334783
H 9.57035 6.07772 6.86767 -1.3691 -0.498096 0.049673
H 5.3943 0.0374 5.01069 -0.083181 0.301443 0.074318
H 6.26525 9.01049 1.74742 0.284957 0.15477 0.671799
H 3.6157 6.80012 9.30765 0.234534 0.097576 -0.108528
H 8.08825 4.67326 4.7199 -0.69886 0.218293 -1.756756
H 11.9265 8.53334 4.0999 0.36127 -0.304372 0.144429
H 11.9487 4.29152 5.28066 -0.459128 -0.579145 -0.724582
O 10.991 11.592 8.53174 0.161487 -3.157261 -0.998869
O 0.9996 8.96288 6.66362 -0.143806 0.600964 2.065513
O 6.75256 0.07056 9.0423 0.001349 0.957593 -0.98412
O 6.10382 1.9957 7.26329 -1.828285 -0.119476 -0.422382
O 0.18331 9.2519 4.19632 -1.316927 1.378982 -1.054664
O 2.78516 0.88555 3.74092 -0.578109 -0.604551 0.363283
O 11.3561 3.69821 4.70215 0.455469 0.528837 1.332494
O 10.7929 12.1049 5.60463 0.129851 1.93253 -1.683441
O 0.11924 10.7013 1.08269 0.42946 0.114486 -0.429415
O 5.49184 9.20917 9.9926 -0.82375 -0.690092 -0.685
O 11.2851 4.06089 12.1824 -0.49607 -2.253591 0.971325
O 5.34971 11.6904 10.9086 -0.912699 -1.032386 0.146333
O 2.2035 6.73327 6.38365 -1.756128 -0.348479 -0.263459
O 11.9289 8.16611 0.32443 2.251794 0.728752 -0.704098
O 10.4568 6.39212 6.73997 1.29397 0.23748 -1.067762
O 1.63884 7.0779 1.94748 0.526114 2.31316 -1.330531
O 3.59771 6.01921 8.72435 -1.009504 0.05759 0.491167
O 9.03279 8.95409 2.91185 -0.059232 0.840109 1.178044
O 7.92598 7.575 10.9942 -0.092161 -0.74284 -0.162526
O 3.08238 6.92681 4.18206 0.331546 0.410031 -0.798609
O 4.87591 1.06079 0.41312 1.687195 -0.051193 -0.096199
O 10.5216 11.2483 3.07682 -0.683115 -0.363867 -0.037049
O 2.88594 11.2235 10.0889 -1.450404 -0.351059 -0.206658
O 11.5024 3.58864 8.48727 -0.695862 0.201178 1.617617
O 5.84922 4.58617 8.01019 -1.005128 2.480544 1.241263
O 7.22732 5.82214 1.37796 0.050848 1.260381 1.782261
O 6.08195 8.09746 0.23141 -0.678698 -0.482763 1.358533
O 7.00761 10.0796 7.71928 -0.211204 -0.569741 0.895296
O 9.58337 1.31292 9.52486 1.315936 0.25612 -0.62369
O 0.8502 0.43424 11.5398 0.623821 -0.242826 1.532867
O 4.05944 9.33917 4.08582 -3.128234 -0.170824 3.006781
O 2.83662 10.7428 2.31089 -1.210292 -0.501146 -1.201673
O 8.0633 4.96655 6.68183 -0.465816 -1.1318 -0.492269
O 7.38022 5.05662 10.1894 -0.921774 -0.168484 -1.257628
O 7.84927 4.56883 3.71874 1.17988 -0.447846 1.8945
O 2.19759 11.152 7.48269 -0.90279 -0.634819 -1.149594
O 9.83818 1.85117 12.0737 0.860539 -0.511695 -0.446717
O 0.28084 4.89799 6.58229 1.450399 -0.504428 -0.840801
O 6.93021 2.17868 3.31526 1.715643 1.016655 -0.036179
O 5.13358 10.9855 5.91044 -1.308096 0.264069 1.717394
O 9.9688 5.28327 9.93073 1.138513 -0.584955 0.058056
O 8.68937 0.6206 2.0959 0.72023 0.060469 -0.151696
O 3.54819 8.68493 0.77015 1.286385 -1.051489 -0.94712
O 0.32146 7.6047 10.3087 -0.189478 -0.688118 -1.385812
O 10.6703 7.09773 4.19112 -0.223157 -0.637119 -1.072215
O 6.35862 9.38925 2.66342 -0.406599 0.566035 -0.934689
O 1.3887 4.52361 0.47014 -0.504361 0.893602 -0.263841
O 10.3165 4.80348 2.63551 0.325508 -0.373989 0.292466
O 9.0225 9.39047 9.37826 1.41704 -0.56341 1.212305
O 2.2595 1.95628 1.03641 -0.086272 0.682616 0.608503
O 11.4496 8.19026 8.21916 -0.382568 0.864835 -0.220977
O 0.68356 1.00242 9.02707 -0.193903 0.057006 0.005111
O 1.19415 5.07153 9.84421 -0.258389 -0.11251 -0.019176
O 1.0563 0.38623 5.88708 -0.651478 -0.459096 0.052519
O 1.05034 2.62573 6.98239 0.068485 1.31625 1.611546
O 2.78399 8.47678 10.3466 -1.364403 -1.027313 -0.02358
O 5.2817 0.99429 4.7663 -1.852798 0.129679 -0.189351
O 9.22845 7.6316 0.80498 -0.875891 -1.71551 0.735919
O 6.28296 11.962 2.23673 -0.532457 -0.837273 0.639754
N 9.80555 10.944 12.2294 1.046252 -1.01317 0.418155
N 6.63088 7.76284 5.11732 -4.118123 -0.511384 -3.507271
N 3.34353 3.23616 10.1028 0.358131 -0.546502 0.126396
N 4.40154 3.9263 2.12652 1.679635 -3.290799 2.417953
N 3.3586 3.26811 5.24961 -0.550642 -0.022511 -0.035045
N 3.84624 2.25459 10.2058 -0.173484 0.335913 -0.129659
N 3.9841 4.73513 1.54634 -1.558166 3.423199 -2.365396
N 7.43096 7.8439 5.83005 4.13299 0.365877 3.540744
N 4.34356 3.75472 5.32272 0.518498 0.35578 0.012792
N 8.99359 11.5966 11.8904 -1.181725 0.698128 -0.593206
N 0.04294 1.80761 2.80105 0.69319 -0.263155 0.436131
N 11.4582 1.98907 2.34939 -0.798177 0.091108 -0.493546
Cl 9.29098 2.09159 6.54917 -0.158751 0.199634 -0.031818
Cl 7.13603 3.27789 0.03758 -0.298303 -0.767079 -0.007825
193
energy=-1088.1712448 config_type=nep2xyz pbc="T T T" virial="6.764365590976876 -4.153566378821852 6.818261647022247 -4.153566378821852 -10.988833427497628 1.8311687825333707 6.818261647022247 1.8311687825333707 -11.014240378183622" Lattice="12.4 0.0 0.0 0.0 12.4 0.0 0.0 0.0 12.4" volume=1906.6240000000003 Properties=species:S:1:pos:R:3:force:R:3
H 8.79705 5.44707 10.3548 -1.567076 -0.691394 -0.070563
H 2.45172 11.5655 8.17113 0.014604 0.168121 0.174051
H 2.63819 7.08256 1.55384 -0.21882 -0.03774 -0.008383
H 6.72768 1.38404 3.74857 0.704418 0.232156 -0.296481
H 7.42365 7.16247 10.1983 -0.226092 -1.15806 -0.23128
H 6.65998 1.5141 7.95632 0.047029 -0.449456 1.176546
H 7.28157 5.43179 6.46652 -0.488443 0.13192 0.4012
H 5.30754 10.1301 10.4981 0.095706 0.623496 0.077896
H 5.98874 2.04159 5.99084 1.666211 0.880543 0.642785
H 1.0392 8.26917 6.85205 0.372449 0.57474 0.477031
H 10.9386 4.41913 3.22847 1.514926 -1.151148 0.701653
H 8.94783 7.4351 12.2444 0.176564 0.200448 -0.145208
H 6.54892 4.98022 10.6926 -0.597092 -0.838913 1.619561
H 2.13604 2.64622 0.90305 -1.120839 2.074986 -0.184646
H 9.33478 8.44391 1.92153 -0.918633 0.974368 1.382971
H 2.061 11.5522 10.7254 0.105999 0.442235 -0.397348
H 1.62292 4.78032 10.8874 -0.372858 -0.546639 0.05815
H 0.40966 3.41364 7.69987 0.841841 -0.242967 -0.021086
H 12.0132 7.54163 10.2363 -1.067813 0.363183 -0.676247
H 10.4508 7.52955 8.49541 0.216757 -0.182765 -0.878911
H 10.2754 10.4925 7.96995 1.386784 0.187615 0.057442
H 0.29584 9.31762 1.15405 -0.144439 0.138268 0.003681
H 4.46538 8.4153 0.33939 -0.689435 -0.516203 0.000197
H 10.7043 6.27138 3.62147 -0.614021 0.739417 0.224177
H 8.54305 4.45235 6.29182 -0.838833 1.883737 -0.625089
H 1.11854 6.96572 1.9964 1.567136 -0.626637 0.0027
H 3.86313 11.2498 6.37206 -0.682285 0.127311 0.527024
H 6.43271 10.5253 8.49987 -0.203611 0.206755 -1.270803
H 9.4605 1.7648 10.7862 0.490187 -0.08111 -0.190012
H 0.68473 4.61039 9.61327 -1.113742 -1.063636 -0.160938
H 5.26916 0.1208 11.564 -0.190633 0.03713 0.485808
H 2.29528 6.88477 5.98749 0.484525 0.192675 -1.006981
H 0.37624 0.64147 5.53718 0.083125 0.223716 0.130984
H 0.94362 5.35927 6.98244 0.210509 -0.430955 0.114903
H 8.15014 9.21738 2.73725 -0.686461 -0.302977 0.001071
H 11.7533 10.0002 7.61367 -0.509502 1.50106 0.409104
H 4.65459 1.23912 4.22654 0.556178 -0.253411 0.548084
H 0.15905 4.17186 0.36037 0.737821 -0.188063 0.45672
H 1.28349 2.03871 7.05919 -0.690232 0.339353 0.38784
H 10.5208 4.7898 11.8209 -0.332786 -1.022057 0.373999
H 7.72346 2.81608 3.62104 -0.551271 -0.800811 -0.487092
H 3.50925 11.5199 10.2028 1.11891 0.473507 0.211117
H 8.8159 4.61755 3.17125 -0.647201 -0.004637 0.404371
H 9.31632 1.1034 0.74538 -0.281161 -0.109165 0.344869
H 10.3697 3.21415 12.3101 -0.148651 0.281405 -0.580835
H 5.77652 12.2219 1.70889 0.764414 0.096765 -0.101248
H 12.0941 10.5077 1.90679 -0.068756 0.251317 -0.052718
H 9.59522 2.55266 8.94823 -0.711512 -1.560463 0.648439
H 5.47578 1.71298 0.31505 0.129365 -1.340265 0.639085
H 2.77746 12.2538 3.34551 0.443476 0.389191 0.207002
H 6.04772 4.1061 7.17047 -0.064317 0.862219 0.512666
H 0.78558 6.48968 10.4185 -0.235701 0.942612 0.078484
H 0.90955 11.5985 0.26547 -0.280862 -0.775363 0.112522
H 6.62867 8.12598 12.0167 -0.106566 -0.721723 0.318043
H 7.35707 12.0982 1.66319 0.466212 0.38242 -0.362598
H 8.6399 2.16799 11.9126 -1.035989 0.691495 0.444476
H 1.86651 10.5521 7.14662 -0.013865 -0.101429 -0.389681
H 1.36451 4.9571 1.13989 -0.210629 -1.192661 -0.697473
H 11.84 2.90118 10.0013 -0.545626 1.215013 -0.826665
H 2.70203 6.65531 7.45973 -0.862986 -0.369294 -0.166026
H 4.066 1.30958 0.76506 0.795001 -1.158104 0.287037
H 7.57789 2.40327 6.5997 -0.555592 -0.026496 -0.760517
H 8.17559 1.5244 2.54552 -0.331946 -0.782106 0.064142
H 4.47087 8.9228 9.94261 0.707587 0.590765 -0.049231
H 1.66754 0.13812 6.36423 -0.492723 0.953376 -0.175448
H 5.60147 0.21945 10.0206 0.077781 -0.621202 0.866304
H 11.8939 5.28925 7.28927 -1.863293 0.629333 0.152559
H 10.7546 0.74153 5.01521 -0.896526 1.238555 -0.048154
H 6.31667 10.2481 2.37937 0.50427 -0.04995 0.475407
H 1.75594 0.47962 0.11916 -0.347805 -0.495511 -0.627637
H 7.35173 4.76445 0.75402 -0.435594 0.217059 0.211906
H 2.32381 0.85228 4.48879 -0.076547 -0.049299 0.167611
H 6.08112 11.0399 7.00561 -1.031587 -0.23968 -0.329209
H 6.85283 0.00697 8.38546 0.450125 0.737971 0.158401
H 5.12212 5.24847 7.8608 0.212012 0.237153 -0.11268
H 4.67319 10.4025 5.36269 -0.223638 -0.320645 -0.687368
H 10.1977 8.66121 9.47833 -0.256718 0.878696 0.213353
H 10.9463 4.25525 9.80627 0.646154 -0.894068 -0.313831
H 11.1872 12.2749 6.18404 -0.399544 -0.510206 0.56345
H 10.771 6.84777 5.95196 -0.345105 -0.014187 1.273241
H 3.03193 9.9268 1.5552 0.452623 0.235435 0.159689
H 3.56046 7.97788 4.46891 0.852142 1.228398 -0.890578
H 2.32155 1.70658 2.18925 0.209323 0.23882 -0.286364
H 0.10781 7.42445 0.15635 -1.504113 0.738734 1.610297
H 8.75916 6.44223 0.99056 -0.101883 0.12575 0.02646
H 11.8983 0.14686 9.02097 0.141243 0.270729 -0.612248
H 7.26917 5.32938 2.24456 0.185327 0.00922 -0.832782
H 11.1841 7.48067 1.13696 -0.646363 -0.370868 -0.529309
H 8.30556 1.59694 9.10649 -1.065819 -0.5509 -0.237381
H 9.57555 0.08493 1.97283 -0.18243 0.05802 0.375832
H 10.5481 11.3957 3.73405 0.357738 0.45503 -0.092358
H 4.94888 9.26852 3.55429 0.422845 -0.678962 0.771434
H 1.07607 8.06362 4.14126 0.113645 0.116299 0.037484
H 6.35238 7.03762 0.78402 0.552512 -1.143679 -0.001744
H 3.0648 8.60777 11.9853 0.145407 0.077502 -0.486629
H 6.63657 8.4766 10.0379 -0.284871 0.264036 0.265057
H 1.74259 8.36966 10.3469 0.48727 0.647822 -0.423949
H 0.61292 1.87233 8.51092 0.267587 0.504337 0.09847
H 0.58269 9.22042 5.7424 0.525527 0.160745 1.214544
H 8.36493 10.1028 7.51398 -0.338463 0.310057 -0.337558
H 10.4427 4.68363 1.7221 0.534534 -0.381874 -0.397052
H 3.64712 9.8471 3.48784 -1.530689 0.522964 -0.134407
H 10.0705 6.20783 10.0313 -0.314002 -0.763074 0.790651
H 8.47656 9.093 8.57204 -0.497028 -0.767506 1.008342
H 9.86252 10.4284 2.77558 0.247085 0.363092 -0.427221
H 2.91659 6.52113 4.03743 0.260122 0.932324 -0.01941
H 2.56844 9.72505 9.89377 -0.726602 2.492551 -0.657264
H 3.24844 5.71996 9.53311 0.133383 0.11651 -0.743291
H 6.78302 5.00747 9.25855 -0.600077 -0.59212 -2.693269
H 9.84414 7.64887 3.9439 1.097547 -1.122507 0.21182
H 11.1199 3.52228 5.02994 0.980989 0.271423 -0.498006
H 0.0091 0.33903 10.4288 1.114218 1.864641 -2.332265
H 1.88328 10.6353 2.18833 0.318686 -0.138188 0.02147
H 9.68346 6.2556 6.79761 -1.049631 -0.424551 -0.011734
H 5.27533 0.26988 5.30258 0.409113 1.131829 -1.311865
H 6.32885 8.83609 1.76726 -0.154604 -0.140168 0.804395
H 3.63362 7.17621 9.23744 0.239334 -0.817725 -0.288053
H 8.0102 4.94647 4.49412 -0.37856 -0.149058 -0.250527
H 11.9255 8.256 4.1216 -0.19497 -0.436189 0.05888
H 0.17308 4.00678 5.18082 -0.180999 0.275261 -0.079142
O 11.234 10.8104 7.94409 -0.130539 -1.089766 -0.453073
O 0.89678 9.24347 6.73785 -0.867842 -0.599605 -1.256693
O 6.88666 0.93364 8.77144 -0.963806 0.085292 -1.319115
O 6.59255 2.55559 6.67004 -1.227307 -0.511367 -0.140284
O 0.36833 8.72239 4.25563 0.282011 0.289476 -0.186788
O 3.00155 0.69435 3.80007 -0.260204 -0.053963 -0.506924
O 11.9084 3.84747 4.49253 -1.177346 -0.79134 0.758395
O 11.2503 12.3648 5.22731 0.892474 -0.886411 -0.182928
O 0.43267 10.2849 1.30701 -0.394675 0.093984 0.409365
O 5.35078 9.38477 9.87783 -1.040776 -0.538264 -0.314111
O 10.8205 4.09156 0.06637 0.581307 0.890576 0.650309
O 5.33142 11.9866 10.7489 -0.009866 0.217546 -1.416501
O 1.91257 6.64132 6.85311 0.151391 -0.178233 1.647754
O 12.1032 7.74709 1.06435 2.252541 -0.600899 -1.649109
O 10.5367 6.66797 6.93302 1.220074 0.331449 -1.070708
O 2.02934 6.51262 2.07433 -1.567879 0.611462 -0.273052
O 3.82539 6.2508 8.93243 -0.636203 0.794876 0.801094
O 9.10628 9.01771 2.74966 1.264001 -1.15527 -1.276677
O 7.42055 8.07577 10.4769 0.872472 0.822819 0.174762
O 2.98705 7.24494 4.69302 -1.786436 -2.761762 0.448417
O 4.97977 0.86921 0.66554 -1.119073 2.533238 -0.694294
O 10.3889 11.2948 2.77659 -0.213951 -1.025906 0.381592
O 2.60804 11.4325 9.89282 -0.738824 -0.63669 -0.127886
O 11.6919 3.69785 9.4083 -0.94018 -0.478368 1.580052
O 6.01914 5.05842 7.53062 -0.170085 -1.421431 -0.216333
O 7.3 5.60859 1.27042 0.19559 -0.384725 0.508481
O 6.09169 7.88471 0.42196 -0.27189 1.771456 -0.567121
O 6.78131 10.9478 7.66743 0.714715 -0.295522 1.736569
O 9.19631 1.76895 9.4395 2.164374 1.748024 -1.196587
O 1.3021 12.1622 11.982 0.284405 1.297395 0.550829
O 4.1252 9.30408 4.13816 1.955922 0.587423 -0.609063
O 2.87646 10.6161 2.24787 -0.612649 -0.247894 -0.404413
O 8.1406 5.38276 6.01911 1.803134 -2.032861 0.42713
O 7.09175 5.39417 10.0466 1.401227 1.661865 0.972151
O 7.88943 4.5371 3.57841 0.981227 -0.225236 -0.064353
O 2.38858 11.3985 7.2014 -0.187054 -0.156154 0.123224
O 9.56375 1.9144 11.7967 0.603423 -0.411888 0.683852
O 0.19868 4.6861 7.10871 1.56726 0.16294 -0.66645
O 7.52421 1.85596 3.29707 0.03295 1.552804 0.907357
O 4.72571 11.1892 5.93195 1.170421 0.65883 0.231785
O 9.7424 5.3515 10.4563 1.954332 1.501549 -0.948449
O 8.93543 0.75472 1.61334 0.347956 -0.044493 -0.532862
O 3.47191 8.37728 0.4337 0.348716 0.391267 0.714662
O 0.44535 7.41503 10.6895 1.62207 -1.319383 0.820691
O 10.5863 7.03281 4.25991 -0.593628 0.931319 -0.555136
O 6.38047 9.27908 2.6716 -0.191033 0.250643 -1.228569
O 1.13526 4.12395 0.60775 -0.324703 1.511374 0.075703
O 10.3751 4.9267 2.66628 -1.639763 1.244266 -0.760132
O 9.00069 9.46444 7.87462 0.237167 0.351148 -0.53406
O 2.4286 1.81636 1.22576 1.118695 -2.426911 0.183463
O 10.4942 7.76172 9.43873 0.384189 -0.837808 0.249447
O 0.08302 0.79664 9.46925 -1.350851 -2.39086 2.932029
O 1.47125 5.0308 9.9616 1.608768 1.618569 0.779502
O 1.22507 0.97623 5.92655 0.967948 -1.131027 0.154867
O 1.04193 2.57583 7.91852 -0.101478 -0.838046 -0.711032
O 2.62668 8.84462 10.2012 0.22853 -3.619949 1.022093
O 5.50001 1.15 4.76379 -1.210598 -1.53704 0.45411
O 9.38702 7.13645 0.65269 -0.016512 0.086117 0.273678
O 6.56981 11.7544 2.08901 -1.280173 -0.251432 0.403261
N 9.90479 10.684 11.4306 1.305521 -0.061279 0.064358
N 6.82129 8.70843 5.66758 -0.932432 -1.897874 3.259235
N 3.41824 2.89632 10.247 0.364477 1.904485 0.917689
N 4.98795 3.83766 2.06904 3.631401 -1.773274 -1.234278
N 3.78473 3.62027 5.81177 2.458547 -1.104297 2.087062
N 3.28185 1.89836 9.82477 -0.163414 -1.803024 -0.874934
N 4.06796 4.27794 2.42617 -3.634118 1.765312 1.355939
N 6.54064 8.18937 6.63229 0.889029 1.651878 -3.342807
N 2.98983 3.96187 5.1577 -2.619478 1.093224 -1.972167
N 8.81132 10.7397 11.36 -1.268739 0.094829 -0.055885
N 11.7405 1.59795 2.28476 -1.506128 1.423208 -0.585483
N 0.13798 0.91772 2.59088 1.370302 -1.334489 0.602786
Cl 9.50971 2.4891 6.27855 0.332759 0.31005 -0.138027
Cl 6.74252 2.97181 11.9489 -0.001503 0.289203 -0.015506
193
energy=-1087.14747393 config_type=nep2xyz pbc="T T T" virial="-0.6129560730370937 1.89723875452805 1.082121895423663 1.89723875452805 -4.565634988378725 -6.528182101391429 1.082121895423663 -6.528182101391429 -7.423089875882042" Lattice="12.4 0.0 0.0 0.0 12.4 0.0 0.0 0.0 12.4" volume=1906.6240000000003 Properties=species:S:1:pos:R:3:force:R:3
H 8.25424 5.13769 10.4827 0.981806 -0.067115 -0.742795
H 1.64257 0.06414 6.96182 -1.150137 0.483763 -0.173965
H 2.84195 6.79871 0.89821 -0.766494 0.049514 0.0586
H 7.18554 1.87253 4.65604 1.117728 0.807798 -0.128056
H 7.70405 7.86315 9.22937 -0.138243 -0.749663 -0.701801
H 7.65211 1.94389 8.53479 0.062092 -1.323651 -0.676288
H 6.71422 6.28987 8.16619 -0.051458 0.008053 -0.080192
H 7.93728 0.1682 8.85814 -0.403202 -0.640094 -0.396717
H 6.58432 3.52535 6.53242 0.730839 0.073151 0.260924
H 1.18655 8.94019 6.86301 -0.827984 0.497281 -0.042254
H 12.274 3.60067 3.81956 0.373394 -0.258953 0.260212
H 9.90758 4.79012 11.7872 -0.257888 0.279619 0.355431
H 6.70293 3.98454 11.1704 -0.221286 0.773137 0.228277
H 2.50224 2.27802 0.67785 -0.088944 0.592175 -0.404879
H 9.86237 5.8881 1.72894 -0.051431 -0.111896 -0.6013
H 3.61329 11.6535 9.977 -0.600934 -0.409702 -0.2717
H 1.7369 4.4875 11.2432 -0.302095 -0.601209 0.09767
H 0.20065 1.81473 7.6258 -0.767016 -1.245404 -1.067211
H 11.6096 7.26071 10.2385 -0.893315 0.42576 -0.864774
H 10.2461 8.00943 8.11341 0.173105 -0.00734 0.342704
H 11.9225 10.6708 8.04199 -0.219066 -0.641988 0.345268
H 0.17411 9.57298 1.39937 0.334489 0.690708 0.282448
H 4.50487 7.6474 12.1529 -0.182938 0.563905 -0.166613
H 11.6732 6.30477 4.55959 0.129033 -0.576348 -0.187178
H 8.16637 6.43076 7.41442 -1.392799 0.98557 1.602772
H 1.35338 6.7753 1.58905 1.363675 -0.540901 -0.87535
H 3.831 12.2191 6.11405 1.077986 -0.33162 -1.054337
H 7.09814 11.247 8.034 -0.582832 -0.418352 -2.022888
H 9.6753 1.39224 11.6391 -0.421981 0.298984 -0.602522
H 0.81874 4.14054 9.93349 -0.371615 -1.049857 0.085163
H 5.42958 10.8203 11.5041 0.039552 0.777262 -0.947627
H 2.52635 7.25085 5.56029 -1.010746 0.907784 0.755312
H 8.94928 11.2401 5.9517 0.329746 0.190589 -0.373527
H 11.9898 5.55139 6.76316 -0.936382 0.004491 0.476195
H 8.99887 7.21556 1.83645 -0.936246 0.216145 -0.333308
H 11.0352 9.89493 9.03986 -0.28267 -0.930073 0.13888
H 5.44168 1.92054 3.38411 -0.000731 -0.366278 -0.772035
H 0.92774 3.53138 0.21275 0.352253 -0.018673 0.617736
H 11.8204 0.82506 6.54167 -0.986679 0.076338 0.30984
H 11.3438 3.86534 0.47153 0.294466 -1.333644 0.221676
H 8.44903 2.92984 4.64153 -0.074194 1.906308 -0.536417
H 2.81942 11.6674 8.58671 -0.248876 -0.020493 0.508217
H 9.93996 4.08526 3.9143 1.0544 -0.027081 -0.848024
H 7.47567 0.1782 1.66848 0.111129 0.697187 0.560483
H 11.2993 2.3432 0.29781 -0.62768 -0.996465 0.12116
H 5.48449 11.4352 1.07336 -0.184303 -0.277152 0.295789
H 0.13064 10.1233 2.80692 -0.386164 0.351901 0.95544
H 9.03368 2.19837 9.43715 1.236683 0.070364 0.968596
H 5.31045 1.13514 0.8415 0.013002 0.230402 0.587882
H 3.71667 2.68139 4.19442 0.035517 0.038975 -0.383083
H 5.41027 4.49649 8.2727 -0.69906 2.145763 0.547912
H 0.2467 6.2304 10.7389 0.555446 -0.862783 -0.061518
H 0.29034 11.7094 1.12737 0.613673 0.387768 0.028277
H 6.87279 7.87314 11.2312 0.302441 0.414086 -0.428245
H 4.99105 9.99198 1.32275 0.300223 0.10237 -0.202149
H 9.28185 1.0572 0.73205 -0.295207 0.037703 0.324497
H 1.93407 10.9058 7.02051 -1.126152 -0.73141 -0.185115
H 2.15515 4.45947 0.78404 -0.025947 1.406272 1.241584
H 0.20416 1.57995 9.84049 0.079834 0.822057 -0.33442
H 2.42012 7.24202 7.20133 -0.191456 0.053377 -0.528315
H 4.08501 0.91095 1.76706 -0.34449 0.001704 -0.125299
H 7.95959 4.00797 7.31255 -1.109987 -0.382854 -0.485635
H 8.01015 1.24772 2.82568 0.198576 -0.973085 -0.860953
H 6.69878 11.3776 9.57313 -0.564227 -0.289081 0.315864
H 9.95563 11.4687 7.02938 0.569706 -0.360399 0.057876
H 5.40253 12.2893 10.9226 0.31546 0.506938 0.270225
H 0.88388 6.30339 6.4154 1.202008 1.913602 0.047653
H 9.25418 1.7099 5.81369 -0.062626 -0.631231 0.654573
H 6.99652 7.43004 2.55249 -0.429007 -0.403716 0.275155
H 1.09252 0.8927 0.85664 0.297333 -0.640746 0.468198
H 7.65159 2.77559 1.37153 0.380936 0.880827 -0.048027
H 2.16949 2.98615 4.21615 0.709419 -0.229619 -0.693506
H 6.19318 11.6939 6.14961 0.53283 0.22179 -0.117067
H 8.97976 1.31668 7.73836 -0.024447 0.044104 -0.413766
H 4.30249 5.76678 8.64179 -0.058351 -0.530371 -0.130865
H 4.66628 11.534 4.81035 0.053051 1.141642 1.413858
H 9.63165 7.77138 9.52362 0.109362 0.374697 0.132806
H 11.3119 2.31566 9.76097 -0.78273 0.565721 -0.334601
H 10.2203 2.55586 6.64974 -0.019239 -0.084749 0.657554
H 9.67636 9.22456 6.37101 0.624117 -0.285612 -0.264636
H 3.1628 8.86804 1.61283 0.287161 -0.472725 -0.013116
H 2.5957 8.06511 3.63736 0.3839 -0.618 -0.026183
H 2.45681 2.19691 2.19713 -0.005952 -0.338366 0.400802
H 12.2037 7.56483 0.0036 -0.051595 0.3205 0.767414
H 9.22551 4.31092 0.82003 0.943889 0.017962 -0.991829
H 12.0661 11.6316 9.82915 -0.307995 0.153278 0.62264
H 7.96718 3.82856 2.49692 0.154944 0.128729 0.300118
H 11.6788 7.53247 1.55278 -0.653797 -0.142184 -0.158721
H 9.67139 3.49374 10.0573 -0.22119 0.306062 0.288918
H 7.99141 10.7279 2.68217 -0.328613 0.931269 0.032495
H 7.79801 9.13998 4.10385 0.141164 -0.588597 0.883584
H 5.62277 9.53405 4.27838 0.249261 -0.374629 0.153197
H 11.5996 8.64836 4.51864 -0.064917 -0.001179 -0.011251
H 6.23001 6.52136 11.6367 0.261371 1.376212 0.564199
H 3.10999 8.25362 11.6499 -0.432718 0.205934 -1.23121
H 7.7583 9.24389 9.89002 0.223362 0.377824 -0.002032
H 1.44399 8.33056 10.1663 -0.851841 -0.428195 0.395383
H 1.14599 11.7989 10.1259 1.203193 0.115764 -0.111928
H 0.20947 9.93646 6.09039 0.410777 -1.052451 1.325056
H 7.04998 10.47 5.83483 0.2697 -0.630204 -0.026871
H 11.8551 3.80883 2.30325 -0.176096 -0.397939 0.423319
H 4.47357 9.84147 3.25288 0.672282 0.48235 0.667576
H 9.39963 5.31713 9.27882 -0.273093 0.038772 0.590543
H 8.00667 8.08015 5.33776 -0.596073 0.925317 -0.45194
H 8.08046 9.3146 2.20703 -0.540159 -1.006811 -0.721322
H 2.64651 6.55501 3.15116 0.376336 1.175115 1.313342
H 2.35569 9.5651 10.0026 0.396016 -0.452711 -0.219833
H 2.26534 5.61715 9.24337 -0.398989 -0.741423 0.168116
H 6.02956 5.01553 10.165 1.11416 0.230082 0.806792
H 10.468 6.8805 3.63116 0.042205 -0.468848 -0.5106
H 0.63971 2.48929 5.68575 0.100327 1.002653 -0.584497
H 0.48969 12.312 11.9066 -0.460017 0.086091 0.28548
H 2.30793 9.89032 2.26138 -1.74793 1.477897 -0.110576
H 10.2093 7.70065 6.04722 0.617307 -0.046515 -1.127419
H 5.23648 1.25114 4.78731 0.07999 0.307198 -0.316968
H 6.85785 7.66995 0.88929 0.709514 0.488281 1.781845
H 2.66444 7.03335 9.28462 0.473717 0.964429 0.131148
H 9.27392 4.78007 5.07386 -0.173002 0.313566 0.031254
H 11.1441 10.1648 4.79986 -0.17994 -0.24313 -0.1153
H 0.64654 4.14172 5.57616 0.339567 -0.185901 0.130513
O 11.246 10.7866 8.7514 0.280457 1.289637 -0.353574
O 0.52588 9.6907 7.03851 0.687409 0.463086 -1.53565
O 8.25148 1.1346 8.48014 -0.672839 1.893511 0.095633
O 7.10095 3.47762 7.35932 0.343169 0.213058 0.415344
O 11.8966 9.59361 4.57585 0.235181 0.515949 -0.334607
O 2.94204 2.7086 3.60893 -0.850114 0.580057 1.33298
O 0.82801 3.28771 5.09541 0.022341 -1.15954 0.575292
O 9.82949 1.66079 6.67637 -0.276832 0.541389 -1.30621
O 0.43527 10.404 1.93475 -0.100956 -1.373256 -1.141169
O 7.43049 11.3426 8.91399 1.075797 0.390947 2.135403
O 11.9238 3.00861 0.61681 0.372702 2.329102 -0.156564
O 5.40217 11.366 10.6288 -0.210714 -0.848017 0.86175
O 2.01686 7.63928 6.38829 1.308586 -1.161227 -0.229055
O 12.3136 7.93677 0.94927 0.521176 -0.055224 -0.464337
O 9.74345 8.28662 6.63721 -1.039328 0.331911 0.87581
O 2.21068 6.25591 1.45182 -0.946795 0.162223 0.894535
O 2.80474 6.25633 8.7319 0.002778 -0.011861 -0.225447
O 9.74786 6.72985 2.18101 1.234313 0.237828 0.884065
O 7.95108 8.31634 10.0606 -0.235049 0.526951 0.792755
O 2.84809 7.16959 3.96015 -0.576169 -0.889201 -0.96559
O 5.04704 0.76526 1.73301 0.331923 -0.090719 -0.446594
O 8.57401 9.97975 2.69167 0.861231 0.307954 1.013116
O 2.72413 11.4998 9.56401 0.916544 -0.112584 -0.027812
O 12.2415 2.4365 9.4749 1.461948 -1.48309 -0.009972
O 5.24986 5.43917 8.62692 1.089325 -1.919097 -0.274884
O 7.90299 3.72135 1.54087 -0.182855 -0.816411 -0.201119
O 6.22325 7.51999 11.8797 -0.377316 -2.235679 0.0462
O 7.12188 11.3334 6.27435 -0.907664 0.104838 0.091919
O 9.77686 2.51758 10.0004 -0.697401 -0.347712 -0.217832
O 0.55908 0.08406 0.51745 -0.441376 -0.015987 -0.344248
O 5.26353 10.2428 3.73199 -1.178288 0.035778 -0.295727
O 3.02189 9.317 2.47095 1.394234 -0.689037 -0.402596
O 7.47863 6.88966 8.03661 1.25898 -1.06488 -1.592357
O 6.7183 4.96332 10.924 -1.093067 -0.721859 -1.098666
O 9.07829 4.41997 4.18833 -0.664929 -0.088671 0.509787
O 2.31262 11.7834 6.9543 2.250339 0.480311 0.061647
O 9.99378 1.31554 0.13309 0.956651 -0.200344 -0.010294
O 0.43531 5.48291 6.33353 -0.658651 -1.783995 -0.480574
O 8.20138 2.01331 4.60916 -1.015138 -2.648361 0.301187
O 4.69108 12.2647 5.56429 -1.011987 -1.243388 -0.567851
O 9.24929 5.05181 10.2162 -0.73067 0.297753 -0.092148
O 8.18366 0.788 1.94873 -0.505711 0.201942 0.73406
O 3.57393 7.87168 12.3931 1.027595 -0.33788 1.563323
O 12.3358 7.13651 10.8503 0.657008 0.653999 0.774671
O 11.1252 7.05736 4.34018 -0.103381 1.139232 0.884819
O 7.34175 7.92913 1.81714 -0.527449 -0.340489 -2.365588
O 1.90595 3.80287 0.15692 -0.075218 -1.208917 -1.561665
O 11.6346 4.0307 3.23119 -0.715095 0.563552 -0.700709
O 7.37377 8.71622 4.91715 0.639189 0.329219 -0.512229
O 2.32416 1.64474 1.38702 0.226821 -0.906988 0.005743
O 10.4844 7.936 9.08263 0.064063 0.009871 -0.047323
O 0.29885 12.123 10.452 -0.680227 0.008532 -0.425446
O 1.26599 4.82499 10.4284 0.307296 1.677842 -1.051481
O 9.91413 11.1365 6.11675 -0.920389 -0.126328 0.328251
O 0.24233 1.25033 6.76788 1.714407 1.223058 1.39456
O 2.37161 8.58661 10.151 0.066127 1.138937 -0.151451
O 5.64002 2.04249 4.31678 -0.318464 -0.379431 1.18298
O 10.0619 4.70596 0.35414 -0.885788 -0.121254 0.640568
O 5.61812 10.5012 0.78529 -0.138617 0.453744 -0.31769
N 9.68038 10.1187 11.6158 0.527092 -0.308044 -0.049388
N 5.05639 8.40819 8.14587 -0.2912 -0.036784 0.603518
N 3.21755 2.38084 7.98801 -0.965862 -1.424555 2.034683
N 5.56389 5.33404 1.33116 -2.701984 -3.270216 -0.48849
N 5.00804 5.43795 5.04548 -2.180284 -2.836053 1.556872
N 3.58687 2.96364 7.14486 0.919961 1.374113 -2.016625
N 4.87367 4.44996 1.16698 2.419075 3.233555 0.672291
N 5.43121 8.67032 7.14458 -0.043964 0.29102 -0.518968
N 5.63643 6.22085 4.64158 2.271216 2.693403 -1.566685
N 8.85242 10.812 11.8304 -0.448414 0.372483 0.126111
N 11.622 0.25578 3.69228 0.557953 -0.073137 -0.151579
N 10.5741 0.51772 3.90863 -0.337618 0.0828 -0.039023
Cl 9.75058 5.12918 7.07019 0.115247 -0.393471 0.055316
Cl 6.20435 2.03348 11.6639 0.047391 -0.329345 -0.441867
193
energy=-1087.56023599 config_type=nep2xyz pbc="T T T" virial="2.3052969929461975 -3.6404530768646133 -4.996505931464343 -3.6404530768646133 -3.4833345897886496 -4.789109052515628 -4.996505931464343 -4.789109052515628 -5.695774235567253" Lattice="12.4 0.0 0.0 0.0 12.4 0.0 0.0 0.0 12.4" volume=1906.6240000000003 Properties=species:S:1:pos:R:3:force:R:3
H 8.84064 5.5455 10.3771 1.628439 -0.111089 -0.734039
H 2.51325 11.164 8.02655 -0.419278 -0.000175 0.073552
H 2.70111 7.04326 0.61036 1.155284 1.02281 -0.383116
H 6.40992 1.61548 3.71382 0.735054 -0.076867 -0.211817
H 7.59041 7.38034 10.3729 -0.038904 0.478697 -0.630302
H 6.47447 1.60499 8.52266 -0.197237 1.027526 0.421118
H 7.04019 5.37125 6.62025 -1.249398 0.394875 0.642434
H 5.34436 10.201 10.0843 -0.414881 0.16101 0.601264
H 5.79233 1.94142 6.24521 0.464406 0.571686 -0.078616
H 0.71872 8.45419 7.64988 0.545924 -0.976898 0.812403
H 11.3006 4.45666 3.42658 0.288157 -0.427419 0.522675
H 9.3668 7.88718 11.8829 -0.532047 -0.54065 0.172023
H 6.92826 4.95877 10.3924 0.178187 0.5613 0.474652
H 1.99133 2.74761 0.70798 0.417414 -1.222268 -0.051513
H 9.23678 8.63412 2.00897 0.509744 -0.444389 -0.880652
H 2.12079 11.8601 10.5013 0.571073 -0.91761 -1.190518
H 1.5321 4.27465 10.927 0.112792 -0.787243 1.741203
H 0.47748 2.96596 7.70549 0.190724 1.186198 0.04285
H 0.0461 7.5327 9.92443 -1.032096 0.355749 -0.913633
H 10.951 7.31966 7.93162 -0.312094 0.158817 0.642345
H 10.4891 10.9432 8.42347 0.495461 -0.099691 -0.431206
H 0.00395 9.32734 1.24298 0.602644 1.546765 0.553192
H 4.58445 8.2787 0.17454 0.457513 -0.149808 -0.078624
H 10.8464 6.28593 3.95486 0.008507 0.291453 0.213501
H 8.21621 4.4502 6.8386 0.336199 -0.80251 0.061033
H 1.19182 6.98064 0.95651 0.307372 -0.561832 0.148485
H 3.87946 11.0065 6.22395 -1.299057 -0.250178 0.504608
H 6.22247 10.4443 8.01025 0.512194 0.115308 0.47151
H 9.60311 1.41533 11.3759 -0.239558 0.793991 0.682888
H 0.4679 4.14933 9.74652 -0.17939 -0.340383 -0.006133
H 4.80543 0.05779 11.4631 0.546508 -0.607396 -0.002046
H 2.40562 7.07862 6.04246 1.161294 -0.111195 -1.881186
H 0.49914 0.53054 5.13962 0.490169 0.163708 0.931461
H 1.12365 5.43222 6.80505 -0.774073 -1.279318 0.486616
H 8.20813 9.23002 2.9007 0.087298 -0.340021 0.287351
H 11.6598 10.7169 7.36989 -0.154194 0.308725 1.384346
H 4.48969 1.20667 4.3488 0.455481 -0.07129 0.099649
H 0.52626 4.0594 0.57277 0.206439 0.069696 -0.290772
H 1.02187 1.76654 6.73624 0.73715 -0.648467 0.960886
H 10.7995 4.75191 11.7802 0.148036 0.768881 -0.15283
H 7.31885 3.09413 3.3283 0.274352 -1.35997 -0.02706
H 3.62088 11.7048 10.0227 0.1614 -0.128295 0.087203
H 8.80899 4.32159 3.62346 1.821134 0.05617 0.055254
H 9.29284 0.95064 1.34861 -0.063989 0.184939 -0.352137
H 10.4254 3.55721 0.11551 -0.037463 -0.868535 0.482059
H 5.68426 0.27113 1.20489 -0.497114 -0.537653 0.459524
H 12.0751 10.6388 2.15265 -0.479329 -0.261197 0.258317
H 9.54162 1.5217 8.25675 -0.084622 0.238284 -0.295334
H 5.42207 2.00866 12.33626 -0.973764 -0.275564 0.376277
H 2.94293 12.3261 3.11382 -0.085802 -1.686454 -0.536507
H 5.61169 4.02713 7.67233 0.354527 0.691752 -0.381084
H 0.86934 6.32067 10.2625 0.437744 -1.04488 0.094983
H 0.826 11.5779 0.04254 -0.167972 -0.372145 0.663293
H 6.99809 7.9348 11.8676 -0.474123 0.309329 0.543047
H 7.01158 12.0127 1.47135 0.549034 -0.029501 0.247823
H 8.62471 2.45916 12.0655 -0.464807 -0.146887 -0.263775
H 1.66033 10.2714 7.00465 -0.314063 -0.497281 0.451545
H 1.7871 5.02679 0.61873 0.163803 -0.047538 0.343952
H 11.4938 2.45546 9.4847 0.641637 1.620122 -0.089316
H 2.68794 6.49328 7.52143 -0.082769 0.487607 -0.607113
H 3.87877 1.47179 0.34784 -1.3603 1.088447 -0.122903
H 7.25064 2.463 6.68422 -0.158964 -0.161283 -0.273492
H 7.88086 1.49777 2.74019 0.03228 -0.463719 0.284625
H 4.9122 8.73868 9.60601 0.715614 1.332509 -0.066996
H 1.59433 12.2847 6.14063 0.032059 0.346956 -0.005692
H 5.60823 12.2048 10.1819 0.803422 0.712185 -0.528116
H 12.0387 5.27815 6.96898 -0.899564 -0.191533 0.391783
H 10.2352 0.81607 5.42826 0.981101 -0.557731 -0.143342
H 6.32278 10.307 2.01148 -0.219943 -0.263574 -0.164118
H 1.53802 0.70826 12.29373 -0.68402 -1.642413 -0.10325
H 7.52226 5.03408 0.69928 0.176655 0.185024 -0.451282
H 2.35042 0.99402 3.98386 0.202555 0.22468 -0.045767
H 6.05593 11.3951 6.90134 -0.311081 0.048012 -0.975063
H 6.79016 0.2427 8.4372 0.503889 -1.001869 0.781742
H 4.7127 5.10329 8.27753 -0.651951 0.836706 0.551865
H 4.78724 10.4691 5.0307 -0.348761 0.632286 1.160952
H 10.8292 8.64169 8.84956 -0.125095 0.827173 -0.245491
H 10.8922 3.93874 9.31386 1.012798 -0.499859 -0.216363
H 10.7839 12.1051 6.3225 0.573551 0.181855 -0.413362
H 10.7527 6.60369 5.89656 -0.231762 0.255717 -0.170598
H 3.27842 10.8664 1.70422 0.057036 -0.170621 -0.35938
H 3.29039 7.75655 4.01874 -0.245898 -0.743198 -0.22063
H 2.64226 1.40656 1.55465 -1.10113 0.587617 -0.65808
H 12.2427 7.4708 11.963 0.390536 -0.084331 0.920488
H 9.28815 6.80135 0.76936 -0.60757 0.808042 -1.248144
H 11.5239 0.56192 9.21127 0.727933 -0.313695 0.630844
H 7.77961 5.32172 2.15673 0.27492 1.09746 -1.033778
H 11.1443 7.38443 0.6404 -0.696686 0.286805 0.036206
H 8.46338 1.36202 9.40455 1.858496 -0.269159 -0.732801
H 9.54966 12.34674 2.54831 -0.152388 -0.000929 -0.023296
H 10.8336 11.3914 4.04494 -0.013697 0.153491 0.597454
H 5.15376 8.85243 3.2868 -0.746097 0.416822 0.17634
H 1.24498 7.82458 4.42567 1.941068 -1.946505 -0.795702
H 6.73712 7.04552 0.74392 -0.609162 0.739069 -0.810873
H 3.3015 8.69351 11.7834 0.346311 0.021452 -0.292766
H 7.40776 8.99663 10.2611 0.199798 -1.000043 0.046508
H 2.0519 8.58598 10.1726 1.609752 -0.768893 -0.174183
H 0.77481 1.67773 8.46157 0.388764 -0.53129 -0.135497
H 0.53126 8.83419 6.19099 -0.116824 0.121069 -0.210025
H 8.60777 10.6356 7.89402 -0.990884 0.514378 -0.622776
H 10.7124 5.17449 2.17798 -0.178011 -0.334172 0.116248
H 3.83828 9.75723 3.27523 -0.050743 -0.981118 0.293071
H 10.142 6.19655 9.77025 0.444763 1.689415 -1.014445
H 8.83226 9.14318 8.24176 0.193931 0.820865 0.297299
H 10.1379 10.2207 3.20259 -0.348335 -0.641877 0.105168
H 2.53891 6.8398 3.02601 -0.03793 -0.230273 0.413442
H 2.96478 9.7779 9.83954 0.420903 -1.164418 0.423223
H 2.66156 5.24174 9.57452 -0.110926 0.137259 -0.211096
H 6.65988 5.43228 9.00944 0.52959 1.029576 0.520867
H 9.90344 7.4874 4.02644 1.224561 0.197684 0.925552
H 11.239 3.0296 4.89784 -0.158032 -0.223969 -0.025605
H 0.03412 0.52203 10.5278 0.599704 -1.035557 1.390428
H 1.76454 10.5582 2.05419 0.482582 -0.143287 0.386079
H 9.65545 5.862 6.74761 2.16312 0.921525 0.308086
H 5.27831 0.22732 5.18099 -0.142344 -1.494516 0.37306
H 6.6666 8.82452 1.46056 -0.549596 0.177827 -0.429514
H 3.33762 6.64717 9.61053 0.013357 0.513926 0.196893
H 7.62259 4.59506 4.61632 0.707713 -0.120462 -1.031568
H 12.1402 8.13885 4.48034 -0.112995 -0.205357 -0.166565
H 12.32876 3.83699 5.49887 0.633564 0.695052 0.474971
O 11.2998 11.3623 8.04249 -0.091622 -0.245586 -1.007875
O 0.39413 9.1687 7.12672 -0.472674 1.019003 -1.112118
O 6.78882 0.92907 9.15308 -0.351699 -0.105852 -0.915514
O 6.29235 2.52047 6.88398 -0.183283 -0.265482 0.467835
O 0.6353 8.50094 4.60983 -1.866416 2.316084 0.906553
O 3.06069 0.84805 3.32791 -0.007067 1.832037 0.729803
O 12.1023 3.40928 4.65979 -0.410309 -0.194412 -0.219549
O 10.945 0.0932 5.4216 -1.300578 0.31164 0.60487
O 0.31326 10.2623 1.51531 -0.045656 -1.389904 -1.070711
O 5.57855 9.4754 9.49331 0.086189 -1.444713 -0.589434
O 10.9854 4.33598 0.24083 0.029817 0.132185 -0.05692
O 5.05968 11.7317 10.8095 -0.578936 0.494113 0.668465
O 2.07787 6.97024 6.90641 -0.902742 -0.725111 2.657397
O 12.1057 7.47199 0.55366 0.994972 0.456546 -1.044753
O 10.6301 6.22019 6.80703 -2.202352 -0.957484 0.118357
O 2.05646 6.49038 1.04947 -1.230218 -0.613984 0.710813
O 3.42822 5.76742 9.23917 -0.059946 -0.322033 -0.486418
O 9.13893 8.86966 2.9353 -0.836124 0.477978 0.492484
O 7.94738 8.26249 10.6555 -0.062676 0.107616 -0.304909
O 2.70187 6.93119 3.99321 0.172094 0.934255 -0.239072
O 4.80529 1.28064 0.27226 2.529009 -0.777685 -0.596478
O 10.7321 10.9872 3.16999 0.231065 0.862424 -0.726859
O 2.71007 11.476 9.73428 -1.149825 0.332838 0.893684
O 11.7272 3.40366 9.16903 -2.550097 -0.766992 0.502734
O 5.54345 5.01419 7.79266 0.707773 -1.535537 -0.185254
O 7.89268 5.76598 1.24708 -0.594392 -1.465138 1.512509
O 6.32954 7.7977 0.20234 0.919151 -1.143178 0.772963
O 6.72101 11.1688 7.56118 -0.151788 -0.406356 0.443406
O 9.48641 1.36196 9.20778 -1.848848 -0.078612 0.977358
O 1.10519 12.2453 11.8154 0.702454 1.785272 -0.633972
O 4.29168 9.01708 3.77516 0.745632 0.96354 -0.295922
O 2.66874 10.8234 2.44909 -0.161732 -0.035623 -0.226112
O 7.95665 5.26028 6.3985 0.794094 0.259705 -0.856547
O 7.16606 5.75214 9.84414 -0.929201 -1.417219 -0.644672
O 7.8641 4.35297 3.66152 -2.214606 0.569247 1.125577
O 2.34062 10.9674 7.07697 0.640459 0.941441 -0.485928
O 9.42758 1.91887 12.2111 0.75851 -0.616589 -0.453421
O 0.43018 4.71735 7.0364 1.175127 1.41514 -0.867875
O 7.12271 2.05353 3.12037 -0.995189 1.204862 0.393354
O 4.71209 11.1528 5.77258 1.459514 -0.732278 -1.738467
O 9.85349 5.48236 10.3054 -1.633745 -1.692514 1.41916
O 8.88722 0.55068 2.1412 0.12078 -0.196648 0.097611
O 3.6414 8.47021 0.26959 -0.530211 0.092954 0.462214
O 0.84436 7.28151 10.383 0.050737 0.87897 0.75072
O 10.7344 7.13409 4.48936 -1.34841 0.44069 -1.525769
O 6.52692 9.37445 2.26365 0.533889 0.192649 0.893252
O 1.5043 4.06464 0.46529 -0.70481 0.095694 -0.098388
O 10.5684 5.03555 3.13975 -0.017042 -0.1688 -1.066906
O 9.06297 10.0632 8.50012 0.294139 -1.478633 0.498489
O 2.25043 1.70435 0.66951 0.625635 0.731132 1.325229
O 10.9394 7.70013 8.86823 0.261308 -1.040888 0.06706
O 12.2589 0.98614 9.72034 -0.952095 0.871358 -2.318285
O 1.19756 4.6873 10.1531 0.416496 1.259836 -1.255039
O 1.30783 0.73207 5.68454 -0.632988 -0.263224 -0.52941
O 1.14087 2.23774 7.70246 -0.923773 -0.600911 -0.657642
O 3.04634 8.77259 10.0745 -2.220002 1.783473 -0.359842
O 5.35957 1.11732 4.84165 -0.517084 1.559942 -1.095277
O 9.57946 7.68875 0.41238 0.281583 -0.420375 1.26419
O 6.0964 11.9479 1.76412 0.047113 0.514991 -0.44359
N 10.0678 10.5578 11.9984 -1.151698 0.330033 0.423054
N 6.81539 7.97577 5.82941 5.081327 1.758864 -4.009115
N 3.36392 1.87708 10.2009 -0.146573 0.02197 0.004434
N 4.23863 4.98839 2.81792 -0.077641 -1.648244 -0.644211
N 3.68533 3.65512 5.68395 1.188178 -0.827988 -0.173279
N 3.8705 2.85197 10.0951 0.073748 0.166508 -0.185675
N 3.95875 3.95572 2.50122 0.343498 1.50204 0.456388
N 6.00292 7.70217 6.4669 -5.159064 -1.576519 3.978591
N 2.7605 4.23018 5.80419 -0.910697 0.681464 -0.033727
N 9.06501 10.7994 0.0167 1.139562 -0.300423 -0.526792
N 11.4851 1.76315 2.49058 0.011883 0.132515 -0.230446
N 12.3491 1.24247 2.9366 0.06594 -0.205878 -0.062916
Cl 9.36771 2.55852 6.15181 -0.106634 -0.091016 0.073725
Cl 6.75693 3.33742 11.8058 0.28206 0.362784 0.076187
193
energy=-1086.68982743 config_type=nep2xyz pbc="T T T" virial="-7.606626831587002 0.14262402996329826 1.8294432519247201 0.14262402996329826 -12.578404124397718 -9.872379423067365 1.8294432519247201 -9.872379423067365 4.520949695720219" Lattice="12.4 0.0 0.0 0.0 12.4 0.0 0.0 0.0 12.4" volume=1906.6240000000003 Properties=species:S:1:pos:R:3:force:R:3
H 2.27678 5.18956 11.5063 0.062077 -0.349636 0.068934
H 3.3223 9.46509 6.57837 -0.077389 -0.059562 -0.111797
H 3.31471 7.56884 1.93918 0.718511 -0.127601 -0.411379
H 9.25142 5.33699 2.7138 0.684691 0.057671 -0.135496
H 9.94047 4.344 11.5071 -1.202512 -0.884177 1.887068
H 5.46696 12.22624 5.20043 0.801949 0.927431 1.076367
H 9.29156 3.47354 8.01821 1.104546 3.248836 0.124931
H 5.38849 9.16148 9.453 0.728272 -1.492295 -0.729127
H 5.37218 2.80172 4.93971 -0.114105 0.507043 0.419392
H 10.505 7.56359 9.75445 -0.74138 -0.198515 1.01836
H 0.61917 6.22664 5.08508 -0.59311 -1.317868 -0.451263
H 11.7794 7.01507 1.14148 -0.770839 -0.059178 0.271257
H 5.56345 5.36296 8.65093 -0.209802 0.467701 -0.144884
H 3.44383 1.9571 12.0749 1.535227 -0.142315 -0.413671
H 9.11115 7.47829 3.90811 -0.427982 0.198402 1.28273
H 4.65139 10.6715 11.4037 -0.056737 0.535896 -0.379113
H 6.43215 4.18514 10.9707 0.259355 0.01339 -0.218413
H 1.30514 2.53047 2.82978 -0.011515 -1.436972 -0.209762
H 12.2565 10.3554 12.224 0.273037 0.242124 -1.955692
H 7.58714 4.32697 8.63318 0.659422 0.206709 -0.228155
H 12.0168 10.484 6.82434 0.538849 -0.318311 0.283814
H 1.22461 10.3867 1.8163 -1.057004 -0.58745 -1.419888
H 5.50099 7.23081 0.51491 -1.908146 -0.496904 0.462689
H 6.98772 9.3735 1.47566 -0.097064 0.226437 0.176039
H 9.86791 4.54437 9.11789 -0.207169 -0.047658 -0.108066
H 2.50497 8.74168 2.69464 -0.21718 -0.530537 -0.221563
H 5.30521 11.0514 6.86477 0.361849 0.820405 -0.149666
H 2.25653 10.5288 8.37305 0.195161 -0.134512 0.076332
H 11.853 1.68181 0.67135 -0.790053 -0.415844 0.212568
H 6.1531 3.92122 0.02282 -1.48747 -1.863637 1.845874
H 6.24551 0.96794 9.42405 0.253924 -0.025901 0.469651
H 2.21648 8.17788 8.19419 -0.407783 -0.934334 -0.448394
H 11.9099 0.28872 4.02868 0.216654 -0.106078 -0.217843
H 11.5904 4.17403 10.3071 1.411175 0.149884 -0.809369
H 7.88992 6.88827 1.89534 -0.346309 0.23519 0.209596
H 11.3111 8.70218 8.33958 0.50441 0.017927 -0.232614
H 7.11041 0.23804 1.86376 0.060575 -0.575085 -0.124487
H 0.80062 5.5783 0.76387 0.976802 0.302473 -0.238356
H 1.47378 0.91687 3.10293 -0.537614 0.401175 -0.007267
H 0.36938 4.74182 2.53063 -1.0995 -1.026389 0.838569
H 9.32998 4.18933 3.62571 -0.344988 -1.074769 1.321965
H 5.21892 11.6159 10.1331 -0.143238 -0.930754 1.163107
H 10.0594 8.69102 4.5834 -0.535201 0.433914 -0.084237
H 10.4745 1.60036 2.8639 -0.026943 0.006528 -1.003846
H 11.4989 3.82113 2.98512 -0.490399 0.326974 -0.478061
H 7.09205 11.0197 0.19235 0.951481 -0.169572 -0.115209
H 1.34258 10.9329 3.13455 0.143365 0.54114 0.709838
H 9.42791 3.91921 1.35728 0.243549 -0.130744 0.363401
H 5.82983 0.33811 0.42313 -0.095015 0.714457 -0.767865
H 4.6969 0.82027 3.10602 -0.070004 0.843209 0.542663
H 4.41436 4.54536 5.90042 -0.995883 0.379067 0.923632
H 11.5766 9.21851 0.7702 0.906936 1.530467 -0.357746
H 0.14158 1.83263 10.5645 0.638353 -0.306323 -0.254067
H 6.89038 5.9677 0.0427 -0.065014 -0.082997 -0.129758
H 8.66692 10.6993 0.51641 -0.491678 0.09797 -0.170728
H 10.3235 1.84266 0.45942 -0.870512 0.868185 -0.434897
H 2.31966 8.38367 5.82006 0.716929 0.725594 1.593502
H 1.28149 6.82456 1.7937 -0.214927 -0.762566 -0.414127
H 10.4516 10.9846 8.24276 -1.346382 0.466848 0.224279
H 1.7846 6.56925 7.90501 0.335449 0.394736 0.178273
H 4.99812 11.6834 1.22648 1.633156 0.036002 -0.203543
H 6.66965 3.54112 5.35282 -0.645956 0.351629 0.33887
H 10.0765 1.95285 4.34336 0.365003 -0.047144 -0.239943
H 5.36728 7.60905 8.75969 -0.235979 -0.155078 0.074613
H 0.16625 11.4004 4.73073 0.696578 0.902642 0.065995
H 6.34651 0.57117 7.9149 0.563476 -0.707937 1.563432
H 0.77913 3.99217 10.3561 0.923314 0.44828 1.080452
H 8.35592 1.5134 5.40677 0.465828 0.157831 -0.219739
H 7.73419 9.30889 11.3092 0.524581 0.255788 0.716074
H 1.53082 1.50681 11.296 -0.413171 -0.230273 -0.392442
H 6.63405 3.59368 3.07725 -0.489379 -0.997543 -1.56895
H 3.46647 1.71092 3.13656 -0.429657 0.399596 -0.151669
H 1.18152 10.5127 10.0709 -0.447957 0.465633 0.932123
H 6.80112 0.30992 5.84971 1.515789 -0.159922 -0.500067
H 2.89294 4.61731 6.68152 -0.274977 -0.396138 0.249279
H 5.46864 9.68518 7.57094 0.790056 -0.946501 0.833919
H 6.32183 3.41579 8.53768 0.503538 0.295449 0.377679
H 8.25026 11.805 8.48869 0.522269 -0.746417 -1.375718
H 8.88379 0.13324 4.78479 -0.159894 0.504428 0.037816
H 7.69697 9.06792 2.79499 -1.461046 0.285619 -0.428883
H 4.28943 9.28599 0.89539 1.023889 -1.959864 -0.033
H 2.5105 7.14514 4.11608 0.374172 -0.065563 -0.430802
H 2.36935 1.74799 0.80237 -0.264238 -0.55059 1.795954
H 9.04549 7.82546 10.5549 0.852924 -0.20679 -0.067916
H 9.41594 7.13821 1.97211 -0.30725 -0.086508 0.601835
H 11.791 10.8535 9.09844 0.008706 -0.048438 0.573989
H 5.72406 2.53047 2.3106 -0.142227 0.421309 0.425574
H 10.6374 7.30685 0.11861 -0.735335 -0.166975 -2.569013
H 8.25098 3.46945 0.4626 0.731919 0.092912 -0.305148
H 9.20228 12.0274 1.87343 -0.8837 1.191921 0.25103
H 8.95658 11.759 7.05092 -0.35635 1.016915 -0.863483
H 4.62403 10.4474 4.09224 0.266615 0.968713 -0.471198
H 1.01985 9.78775 6.44901 1.267052 -0.635697 0.519077
H 7.34646 7.42561 12.0925 0.450833 0.927737 -1.392448
H 4.0307 6.95562 12.258 -0.367684 -0.365044 -0.995913
H 10.1238 5.81075 10.7933 0.048545 -0.838296 -0.022395
H 2.54783 6.70567 10.1257 0.395482 -0.329529 -0.374305
H 3.56492 10.1954 9.12912 -0.949332 0.117759 0.361837
H 0.10432 7.58822 8.37941 0.269737 0.197092 -0.068954
H 8.49635 9.50699 7.45206 0.215816 0.051948 -0.229887
H 12.2725 4.86258 4.49015 0.488377 -0.650446 -1.344595
H 5.8207 10.5743 3.1886 0.267312 0.143914 -0.29736
H 1.84733 3.73672 12.1562 0.186746 1.371539 -0.003393
H 10.5779 7.03961 7.17414 0.071748 -0.310531 0.575121
H 10.5473 11.359 1.59891 0.439016 -0.1794 -0.702125
H 2.96391 6.23223 5.42045 -0.343807 0.680818 -0.196013
H 3.90033 5.8908 9.89465 -1.097764 0.435334 0.509563
H 0.92603 5.11766 6.53237 0.372157 -0.704774 1.451423
H 4.35681 5.70038 7.69052 -0.388702 -0.271364 -0.885024
H 10.1331 10.4768 3.18339 -0.08529 -0.424128 0.385502
H 9.86603 5.5395 7.22811 0.088691 -1.15826 0.382269
H 0.61443 11.9269 10.5404 -0.190041 -0.514869 0.252961
H 3.18844 10.2065 1.27315 1.025435 0.598664 -0.968801
H 7.48749 8.44281 7.77036 0.237856 -0.358706 -0.470865
H 7.62915 1.61673 2.05433 0.76424 -0.269433 -0.12777
H 7.18798 8.66495 10.0536 -0.343991 -0.863393 -0.265406
H 0.95251 4.43103 8.03383 0.071928 0.445208 -0.226736
H 8.93272 7.94789 5.61148 -0.842408 0.21452 0.749726
H 11.3687 10.333 4.18113 -0.493147 -0.324495 -0.079076
H 10.8239 6.10431 5.98946 1.207337 -1.294466 -1.258445
O 11.2457 10.4793 8.37582 1.098735 -0.976683 -0.288769
O 11.5411 7.74978 8.19002 -1.080862 0.259094 0.146963
O 5.85996 0.3422 5.98237 -2.350987 -0.977716 -0.683721
O 5.67812 3.62028 5.40234 0.680976 -1.033627 -0.774579
O 0.30985 10.3414 6.14568 -2.278189 1.539795 -1.431902
O 4.42055 1.75151 3.32494 0.585618 -1.477169 -0.429189
O 10.1354 6.29011 6.62512 -0.431385 1.943157 0.750087
O 8.47706 0.55446 5.56105 -0.073385 -1.427548 0.292066
O 1.86134 10.3863 2.52696 0.712704 -0.161288 0.266995
O 5.85854 8.45715 8.87078 -0.371637 2.055578 0.829413
O 0.03536 3.97863 3.12655 1.899353 0.682489 -0.644024
O 6.70269 0.33176 8.83987 -0.984135 0.665395 -1.993788
O 1.75592 7.35694 8.50459 -0.275734 0.222564 0.742364
O 9.96558 7.37489 10.5815 0.521137 -0.008276 -0.768049
O 6.79188 9.28547 2.43007 1.494345 -0.254769 0.291617
O 2.63215 7.76012 2.60525 -0.684834 0.541275 0.257043
O 1.49204 4.95377 7.38933 -1.525808 -0.184763 -0.925045
O 8.61085 6.94641 2.58254 1.460427 0.22577 -1.171153
O 10.2698 4.78965 10.7492 0.557984 1.865819 -1.936843
O 2.35781 6.95718 5.06286 -0.468628 -0.565204 0.641556
O 5.93118 12.0609 1.10396 -2.361236 -1.095987 0.215192
O 9.62207 11.1646 1.80198 0.912552 -1.05393 0.367731
O 5.20337 10.7365 10.5958 0.168977 -0.103223 -1.082543
O 8.77491 11.239 7.82577 -0.5677 0.00449 1.986081
O 3.70326 5.08077 6.40755 1.810675 -0.025002 -1.62396
O 6.51783 3.09657 2.20785 0.667517 0.738962 1.071584
O 6.99432 6.89455 0.39832 -0.322532 -1.046626 1.713594
O 2.5816 10.119 9.19264 0.77889 0.112719 -0.583838
O 9.23399 3.53291 0.48057 -0.853914 -0.25842 -0.35477
O 0.84755 1.15782 10.6472 -0.41307 0.273358 0.102983
O 5.11675 11.1373 3.57792 -0.632382 -1.017545 1.046979
O 3.98819 10.1418 0.65669 -2.042191 1.527819 0.911553
O 9.54579 4.48833 8.17011 -1.107344 -3.348902 0.50899
O 4.89145 6.05418 8.42555 1.020292 -0.09462 1.5276
O 9.49489 7.84973 4.82973 0.897832 -0.006628 -2.589571
O 2.41774 9.08644 6.58985 0.33249 -1.029501 -1.364091
O 10.9721 1.31822 0.91007 1.562344 -0.429517 0.600764
O 0.03981 3.90156 9.78114 -1.882253 -0.447893 -0.78067
O 9.80204 4.52731 2.87162 -0.295376 1.159519 -1.286199
O 4.95745 10.1633 6.93638 -1.296102 0.248561 -0.921647
O 1.60268 4.71175 12.066 -0.171149 -1.447602 0.125716
O 10.6751 1.41793 3.77926 -0.038598 -0.124762 0.989251
O 4.45066 7.17356 0.68372 1.839815 0.930255 0.729649
O 12.0683 10.1122 0.71418 -0.983142 -1.714793 2.455464
O 10.4654 10.0022 4.01317 0.311801 0.24139 -0.047218
O 7.70155 8.42899 10.846 -0.139295 0.700627 -0.43594
O 0.55096 6.21368 1.48879 0.145061 0.332295 0.797832
O 12.3658 5.46464 5.23364 0.368398 2.576726 2.138641
O 8.29773 8.57045 7.22877 -0.321204 0.272406 0.389357
O 2.53064 2.0574 12.3283 -1.323088 1.013619 -0.986108
O 6.805 4.04484 9.11255 -1.217224 -0.329762 -0.337685
O 0.4109 10.9367 10.5444 0.521438 0.318842 -0.845947
O 6.59497 4.50637 11.87 1.392621 1.867028 -1.399796
O 0.25938 12.0385 3.96199 -0.368456 -0.656155 0.677738
O 1.69535 1.65674 2.50387 0.232831 1.023767 0.373425
O 3.17133 6.08387 10.5672 0.708327 0.346792 -0.304834
O 7.96949 0.70137 1.87883 0.110109 1.488618 0.760425
O 10.8584 7.461 1.0067 0.527713 0.567974 2.261318
O 7.89958 10.5045 12.3143 -0.698426 0.011605 0.246856
N 9.17549 1.75339 10.0099 -1.077307 2.364114 -1.130414
N 6.30108 7.15479 5.24753 -2.75834 1.361378 -0.128706
N 3.73235 3.02769 9.14522 -0.694907 0.512072 0.4799
N 4.08597 4.80726 2.97454 -1.881697 -0.174085 -0.577826
N 2.63094 1.16063 6.4711 0.051127 0.287727 -0.468734
N 4.24488 2.49728 8.32921 0.486363 -0.291017 -0.594127
N 3.02258 4.64329 2.67257 1.917349 0.213871 0.559929
N 5.29398 7.65573 5.20761 2.862922 -1.348065 0.061545
N 2.278 0.44147 7.2265 -0.056075 -0.46882 0.303129
N 9.60816 0.85437 10.4439 1.071486 -2.36838 1.187434
N 11.8654 1.10878 6.86502 1.135994 0.312922 -2.870816
N 11.4333 1.02584 7.85837 -1.235989 -0.168851 2.804191
Cl 8.8382 3.3601 5.34496 -0.430319 0.48328 0.35856
Cl 5.29769 1.82775 11.2983 0.336161 -0.49053 0.247876
193
energy=-1086.43857848 config_type=nep2xyz pbc="T T T" virial="-4.6198523501236375 4.083033827666869 -2.3828625688578184 4.083033827666869 -6.706590066114814 -1.3796985740437913 -2.3828625688578184 -1.3796985740437913 -11.536409740783503" Lattice="12.4 0.0 0.0 0.0 12.4 0.0 0.0 0.0 12.4" volume=1906.6240000000003 Properties=species:S:1:pos:R:3:force:R:3
H 9.04808 4.76791 9.87871 0.894215 0.118914 0.630926
H 1.75874 0.11722 7.37013 0.894685 -0.168104 -0.240527
H 2.00154 6.70457 0.44068 0.584965 -0.891795 0.299581
H 7.13097 1.57185 4.46243 -1.41301 0.557606 0.334341
H 6.92654 7.92469 8.38317 -0.255152 0.572146 0.696677
H 8.51905 1.0454 9.86517 0.310749 -0.108512 -0.389149
H 6.42142 6.88991 6.93491 -0.107433 -0.406832 -0.16651
H 7.81297 11.7294 8.84076 -0.485006 -0.961386 -0.218698
H 5.77648 3.50621 5.32187 1.702006 1.653213 1.059252
H 0.86075 8.93972 7.41897 0.095724 -1.804427 0.010114
H 0.1478 4.36801 4.77839 0.041577 0.016813 -1.186198
H 9.65143 5.0343 12.0839 0.521915 0.460932 1.352765
H 6.99508 4.00905 10.8465 -0.150262 0.542495 0.021135
H 2.45087 2.56033 0.77507 -0.486886 0.636776 -0.616943
H 9.73846 6.61329 1.81186 0.157516 0.248988 -0.130637
H 4.16469 11.3449 10.0709 -0.037343 0.021508 -0.190655
H 0.99762 4.62273 10.9939 -0.267924 0.527013 0.000872
H 0.29426 0.74774 8.5356 0.177934 0.193067 0.454133
H 11.4482 8.07126 10.5322 1.294299 -1.185169 -0.61359
H 9.94988 8.03429 8.33577 0.57262 -0.412344 -0.556796
H 11.9214 10.5571 8.37167 0.095165 -0.20139 0.550949
H 0.39799 9.19994 2.16572 0.001669 1.146915 -0.380647
H 4.36206 7.18169 12.2173 -1.225906 1.372247 0.348828
H 11.2984 6.23956 4.59775 -0.411658 2.176643 -0.189037
H 7.92359 6.62966 6.89514 0.836886 -0.592593 -0.092793
H 0.74689 6.44285 1.1768 -1.71249 0.526626 0.580897
H 3.56669 12.3044 5.69019 0.463723 -0.960216 -0.161393
H 6.80867 11.4343 6.99276 -0.115214 0.440109 -0.159606
H 9.09399 1.78879 0.14853 0.606698 -0.255775 0.610862
H 0.28811 5.03181 9.55729 0.706174 0.353722 0.789414
H 6.10756 11.5827 11.8722 -0.626002 -0.280496 -1.156909
H 1.35172 7.23284 6.08275 0.34266 0.084024 -1.238319
H 10.8509 12.0666 6.8128 -0.278759 -0.292447 0.040408
H 11.3123 4.85735 7.98086 -1.266473 -0.378868 -0.028733
H 8.62766 7.64558 1.5155 1.35298 0.436967 1.171131
H 10.6079 10.7078 9.164 -2.410882 -0.098641 -0.011874
H 5.5546 1.79899 3.3564 -0.305643 0.319611 0.146237
H 0.46858 3.44373 0.4982 -1.044473 -0.307476 0.65466
H 11.6085 1.52243 7.83347 0.016703 -0.224141 -0.282576
H 10.844 4.10233 1.24741 -0.16738 0.515522 0.102769
H 8.39295 2.51022 4.0719 -0.387859 -0.942069 -0.111389
H 3.23157 11.5663 8.7757 0.10034 1.005354 -1.44105
H 10.0472 3.77789 3.39826 -0.639297 -0.139414 0.082892
H 8.04446 11.8361 1.78569 0.002463 -0.870326 -0.467109
H 10.8539 2.62166 1.38653 -0.097838 -0.428533 0.41247
H 5.98117 11.4428 1.54234 -0.263053 -0.507167 0.141048
H 0.64568 10.3384 3.25529 -0.133676 -0.229844 0.399653
H 10.8358 0.51695 10.4583 -1.654475 0.032156 -1.432397
H 5.80243 1.66489 0.99701 -0.349597 -0.576882 1.430099
H 3.63016 2.84329 4.08432 -0.319739 0.001303 0.381124
H 5.55417 4.90677 7.3596 0.176007 -0.346137 -0.719795
H 0.22211 6.85666 10.5351 -0.358266 -1.340991 -0.074868
H 1.18515 11.5837 1.36397 0.070729 -0.416923 0.391333
H 6.12883 7.77157 10.4904 -0.199289 -0.809788 0.791503
H 6.54532 10.0657 0.99813 -0.122696 -0.076697 0.350548
H 9.38899 0.79987 1.34004 0.496367 0.073973 0.018841
H 1.91649 11.0229 7.31242 0.641807 0.185331 -0.390111
H 1.50813 4.62449 0.55798 -0.459927 -0.738453 -0.767542
H 1.79064 2.54508 9.77432 0.213605 0.220158 -0.501196
H 1.79562 6.8357 7.54869 -1.328814 0.477976 -0.91594
H 4.38438 1.52265 1.59872 -0.099748 0.043673 0.071469
H 7.04555 4.25491 6.16695 0.335563 -0.567963 -0.240716
H 8.38174 0.15636 3.05836 1.03915 0.134972 -0.18083
H 6.54978 11.4041 9.58577 -0.508853 -0.551403 -0.571434
H 9.45722 12.1396 6.19583 -0.322574 0.232395 -0.255797
H 6.01716 0.36496 10.8716 -0.425823 -0.656785 0.105665
H 0.10524 5.67325 7.609 0.367204 0.095839 0.206471
H 9.02048 2.0018 5.90454 -0.030613 -0.565892 0.15656
H 6.77865 7.06835 1.65145 0.276355 1.195406 -0.431078
H 2.07147 0.49559 0.89541 -0.470608 -0.422894 0.230331
H 6.73192 4.54518 1.3441 -0.043596 -0.032542 0.08682
H 2.06464 3.06608 4.51893 0.629995 -0.147303 -0.144257
H 5.68336 11.9128 5.89287 0.380794 -0.679263 -0.491999
H 8.93919 0.63557 8.40586 0.076125 1.08143 -1.629666
H 4.80813 5.78709 8.36459 -0.888779 0.196235 0.428345
H 4.39665 11.4721 4.4763 -0.208653 -0.270827 -0.442984
H 9.06002 8.0343 9.56579 1.951577 -1.10625 -0.456229
H 0.97181 1.60314 10.566 -0.237864 -0.489707 -0.961974
H 9.06173 2.94425 7.05614 0.314994 0.492522 0.433107
H 10.1756 9.53863 6.62992 -0.326267 -0.120653 0.078818
H 3.34654 8.44956 1.60251 -0.046373 -0.217049 0.012872
H 2.15167 7.64568 3.56373 0.187156 -0.253127 0.151306
H 2.64232 2.23211 2.24803 -0.08704 0.12933 0.709047
H 11.8732 8.20404 0.26921 0.175741 -0.129993 -0.301186
H 8.88759 4.86406 1.08715 0.343861 0.284384 -0.227822
H 0.16445 11.242 10.3249 -0.657363 -0.04669 -0.427174
H 7.4868 4.78803 2.65189 0.373719 -1.099288 2.837301
H 11.1282 7.93522 1.61991 -0.95204 -0.119612 -0.01738
H 11.2397 1.18157 11.7933 0.019819 -1.258474 -0.754814
H 9.47544 10.7418 3.00738 0.374661 -0.858972 -0.407584
H 8.242 9.68607 4.375 1.906436 0.036594 -0.949444
H 5.88132 10.0807 3.5721 0.246485 -0.157018 0.011631
H 0.20189 8.68752 4.56274 -0.796893 2.493468 0.874826
H 6.10905 6.27786 11.2333 0.414387 0.360195 -0.594704
H 3.27414 8.11678 11.5962 -0.290392 0.02874 0.379348
H 6.89833 9.40604 8.83189 -0.157443 0.254736 0.436564
H 1.3916 8.53578 10.4412 0.284212 -0.185507 -0.115403
H 1.82148 11.2569 10.1324 1.19459 -0.069124 -0.2632
H 0.48256 9.97175 6.29967 -0.332313 -0.602333 0.141675
H 6.98892 10.7839 5.54569 0.252682 -0.717012 -0.759649
H 12.2836 4.40047 3.19387 -0.278642 -0.887725 -0.645155
H 4.47556 9.78404 2.96267 0.27922 0.571408 -0.227259
H 9.87017 6.01614 9.87239 0.439797 0.407739 -0.085409
H 7.53589 8.82605 5.48873 -0.025933 0.262043 -0.234381
H 9.97268 9.15663 2.90907 -0.256319 -0.530682 -0.908935
H 1.24162 6.41145 4.07495 0.096378 0.623742 -0.243436
H 2.66535 9.34763 9.87328 0.405091 1.044896 -0.384638
H 2.38157 5.6879 9.3262 -0.707259 -0.4156 0.677822
H 6.69845 5.0561 9.68056 -0.021018 -0.043819 1.474489
H 10.0835 6.96765 4.04153 -0.433804 0.422538 -0.256564
H 0.6012 2.02896 6.47595 -0.299157 1.423853 -0.204887
H 1.19119 11.6222 11.6802 0.175866 0.49582 0.422216
H 2.28793 9.19051 2.49247 -0.273359 0.775925 -0.258689
H 10.381 8.18778 5.92982 -0.24855 -0.359934 0.445286
H 5.17272 1.09106 4.72422 -0.090089 1.618968 -0.625368
H 6.66375 7.68009 0.2213 0.102004 0.377196 0.687976
H 2.87462 7.10123 9.20762 -0.114281 1.683821 1.1428
H 9.40591 4.15505 4.79385 -0.062578 0.296328 0.159545
H 11.5383 10.0235 4.5127 0.147055 -0.8714 0.2229
H 0.58922 3.55863 6.97571 -0.297683 -0.552381 -0.469215
O 11.5194 10.8314 9.24094 2.335634 0.010532 -0.505989
O 0.68835 9.85686 7.2718 0.192843 2.65081 0.417388
O 9.13862 0.50519 9.31603 -0.236301 -0.530561 1.96582
O 6.18031 4.36161 5.75539 -1.703715 -1.453142 -0.829482
O 12.37743 9.67397 4.90719 0.350923 -1.692046 -1.688552
O 2.69923 2.86778 3.80056 -0.358277 -0.044568 -0.020912
O 0.55567 2.98291 6.16929 0.617653 -0.378089 0.347703
O 9.26871 2.01938 6.85129 -0.227171 -0.679023 -0.426059
O 0.84018 10.0936 2.34191 0.028936 -0.696115 -0.329388
O 6.98241 11.1785 8.69358 1.033339 1.229512 0.493195
O 11.3248 3.40388 1.75679 0.510347 -0.017098 0.103764
O 5.71315 11.8132 10.9448 0.939121 0.867545 0.842867
O 0.99745 7.16551 6.9669 1.27538 -0.892323 2.369549
O 11.9951 8.0292 1.21102 1.148 -0.034653 0.299497
O 9.91383 8.59955 6.69828 0.478408 0.529191 -0.350502
O 1.53378 5.97962 0.94036 1.545074 1.066963 -0.341014
O 2.93095 6.26076 8.78402 0.793625 -0.928529 -1.781539
O 9.52633 7.54295 2.05573 -1.801401 -0.674655 -1.124372
O 6.67139 8.51189 9.15681 0.630039 -0.818984 -1.038024
O 1.54332 7.33393 4.26996 -0.420332 -0.346073 0.123221
O 5.33308 1.33599 1.83119 1.137553 0.359155 -1.729309
O 9.80542 9.91112 3.46146 -0.088797 1.196211 1.613712
O 3.46532 10.9838 9.48464 -0.075817 -1.013116 1.769275
O 1.32895 1.70843 9.64775 0.009058 0.262546 1.853704
O 5.68382 5.48259 8.12131 0.650651 0.430309 0.528727
O 7.38555 5.09956 1.79259 -0.653062 0.883255 -2.680955
O 5.87568 7.23638 11.3254 0.094754 0.398526 -0.283302
O 6.69589 11.6493 6.0052 -0.239905 0.751621 2.223901
O 11.5218 0.5313 11.0894 1.294941 1.287174 2.243119
O 1.41293 12.1895 0.6496 0.23962 0.483357 -1.018091
O 5.16869 10.5133 3.07745 -1.028706 -0.626324 0.763666
O 3.13458 8.71677 2.53325 0.756446 -0.283604 0.140686
O 7.26759 7.30197 6.70368 -0.735121 1.147811 0.00293
O 6.91667 4.98503 10.6733 -0.003677 -0.636174 -1.863997
O 9.18701 3.86084 3.88335 0.750131 0.178589 -0.402738
O 2.49028 11.8624 7.24298 -1.857655 0.266371 0.126833
O 9.81367 1.48652 0.76716 -0.886129 0.440614 -0.915902
O 12.2549 4.88257 8.14482 0.583908 0.266581 -0.99354
O 8.05177 1.56624 4.25777 2.337376 0.028876 -0.449386
O 4.42519 12.0552 5.25878 -0.368151 1.317881 0.473921
O 9.89342 5.12079 10.2581 -1.224189 -0.69537 -0.183531
O 8.8292 12.0112 2.34042 -1.593605 0.998667 0.703585
O 3.53457 7.72347 0.07415 0.987613 -1.071028 -0.500953
O 12.3867 7.77633 10.6988 -1.17458 2.638613 0.839015
O 10.8993 7.18748 4.50339 0.894335 -2.365401 0.329412
O 6.9784 7.92506 1.1735 -0.211013 -1.374237 -0.248095
O 1.29184 3.70439 0.09702 1.292774 0.251158 -0.244799
O 0.17225 4.91361 3.94402 0.147102 0.44662 2.070885
O 7.45843 9.62624 4.90539 -1.711364 -0.850022 1.139314
O 2.89415 1.92354 1.35705 -0.010578 -0.76437 -0.078834
O 9.95965 7.64224 9.24441 -2.771634 1.65126 0.973373
O 1.065 11.2553 10.7291 -0.06969 -0.44603 0.905377
O 0.87381 5.35528 10.3378 -0.021254 -0.87685 -0.331127
O 10.0947 11.5066 6.52815 0.720449 0.088655 0.33708
O 12.262 0.81392 7.67569 -0.668942 0.04626 -0.614799
O 2.38105 8.54537 10.2952 -0.237673 -0.884342 0.072177
O 5.43382 2.00423 4.33798 -0.381597 -1.529629 0.423829
O 9.77494 5.10097 0.70761 -0.775445 -0.208239 -1.845275
O 6.61133 11.0316 0.92568 0.404625 0.666217 -0.54809
N 8.93958 10.0028 11.2976 0.171646 -0.048888 0.425267
N 4.00204 9.54996 6.3097 1.367669 -4.594047 -0.270868
N 3.81849 3.22805 8.22267 0.084172 3.694069 0.131785
N 3.93885 4.04515 11.6382 2.627272 -0.184252 2.35783
N 4.91263 6.44805 3.95236 0.34657 3.67108 1.048264
N 3.75367 2.14761 8.17779 -0.015748 -3.747972 -0.23628
N 4.74514 3.98185 0.02521 -2.569536 0.348081 -2.383824
N 4.35995 8.47409 6.22564 -1.402718 4.241495 0.436073
N 4.80805 5.42035 3.62951 -0.447591 -3.562406 -1.261212
N 9.26627 9.86301 12.3469 -0.095733 0.112324 -0.463281
N 11.9754 1.04762 3.91061 0.489965 0.002012 0.279605
N 11.0451 0.87185 3.34756 -0.223933 -0.003517 -0.074386
Cl 9.39471 4.96989 6.80455 -0.221436 0.122499 -0.037408
Cl 7.16609 2.05387 11.3856 0.155749 -0.122014 0.08106
193
energy=-1087.19756794 config_type=nep2xyz pbc="T T T" virial="-5.273947452913182 -0.6274743305719476 -3.8618565042711355 -0.6274743305719476 -10.930938900524625 -3.430640455063786 -3.8618565042711355 -3.430640455063786 -8.065427570110574" Lattice="12.4 0.0 0.0 0.0 12.4 0.0 0.0 0.0 12.4" volume=1906.6240000000003 Properties=species:S:1:pos:R:3:force:R:3
H 8.35705 5.20002 10.2371 1.552488 0.597502 -0.192874
H 1.93188 0.0244 7.55479 -0.312339 0.543527 -0.260649
H 2.6424 6.57806 0.76864 0.628126 0.58553 -0.411066
H 7.28191 1.40992 4.79261 -0.372251 -0.070311 -0.174929
H 7.42528 8.17298 8.75777 -0.394756 -0.397249 -1.571648
H 7.91533 2.00977 10.2734 0.331836 -0.236807 0.153514
H 6.41929 6.50913 7.33829 -0.326568 -0.345397 0.297424
H 8.3047 12.0491 9.1235 -1.741111 -1.412756 -1.143331
H 6.01834 3.19695 5.61247 -0.275166 -0.453477 -0.880692
H 1.05463 8.80892 6.91262 -0.200296 1.128551 0.241075
H 0.67112 4.16182 4.12185 -0.025027 -0.476145 0.403093
H 9.89436 4.93313 11.6407 0.452183 0.402803 -0.561129
H 6.76245 4.43557 10.9162 -0.487008 0.49531 -0.716166
H 2.09761 2.67308 0.71737 -0.157733 -0.058787 -0.444253
H 9.91656 6.64256 1.17654 -0.518677 0.418326 0.457192
H 3.96287 11.2537 10.249 0.143514 0.303804 -0.589865
H 1.06951 4.57911 11.0506 -0.151647 0.23595 0.8625
H 0.63422 1.92567 8.17775 -0.369444 0.47442 1.245824
H 11.6451 7.63452 9.81818 0.410115 0.338552 0.795119
H 10.148 7.86888 8.08473 0.225098 -0.085054 -0.160056
H 12.3383 10.3668 8.08789 -0.108894 0.051902 0.143888
H 0.53157 9.8144 1.15837 -0.45043 -0.107761 0.700527
H 4.63835 8.04418 12.1901 0.73133 -0.53158 0.231939
H 11.4229 6.07122 4.3196 0.841179 -0.673277 -0.0411
H 7.82247 7.1046 6.95814 0.02696 0.003663 -0.083046
H 1.08646 6.8428 0.98631 0.479443 0.068906 -0.017984
H 3.85108 11.9345 6.362 0.182969 0.071187 -0.308673
H 7.10513 11.5764 7.3022 0.736443 0.20726 3.736758
H 8.92589 2.22893 0.67011 0.343048 -0.961024 -0.003543
H 0.44202 3.97982 9.93113 -0.475905 -1.089509 -1.025379
H 5.66185 11.6403 11.8316 0.455469 -0.849477 0.462333
H 1.5825 7.24365 5.98609 -0.79254 -0.058115 1.638595
H 9.77671 10.7239 5.44124 -0.288787 0.242007 0.521003
H 11.1669 5.1674 6.78048 -2.442145 -0.218899 0.234762
H 8.61748 7.58019 1.44974 1.80217 -0.253775 0.115891
H 11.3841 9.72854 9.08314 -0.444143 -0.456245 0.18918
H 5.31988 1.55406 3.35476 -0.086814 -0.158295 -0.920676
H 0.35316 3.67946 0.75078 0.773802 -0.336902 -0.804457
H 12.1482 1.14555 7.12565 1.451624 0.215291 0.525832
H 10.7122 4.0642 1.05866 0.016711 1.43754 -0.218946
H 8.47002 2.10951 4.10087 0.244998 -0.071787 0.134724
H 3.00629 11.1242 8.90228 0.316891 0.777328 -0.923862
H 10.1866 3.74343 3.51788 -0.215043 0.069149 -0.054635
H 7.8242 11.6592 1.77575 0.470698 -0.077892 0.252406
H 10.9187 2.73462 1.40804 -0.539044 -2.917664 0.116818
H 5.83571 10.8558 1.81668 -0.195648 0.15737 0.337308
H 0.38646 10.174 2.78309 0.858598 0.48746 -1.80687
H 10.1123 1.53884 10.504 0.046979 -0.066838 0.483464
H 5.669 1.33866 1.41503 -0.408812 -0.219395 -0.137235
H 3.8777 2.87659 3.97027 -0.119133 -0.183125 0.101818
H 5.35356 4.54083 7.50724 -0.18777 0.119955 0.051865
H 0.14381 6.5892 10.5047 0.200272 -0.057773 -0.037184
H 0.8379 11.7247 1.18814 -0.660824 0.821572 0.080808
H 6.748 8.21248 10.445 -0.876788 -1.065495 1.284877
H 6.66025 9.75623 1.18803 0.52822 -2.086591 0.011953
H 9.39316 0.7583 1.1892 -0.301798 0.77699 0.275383
H 1.83455 10.9335 7.01679 0.962699 0.9098 0.087433
H 1.46018 4.70126 0.84147 0.514147 -0.535559 -0.906229
H 0.85187 1.28305 9.90538 0.334619 -0.569476 0.392466
H 1.90298 6.87807 7.55723 -0.340919 0.382333 0.056832
H 4.18826 0.8746 1.58311 -0.273026 0.285535 -0.222621
H 7.24715 3.84113 6.38636 -0.354525 -0.191251 0.058503
H 8.15271 0.20335 2.98535 0.532152 0.026297 0.355377
H 6.89646 11.8395 9.50314 -1.045086 -0.214204 0.30714
H 9.98493 11.4267 6.81549 -0.416393 -0.342132 -0.337729
H 5.3995 0.62454 11.4091 0.180685 0.135626 -0.711822
H 0.05831 5.99702 6.7967 0.123761 0.021628 0.070291
H 9.31922 1.13346 6.01395 -2.117801 -0.556294 -1.805621
H 6.69057 7.33959 1.57997 -0.500635 -0.664563 0.343918
H 1.24083 1.06558 0.92809 -0.140205 -1.690277 -0.227641
H 7.01907 3.93693 1.49209 0.727895 1.304658 -0.320285
H 2.34158 3.19189 4.17353 -0.026758 0.029539 0.558846
H 5.94799 11.7386 6.17546 -0.56061 0.141466 -0.182495
H 8.81981 2.0966 9.00528 0.079096 0.46029 -0.855663
H 4.36592 5.53495 8.42216 -0.561077 -0.067789 -0.173155
H 4.53401 11.3355 5.00226 0.018125 0.66522 0.283235
H 9.53248 8.15812 9.46268 -1.198575 0.053617 0.733929
H 12.0327 2.06922 10.2253 -0.192676 -0.104922 0.620342
H 10.3485 1.96977 6.53195 -0.272635 -1.096675 0.711498
H 9.73875 8.91967 6.2855 -0.192418 -0.320814 0.657939
H 3.40408 8.42632 1.65232 -0.048718 -0.008265 -0.460971
H 2.00662 7.8279 3.72113 -0.212408 -0.305414 0.125099
H 2.6765 2.17166 2.01309 -0.359028 -0.512718 -0.353317
H 12.2472 8.13767 12.0928 -0.793242 -0.13868 -0.426511
H 8.92519 4.73055 0.40318 0.925947 0.470464 0.663928
H 0.39713 11.2827 10.1125 0.924279 0.976622 0.171395
H 7.83992 4.42306 2.6264 1.030503 0.186268 0.914081
H 11.2663 8.26381 0.95087 -3.037014 -1.228666 1.124117
H 10.6639 1.27651 11.9164 -0.495655 0.05922 1.531487
H 9.13244 10.5068 2.91861 0.289586 -0.112171 0.753982
H 8.09742 9.34906 4.25895 -0.224634 0.734039 -0.035005
H 5.60234 9.90916 4.02946 -0.382794 0.592863 -0.725134
H 0.13301 8.59679 3.92994 -0.215265 -0.807233 0.190026
H 5.92995 6.84143 10.9264 0.229146 -1.795588 -0.734881
H 3.26143 8.05197 11.8071 -0.934424 0.108411 -0.51323
H 7.8797 9.60791 9.27833 -0.38092 0.618673 -0.396309
H 1.63607 8.39321 10.3325 0.344929 0.172575 -0.341741
H 1.99701 11.7063 10.4979 -1.521762 -0.327729 -0.443331
H 0.2894 9.70795 5.88677 0.281524 0.573029 0.189596
H 7.36685 10.731 6.01097 -0.909282 1.681233 0.087779
H 12.2565 4.24297 2.76314 0.511815 0.228863 0.588334
H 4.19276 9.7652 3.27972 0.451009 0.666446 -0.003179
H 9.62705 5.28798 9.30507 0.1912 -0.082808 0.188709
H 7.07775 8.49325 5.03311 -0.188499 0.808157 0.234716
H 9.3234 8.92124 2.85773 0.75364 1.199937 1.021412
H 1.29217 6.47013 3.49825 -0.280258 0.338411 1.033385
H 2.92042 9.30958 9.8812 -0.068208 1.385013 -0.108583
H 2.31142 5.5581 9.42889 -0.465203 0.305375 0.327944
H 6.20481 4.99929 9.47994 0.134275 0.168775 0.335181
H 10.2514 6.72821 3.5471 -0.097657 -0.034821 -0.509117
H 1.10742 2.47119 6.17365 -0.077494 -0.456777 0.321445
H 0.69509 12.33689 12.0212 -0.238594 0.548642 1.060589
H 2.41278 9.58585 2.11168 -0.2078 -0.110533 -0.039061
H 9.94507 7.52368 5.58093 0.161655 -0.042722 1.652683
H 4.89853 0.98925 4.6971 0.617918 1.34178 -0.003453
H 6.84306 7.87317 0.09878 -0.084227 -0.347268 -0.022543
H 2.92567 7.0861 9.53268 -0.493998 -0.499071 -0.002194
H 9.35708 4.22864 4.79358 0.124286 -0.384147 -0.271888
H 11.198 9.53968 3.87161 0.513603 -0.452088 0.121756
H 0.65491 3.97064 6.09683 0.070991 -0.465613 -0.341835
O 11.8397 10.5599 8.92084 0.385718 0.266458 -0.133267
O 0.79587 9.81681 6.72982 -0.087533 -1.239506 -0.397229
O 8.66939 1.58571 9.79482 -0.615548 -0.456347 0.056009
O 6.30269 3.55099 6.44692 0.332858 0.45892 0.844916
O 12.1608 9.47725 4.10763 -0.462148 1.117453 -0.300506
O 3.06351 3.18542 3.53113 0.113249 -0.181545 -0.901911
O 1.11454 3.23956 5.58776 0.130375 1.107537 -0.444545
O 9.99701 1.03344 6.64582 2.365429 1.810899 1.12375
O 0.861 10.4428 1.85901 -0.199461 -0.64103 1.407082
O 7.48327 11.4501 8.83909 2.680915 1.749643 1.358111
O 11.3197 3.54426 1.65004 0.88141 1.259519 0.293682
O 5.45343 12.1225 11.0265 -0.377641 0.170018 0.176063
O 1.25806 7.36366 6.96258 1.279305 -0.846723 -1.850239
O 12.0306 8.56418 0.55098 3.657385 1.17393 -1.10346
O 9.69314 7.95537 6.48091 0.060904 0.081542 -1.857493
O 1.82705 6.22425 1.11667 -1.336425 -0.283699 0.744433
O 2.78685 6.26886 8.97492 0.796466 0.008953 -0.815725
O 9.62933 7.42359 1.73187 -1.24455 -0.256561 -0.661725
O 7.77262 8.67472 9.495 0.441013 -0.004772 1.341189
O 1.334 7.23777 4.14756 0.630676 0.136304 -1.25795
O 5.05931 0.83598 1.99799 0.827858 -0.099206 -0.786277
O 9.42504 9.71557 3.49683 -0.255801 -1.003891 -2.16566
O 3.11767 10.9531 9.8488 0.954631 -0.547821 1.020225
O 0.5261 2.18754 9.81994 0.562691 0.838076 -0.899773
O 5.264 5.25563 8.18277 0.848802 -0.080278 -0.115297
O 7.64282 4.68922 1.72818 -1.767709 -1.483578 -0.765361
O 6.13641 7.7229 11.1764 0.723401 3.076406 -0.240691
O 6.95611 11.6227 6.38566 0.680385 -1.944873 -3.916084
O 10.9371 1.49098 11.043 0.272402 0.035919 -2.219682
O 0.55091 0.19812 0.67249 1.115781 0.284069 -1.36308
O 4.88981 10.4421 3.56884 0.057557 -1.162118 0.657067
O 3.03169 8.89227 2.42522 0.06352 0.18813 0.954367
O 6.90386 7.33365 7.18573 0.542094 0.491161 -0.072232
O 6.75233 5.21713 10.2974 -0.006338 -0.950239 0.611567
O 9.30152 3.75638 3.91903 -0.220309 -0.068536 -0.357627
O 2.51177 11.6849 7.30969 -0.604649 -1.597696 -0.091936
O 9.69575 1.6337 0.83137 -0.56561 -0.076453 0.492622
O 12.0831 5.11451 6.63519 2.522018 0.432762 -0.161952
O 8.13738 1.22112 4.3795 0.263467 0.467834 0.023348
O 4.64575 12.0285 5.74259 -0.775201 -0.973136 -0.445463
O 9.39014 5.34043 10.2444 -1.806999 -0.387364 -0.735904
O 8.58643 12.0178 2.3171 -0.835018 -0.499101 -0.673039
O 3.79132 7.72449 0.15516 0.466825 0.502331 0.089753
O 0.0127 7.56228 10.4923 -0.133495 -0.340419 -0.402058
O 10.6508 6.62299 4.41763 -0.87269 0.759702 0.047166
O 7.1533 7.98916 1.06185 0.519298 0.664878 0.028536
O 1.26213 3.85038 0.31265 -1.174303 0.821852 1.492606
O 0.42948 4.75053 3.401 -0.694488 0.597495 -0.719319
O 7.19526 9.40948 4.68469 -0.109178 -1.330785 0.706101
O 2.42473 1.78345 1.10802 0.378729 0.886571 1.166335
O 10.3576 7.95683 9.04505 1.253051 0.109153 -0.903666
O 1.01271 11.9793 10.5536 -0.41874 -0.276836 0.661683
O 0.53805 4.85692 10.2843 0.845668 0.980745 0.315426
O 9.45366 10.728 6.3667 0.879024 0.070519 -0.430458
O 0.68814 1.38886 7.3764 -1.185484 -1.301357 -1.639804
O 2.62509 8.50354 10.2944 -0.832456 -2.09879 0.884036
O 5.31383 1.81788 4.28397 -0.366013 -0.677559 1.974845
O 9.87819 4.97451 0.2289 -1.396522 -0.266053 0.314043
O 6.51848 10.6832 1.14869 -0.504881 2.131025 -0.329768
N 9.45928 10.9186 11.0792 0.037669 -0.100992 0.311034
N 4.01779 9.19297 6.45086 0.696783 -1.085729 2.27779
N 4.28032 1.0672 8.8061 -1.822143 3.251184 -1.47405
N 4.51942 4.36527 0.92761 -1.272962 0.99574 -3.06558
N 3.99339 6.19848 4.75607 1.698724 -0.666347 -2.872817
N 3.72526 1.97238 8.41639 1.879608 -2.947593 1.350225
N 4.09823 4.69655 12.3345 1.302349 -1.025784 3.015535
N 4.31084 8.77794 7.45095 -0.674769 0.960923 -2.19068
N 4.52484 5.99423 3.78269 -1.557678 0.687153 2.928672
N 9.50144 10.604 12.139 0.017567 0.046863 -0.209549
N 0.95469 0.46621 3.9579 -0.363324 0.672135 -0.479546
N 0.55165 1.30978 3.35827 0.233731 -0.779747 0.645117
Cl 9.23538 4.31315 6.71352 -0.255719 0.082459 0.75125
Cl 6.70282 2.42194 11.8951 -0.047236 0.137216 0.389344
193
energy=-1087.20346485 config_type=nep2xyz pbc="T T T" virial="4.615711076662877 -2.4125773959598926 5.379776030173392 -2.4125773959598926 -2.800321974040339 0.28831831438888533 5.379776030173392 0.28831831438888533 -13.587863330880547" Lattice="12.4 0.0 0.0 0.0 12.4 0.0 0.0 0.0 12.4" volume=1906.6240000000003 Properties=species:S:1:pos:R:3:force:R:3
H 9.36239 5.18878 9.94093 0.902002 0.545963 -0.124107
H 2.6803 11.3828 8.69003 -0.356733 -0.495523 -1.116831
H 2.64234 7.00707 1.37064 -0.654279 -0.686459 0.54125
H 6.97522 1.70082 3.83523 0.783255 0.012707 -0.575093
H 7.57719 6.39042 9.93878 0.431954 0.846675 0.092029
H 7.11528 0.87908 7.74578 -0.170147 -0.321603 1.217152
H 7.4866 4.93374 6.75694 -1.676947 0.662814 0.363799
H 5.53004 9.77401 10.3687 -0.362871 -0.457126 -0.65316
H 6.23731 1.70453 5.9658 -0.157194 -0.09949 -1.22181
H 1.09427 8.55103 7.52979 -0.067231 -0.138945 -0.424455
H 11.6943 5.13093 3.1544 0.436849 -1.928868 1.961704
H 8.63068 7.45736 11.7525 0.001576 -0.241744 0.090842
H 7.25304 4.29673 10.1316 0.034653 1.141267 -1.000082
H 2.38407 2.7838 1.54277 -0.78586 -0.105898 0.119774
H 8.79397 8.77202 1.63347 0.247843 -0.587884 -0.688212
H 2.16637 12.3544 11.1102 0.600446 -0.91822 -0.051045
H 1.79647 4.06774 11.4283 -0.001412 0.194377 -0.577894
H 0.38354 2.80529 7.69622 -0.708264 0.907646 -0.173783
H 0.25805 7.13139 9.46862 -0.010925 0.118755 -0.001238
H 10.7323 8.21515 8.25729 0.26144 -0.491944 -0.022479
H 10.62 10.8771 7.96614 0.451452 -0.163825 -0.255447
H 0.03475 9.57678 0.49549 -0.304047 -0.608258 -0.315417
H 4.2827 7.95634 0.72598 -0.503713 0.517444 -0.491247
H 10.6192 7.06909 3.28516 0.523763 -0.752512 -0.393272
H 8.53457 3.94625 6.53738 1.0569 0.054516 -0.065322
H 1.20287 6.52131 1.71464 -0.156275 0.034383 0.331574
H 3.77519 11.3945 6.27793 -1.146249 0.334164 0.946392
H 6.00042 10.0776 8.31814 -0.367599 -0.65861 0.395023
H 9.35898 1.96706 11.0365 0.281414 -0.548646 -1.076898
H 1.01776 4.08878 10.0419 -0.669352 -0.49427 -0.269244
H 5.71599 12.0667 11.6257 -0.203534 -0.899226 -1.768828
H 2.17965 6.86738 6.14322 -0.091593 -0.069708 0.327742
H 12.344 12.2178 5.62908 1.041725 0.538289 0.070042
H 0.16383 5.81502 7.27596 1.6119 0.85224 -0.279255
H 7.80396 9.35881 2.63068 -0.129301 -0.139866 -0.102615
H 12.1013 10.2862 7.7337 0.061605 -0.342355 -0.39057
H 5.20901 1.65832 3.65643 -0.698199 0.035646 -1.361335
H 0.50065 3.98268 0.50753 -0.659795 -0.353105 0.102048
H 0.92005 1.42128 6.94737 0.029138 0.126839 -0.190393
H 11.0075 4.93297 11.8027 0.365075 -0.738467 0.554186
H 7.8059 2.96801 3.33157 0.449526 -0.920677 -0.159006
H 3.66385 11.9656 10.6455 -0.233917 -0.336317 0.225237
H 9.75383 4.77191 3.74223 -0.025718 -0.062027 -0.348177
H 9.11076 1.21255 0.48403 -0.259007 0.052061 0.345641
H 10.6474 3.49211 12.2558 0.761946 0.613401 0.601434
H 5.52287 0.10484 1.56532 -0.156576 0.155255 0.100703
H 11.8746 10.4968 1.6059 -0.021038 0.349796 -0.065157
H 9.50103 2.37945 8.83444 0.663158 0.234866 -1.086294
H 5.8111 2.2927 1.26436 0.118121 0.152227 -0.093084
H 2.5284 12.0655 3.20016 -0.1978 -0.666056 0.306056
H 6.03898 3.44007 7.03175 -0.539362 1.17291 0.536866
H 1.31009 6.30005 10.3078 1.046153 -2.535551 0.115601
H 0.90937 12.0468 0.50102 -0.083033 -1.143919 0.682626
H 6.46617 8.01906 11.8546 -0.524555 -0.86859 0.788373
H 6.86919 11.8818 1.18721 -1.484641 -0.580791 0.213313
H 8.59161 2.78448 12.0139 0.383861 -0.408303 0.733355
H 2.05065 10.237 7.75686 -0.32254 -0.21011 -0.236028
H 1.7039 4.74162 1.01809 0.726659 1.256364 0.711609
H 11.6316 2.94408 10.0963 0.04955 1.241628 -1.863179
H 2.34731 6.46124 7.67134 0.523911 -0.10823 -0.073488
H 4.32978 1.8963 1.64083 -1.615584 0.222694 -0.16352
H 7.63309 2.24323 6.51947 3.137441 0.23778 -1.24028
H 8.36531 1.12996 2.14302 -0.310191 0.208385 -0.552597
H 4.41446 8.85391 9.78548 -0.217403 0.13776 0.190645
H 1.29142 11.8844 6.40917 0.346422 -0.148502 0.202185
H 5.87594 12.125 9.99874 0.821279 1.024373 -0.616547
H 11.0935 5.85752 7.06293 -0.889641 0.578371 -0.124746
H 10.4091 0.55018 5.49545 0.628092 -1.909375 -0.657212
H 6.00687 10.1596 1.98884 -0.19724 0.393243 -0.385806
H 1.8898 0.91566 0.64544 1.16004 0.671048 1.38379
H 7.27328 5.1432 1.02657 0.082288 -1.212653 0.359843
H 1.99193 0.40359 4.52862 0.165752 -0.56544 -0.332631
H 5.74706 10.9935 7.08074 -0.120165 0.129102 -0.343726
H 7.15922 11.8653 8.45141 -0.007966 -0.100211 -0.354085
H 4.92832 4.6943 7.35964 0.584577 -0.511802 0.087859
H 4.69815 10.5454 5.42371 -0.035276 2.061276 0.396216
H 10.7895 8.593 9.75325 0.961526 -1.146778 -0.904403
H 11.434 4.29743 9.16773 -0.791866 0.377205 0.487257
H 10.2126 11.3915 5.78574 0.636057 0.609504 -0.745916
H 9.95158 7.36402 5.51292 0.501234 0.152184 -0.792543
H 3.14862 9.83249 1.71739 -0.864269 0.116652 0.354308
H 3.51651 7.82373 4.61065 -0.335724 -0.334579 -0.347474
H 2.45193 1.49107 2.58453 0.411838 0.470255 0.051048
H 12.1428 7.46266 11.499 -0.222747 -0.17098 0.239001
H 8.55193 6.64606 0.7384 0.027983 0.474825 -0.056497
H 12.1081 0.05218 9.5391 0.731713 1.72248 0.376902
H 7.67055 5.56638 2.58237 0.509594 -0.60535 -0.249905
H 10.8135 7.49541 0.11637 1.137084 0.532952 -0.745156
H 8.31754 1.43211 9.2528 -0.166928 -0.570957 -0.345762
H 9.35992 12.3897 1.81591 1.177738 -0.851886 0.09419
H 10.5302 11.4724 3.5172 0.493768 0.966978 -0.536114
H 5.06551 9.10495 3.68408 -0.358846 0.250806 -0.141224
H 1.20947 8.18771 4.18282 -0.134674 -0.022734 -0.050491
H 6.5722 6.9216 0.63253 0.013841 -0.005533 0.262941
H 3.15809 8.32241 12.1314 -0.343773 0.344473 -2.594064
H 7.12931 7.91972 9.82499 0.436945 -0.31773 0.194755
H 2.08164 8.39833 10.4098 -0.762858 0.143307 -0.252006
H 0.55636 1.54846 8.56174 1.006249 0.381868 0.146235
H 0.78231 8.99233 6.07522 -0.193303 0.68741 0.296868
H 8.33393 10.3509 7.17026 -0.358009 0.059487 -0.399913
H 10.9619 5.4437 1.859 0.914535 0.231642 0.373541
H 3.59653 9.72726 3.85566 0.21933 -0.198158 -0.40583
H 10.52 6.33334 9.71404 -0.792432 -1.297676 0.643245
H 9.25983 9.2896 6.44507 -0.414776 1.672901 0.180244
H 9.94559 10.5605 2.54752 -0.687481 -0.713323 -0.749227
H 2.92088 6.48703 3.90841 -0.00736 0.269154 -0.179252
H 2.64055 9.93888 10.6797 -0.297507 -0.127516 -0.152226
H 3.04793 5.03982 9.274 0.006743 -0.478987 0.228629
H 6.63949 4.98635 8.78118 0.861448 -0.628238 0.271838
H 9.65698 8.25464 3.61011 0.112616 0.145064 -0.411228
H 10.8208 3.44167 4.85717 -0.190914 -0.336919 0.07457
H 0.3559 0.87505 10.7593 0.353636 0.080255 0.150687
H 1.65906 9.94797 2.14285 -1.161411 -0.17203 -0.523425
H 9.20837 6.68543 6.64203 -1.783526 -1.91968 0.497495
H 4.98107 0.48091 4.7334 -0.316074 0.064214 -0.166859
H 6.25324 8.67735 1.38828 -0.382125 0.448805 0.769273
H 4.07529 6.12891 9.46481 0.216293 0.060145 -0.197374
H 8.52474 4.67858 4.53149 -0.268121 0.153173 -0.550504
H 12.109 8.65278 4.05326 -1.593691 -0.797927 -0.48812
H 11.4877 4.59545 5.55059 0.2702 0.452996 0.391327
O 11.5646 10.9694 8.17546 -0.568409 1.000151 0.956078
O 0.85736 9.34922 7.01793 -0.298399 -0.913609 -0.238913
O 7.28386 0.41802 8.63544 -0.294484 0.394234 -0.47745
O 6.75084 2.05471 6.70194 -3.182945 -0.231624 1.80389
O 0.54885 8.86199 4.42283 1.884328 0.570773 0.785386
O 2.72892 0.32894 3.87512 -0.105238 0.782939 -0.337693
O 11.2215 4.29988 4.66409 0.14252 -0.262931 -0.201616
O 10.775 12.0046 5.20115 -1.406192 1.212484 1.370147
O 0.21657 10.3887 0.98261 0.072645 0.226701 0.317203
O 5.37808 9.01593 9.74069 0.951944 0.61356 0.470271
O 11.2831 4.24121 0.07902 -1.396932 0.035597 -1.201517
O 5.52035 11.6306 10.7262 -0.546949 -0.176819 2.485208
O 1.73674 6.8601 7.03758 -0.3522 -0.174027 0.215739
O 11.7125 7.88372 12.2695 -0.940694 -0.023629 0.674591
O 9.79602 7.38261 6.47242 1.449391 1.874599 0.445705
O 2.13082 6.26691 1.84402 0.347033 0.753133 -0.746665
O 3.74806 5.51731 8.79133 -0.401895 0.384334 0.086255
O 8.77339 9.21423 2.48684 0.119246 0.586059 0.65132
O 7.87305 7.35932 10.1488 -0.884041 0.136611 -0.085631
O 2.81301 7.11628 4.63595 0.004174 0.250711 0.248932
O 5.25808 1.71116 1.80697 1.592988 -0.31593 0.314173
O 10.4653 11.382 2.51796 -0.125373 -0.364971 1.328942
O 2.72608 11.669 10.6398 -0.149947 0.827841 -0.11414
O 11.8335 3.4262 9.23026 0.653454 -1.4715 1.327485
O 5.86759 4.41995 7.30018 -0.181807 -0.381667 -0.237678
O 7.34687 5.83279 1.70513 -0.298535 1.923519 -0.21615
O 6.01848 7.63629 0.25522 0.243425 0.605831 -1.165335
O 6.45044 10.5787 7.629 0.539098 -0.01573 0.111658
O 9.00639 2.04943 9.56774 -0.131461 0.281822 1.465295
O 1.17455 0.50401 0.18604 -1.519313 0.376939 -2.68854
O 4.33165 9.2672 4.32901 0.145755 0.090957 0.151266
O 2.53517 10.2033 2.39911 2.261928 0.488306 0.482061
O 8.35981 4.89426 6.39112 0.831865 -0.072532 -0.61863
O 7.42262 4.99642 9.41466 -0.887796 -1.091012 0.752789
O 8.79239 4.66887 3.56854 -0.281229 0.031295 1.449949
O 2.53795 11.0693 7.74865 0.924953 1.528631 1.17911
O 9.39785 2.13962 12.0133 -0.405869 0.541157 0.872513
O 11.8151 5.24279 7.17456 -0.59068 -1.114996 0.100906
O 7.76883 1.97705 3.29192 -0.569199 0.531026 0.51245
O 4.63265 11.4959 5.87794 1.328236 -2.454483 -1.293711
O 10.3054 5.43049 10.1357 -0.230452 1.157154 -0.628852
O 8.69571 0.53845 1.34936 -0.712638 1.174735 0.079147
O 3.37509 8.34945 0.63482 1.353121 -0.830684 2.932373
O 0.84952 7.10187 10.238 -0.510451 2.100338 0.090545
O 10.4511 7.77191 3.92113 -0.493791 0.770242 0.954576
O 6.20591 9.23657 2.23346 0.020154 -0.656203 0.412145
O 1.43654 3.86269 0.75857 0.044587 -0.43605 -0.912359
O 11.5516 5.82455 2.55708 -1.074769 1.66173 -2.920828
O 9.06065 10.2894 6.52522 0.809775 -1.956666 0.175706
O 2.75353 1.9015 1.73343 0.419143 -0.509438 -0.050124
O 11.1866 7.95088 9.08364 -1.661956 1.384331 0.591577
O 0.0986 0.96638 9.82339 -1.251985 -2.542817 -0.713036
O 1.83187 4.36207 10.4727 0.681512 0.4726 0.622933
O 0.91508 0.15096 5.80807 -1.554772 0.04085 0.472471
O 1.00083 2.06922 7.7386 -0.228264 -1.916305 0.169012
O 2.83678 9.00088 10.4481 0.647318 -0.143979 0.125379
O 5.36801 1.36012 4.54161 0.883491 -0.25878 1.652577
O 8.98025 7.4108 0.27496 0.353478 -0.043297 0.041893
O 5.89467 11.6268 1.29486 1.95151 0.824933 -0.628981
N 8.8402 10.3414 10.7502 -1.01649 -0.011958 1.458997
N 6.11418 7.68018 6.17413 -1.071194 -0.256613 0.456344
N 5.15565 2.10909 10.2995 -0.351698 0.087495 -0.375764
N 5.44089 4.24487 3.58332 -0.515904 0.52209 -0.228188
N 2.34328 3.5239 4.7025 0.016901 0.854412 0.80407
N 4.53382 2.43447 9.44239 0.200978 -0.066759 0.280456
N 4.62145 4.91242 3.24728 0.65767 -0.468331 0.246289
N 5.08964 7.50348 6.56956 1.21815 0.182407 -0.297279
N 2.44579 4.33076 5.46159 -0.097584 -1.069528 -0.724164
N 8.19238 10.3435 11.6597 1.107878 0.008337 -1.495602
N 12.2402 2.11606 2.85144 -0.870427 -0.472648 -0.048367
N 11.2226 1.67814 2.76739 0.887153 0.558922 0.041037
Cl 9.69227 2.24379 6.45009 0.447168 -0.337479 -0.068047
Cl 7.01011 3.72696 12.2293 -0.251558 -0.2637 -0.359739
193
energy=-1088.54056794 config_type=nep2xyz pbc="T T T" virial="-13.52696995071182 0.6756344848699424 6.8984928702189565 0.6756344848699424 -10.503602320133966 -5.592908810869485 6.8984928702189565 -5.592908810869485 8.215870038762723" Lattice="12.4 0.0 0.0 0.0 12.4 0.0 0.0 0.0 12.4" volume=1906.6240000000003 Properties=species:S:1:pos:R:3:force:R:3
H 1.69393 6.42968 10.2923 0.5829 -0.811657 0.849934
H 2.92988 8.92194 6.33623 2.417648 0.691082 0.53542
H 3.06833 7.54474 1.72515 -0.567755 0.589355 0.943782
H 9.03285 5.50935 4.08555 0.98993 -0.853471 0.041299
H 9.80419 4.41739 9.88206 -0.705808 -0.330281 -0.120349
H 5.33118 0.45515 6.51812 -0.031023 0.283641 -0.055484
H 7.52282 4.74156 6.66676 0.088579 1.682888 0.67614
H 6.47491 10.5615 10.1089 0.210013 -0.50679 0.225561
H 4.73271 2.01584 4.9131 -0.063221 -0.771561 -0.477774
H 10.6493 8.44881 10.5782 -0.450331 -0.268764 0.87294
H 0.16619 6.05889 4.80765 -0.075448 -0.289971 -0.153638
H 11.8572 5.96711 0.23188 -0.295466 0.250231 -0.300498
H 5.86021 5.91025 7.41309 -0.020553 -0.176785 -0.110802
H 4.11521 2.58791 12.26935 -0.092082 -0.036717 0.085202
H 9.15643 7.68719 2.27686 0.174971 -0.230296 0.374112
H 4.29828 11.6427 12.1731 0.098754 -0.248062 -0.008499
H 4.90271 5.61325 9.21478 -0.292786 0.323108 0.866355
H 1.64339 2.42306 2.76996 0.080908 0.463768 -0.310559
H 0.31046 10.8577 11.3974 -0.658672 -0.786011 0.524381
H 7.92356 2.16018 8.0652 0.139227 -1.766456 1.314743
H 0.0278 10.7386 6.32947 -0.649002 0.223498 0.798956
H 1.01252 9.97161 1.08436 -0.335783 -0.087561 -0.885083
H 5.32638 7.27317 0.82241 -0.692779 0.525263 0.3304
H 7.51429 9.38279 3.06747 -0.562042 0.135055 0.894338
H 8.26986 6.14125 6.97678 -0.402763 -0.393601 0.278628
H 2.02544 8.69333 2.26264 0.103107 -1.107602 -0.043084
H 4.75532 10.4185 7.0914 -0.289562 -0.213964 0.566663
H 3.52418 10.215 8.85129 -0.059419 0.770812 0.935218
H 11.6966 2.13967 0.0743 0.439723 -0.348116 -0.991393
H 5.19566 4.98336 10.6991 0.494913 -0.799401 0.491102
H 5.46589 12.33326 10.1006 0.477218 0.123739 -0.179615
H 1.62295 7.72203 7.63379 0.333114 0.626687 -0.453981
H 12.1827 0.2057 3.24131 0.487457 -1.218558 0.208219
H 11.6144 4.28881 9.75012 -0.617348 0.546549 -0.021806
H 7.68568 7.08867 2.12251 1.549048 1.783564 -0.536311
H 11.5031 9.72491 8.2084 -0.135597 -0.825843 0.4135
H 7.34388 0.82291 3.13415 -0.512068 -0.136206 -0.862199
H 1.58184 5.36311 0.257 -0.000551 0.326009 -0.438834
H 1.45683 0.91857 2.7559 1.009593 -0.050313 -0.150271
H 0.80858 4.44784 2.18501 -0.553353 -0.817105 0.336175
H 9.22491 3.94308 4.46094 -0.101757 0.513083 -0.131636
H 3.76834 0.6762 11.7043 0.114702 -0.100279 -0.051059
H 9.65382 7.94937 4.65134 0.006287 -0.372238 -0.225863
H 10.6985 1.3113 1.78714 0.154968 0.136762 -0.43611
H 12.2395 3.20777 2.22459 -0.056184 0.29652 -0.137375
H 7.30099 11.2994 1.26324 -0.796862 0.981284 -0.135883
H 1.25584 10.639 2.38558 -0.749747 1.867202 1.880843
H 8.4748 3.30137 11.1056 -1.182007 0.59626 0.9022
H 6.51186 1.41448 1.03785 -0.401105 -0.638088 0.788153
H 4.21914 0.0552 3.8356 0.588055 0.025026 0.276101
H 4.0405 3.66384 5.79364 -0.817742 0.724089 0.358832
H 11.8104 9.52383 11.826 0.125212 0.593435 0.119631
H 0.19493 2.16616 10.7804 -0.120533 1.030567 -0.944972
H 6.38467 5.01002 0.36659 -0.162356 0.157678 0.184575
H 8.59643 10.4368 1.3207 -0.189287 -0.076824 0.192912
H 10.3277 2.98994 0.40293 1.025593 -0.610004 0.096387
H 2.01281 8.03581 5.40163 0.337096 -1.329895 -0.780408
H 1.35162 6.4603 1.43148 -0.664305 -1.522061 -0.860173
H 9.86971 11.3801 7.87203 0.420371 -0.28637 0.281428
H 1.45842 6.35635 8.24269 -0.231595 -0.810937 -0.447725
H 5.4181 0.85907 2.04758 0.084455 0.023256 0.271904
H 6.08547 2.42687 5.52908 0.287005 0.273 0.287817
H 9.82361 0.67335 2.97617 1.299988 -0.011278 -0.743417
H 5.5991 9.26625 10.489 -0.570596 -0.29406 -0.114281
H 0.36344 11.5133 4.29147 0.333283 0.094862 -0.079621
H 6.057 12.1446 8.57921 -0.181879 0.002854 0.262286
H 0.74168 4.47163 10.0575 -0.659694 -0.593615 0.051805
H 8.00447 12.2216 4.84087 0.291052 -0.745631 0.591569
H 7.40251 9.18392 0.43807 0.196607 0.02957 -0.612121
H 1.27199 2.16723 11.8975 0.025576 -0.553193 -0.579032
H 9.43041 4.59754 2.17681 0.406247 -0.240156 1.468613
H 3.39265 1.2123 3.39591 -1.303594 0.887787 -0.84658
H 1.63075 11.1709 10.0038 -0.40031 -0.047073 -0.264734
H 6.59722 11.9378 6.31057 -0.294626 -0.276308 0.144469
H 2.49906 4.13706 6.04552 -0.165467 -0.334427 0.43196
H 5.1532 9.016 7.55175 -0.0907 0.187289 0.329163
H 7.29703 1.02887 9.27028 0.263122 0.433216 -0.913169
H 8.66144 0.1598 8.19475 -0.012077 0.109097 -0.091688
H 7.8245 10.6524 4.97498 -0.167978 -0.420443 0.002544
H 7.38931 8.64093 4.40502 0.117241 -0.104746 0.133706
H 4.81195 9.73099 0.9042 -0.764801 -0.042462 0.074701
H 2.23724 6.85121 3.64259 -0.963269 0.187837 0.596227
H 3.06526 2.01459 0.87848 -0.535936 -0.318751 2.12132
H 8.70703 8.45855 12.087 -1.576309 -0.104361 -0.522421
H 10.39 5.59012 0.46495 -1.305919 -0.611505 0.701004
H 11.9421 11.0857 8.75445 0.373644 0.266853 0.482792
H 8.34657 4.86344 1.14474 0.60794 0.132092 -0.344759
H 10.5723 7.63547 12.0039 -0.176434 0.473215 -0.895297
H 8.78535 2.17247 10.1651 0.457968 0.452819 -0.470177
H 10.3077 11.5625 1.98901 0.28825 -1.229937 -0.102961
H 8.57132 11.4844 6.88475 -0.179178 -0.015187 -0.727304
H 5.13115 10.2939 4.15101 -0.626675 0.309384 0.051833
H 1.00826 9.70753 5.68939 -0.439658 0.83247 -0.196487
H 6.78075 6.2067 11.9569 0.311991 0.477331 -0.195368
H 4.34256 8.04181 12.34143 -0.343684 0.260641 -1.012493
H 10.3738 5.72546 10.4804 -0.546644 -0.242567 -1.213556
H 3.56142 8.82283 10.3397 -0.673092 0.067305 -0.664548
H 3.47957 11.2746 10.254 0.165898 -0.926732 -0.733857
H 0.09348 7.79215 8.97435 0.143341 -0.015831 -0.214898
H 6.79835 9.09078 8.64572 0.153758 -1.189333 -0.577328
H 11.2532 5.06406 4.74283 0.437966 0.760285 -0.091379
H 4.57761 10.7843 2.8771 -0.256883 -0.003615 -1.122282
H 2.81481 5.37029 10.636 0.014291 0.452157 -0.076812
H 11.0065 7.62323 8.58388 -1.661232 -1.678711 -1.647766
H 10.8367 10.5558 0.98504 1.058523 -0.450144 -1.217787
H 2.39792 5.81396 4.84949 -0.608533 0.841288 -0.063524
H 4.43604 7.31764 10.4005 -0.786042 1.101246 0.051424
H 0.12421 4.97214 6.6228 0.209339 0.278281 -0.392724
H 4.33513 5.52259 7.29177 -1.171277 -0.983594 -1.327866
H 10.6792 9.68614 3.14335 -0.018598 -0.223525 0.759309
H 9.98083 5.89227 8.06728 0.556656 0.545491 -0.413889
H 0.81023 0.05929 10.5144 -0.002667 -0.058822 0.101706
H 3.31082 10.3822 1.16022 1.812834 -0.054487 -0.493922
H 6.75095 7.6743 7.76779 0.253735 1.264563 0.473055
H 7.99952 1.66983 4.26844 0.3133 -0.360565 0.062251
H 7.29153 8.68684 11.2519 -0.244057 1.19436 -0.517809
H 0.41061 4.28545 7.9628 -0.610789 -1.267576 1.64489
H 9.1632 6.85954 5.64179 0.515889 -0.300892 1.824597
H 11.4676 9.60376 4.5496 -0.35163 -0.02446 -0.142508
H 10.8309 6.30385 6.71658 -0.304675 -0.127711 0.167469
O 11.4135 10.6755 8.05897 -0.361079 0.984056 -0.783956
O 11.5911 8.18703 9.03187 1.057417 1.915665 1.81576
O 5.77056 12.0593 6.85618 0.171909 -0.164714 0.104202
O 5.14771 2.32485 5.7426 -0.134874 0.195879 0.350215
O 0.2873 10.4028 5.47323 0.723319 -0.901022 -0.377673
O 4.30268 1.02035 3.6292 1.072318 -0.936056 0.491086
O 10.1262 6.57948 7.35273 -0.306198 -0.389203 -0.082404
O 8.00254 11.4459 5.52647 -0.191471 0.710458 -0.15687
O 1.65608 10.0068 1.82517 0.93654 -0.78547 -1.369966
O 6.51129 9.58509 10.33 0.014257 1.113138 -1.020324
O 0.50292 3.67695 2.75952 0.347503 0.521259 -0.23687
O 6.2936 12.2337 9.54552 -0.820178 -0.309322 0.225645
O 1.54948 7.28336 8.49463 0.107695 -0.114512 0.699273
O 10.2637 8.48067 11.5092 0.280988 -0.385544 0.080058
O 7.10246 9.46288 3.97801 0.491698 0.014258 -0.79949
O 2.26632 7.67784 2.32514 0.767439 -0.344443 -1.305944
O 0.81802 4.7993 7.29565 0.888271 1.006995 -1.210116
O 8.27448 7.90851 1.96805 -1.123514 -1.808265 0.89015
O 10.0222 5.3345 9.60913 0.929682 0.222049 1.900353
O 1.81698 6.56349 4.53306 1.396282 -0.977368 -0.321817
O 6.34712 0.74529 1.76637 0.4764 0.546012 -0.918705
O 10.2737 10.5511 1.75116 -1.252306 1.140828 0.749838
O 4.19813 12.2407 11.3877 -0.073389 0.364421 -0.850242
O 8.90458 11.6107 7.8332 0.174745 0.122078 0.430054
O 3.4105 4.43431 5.95886 0.924744 -0.099861 -0.426747
O 9.31239 4.71289 1.23207 -1.203288 -0.287098 -1.074992
O 6.64424 5.96338 0.47586 -0.301232 -0.808516 0.263173
O 3.04178 10.5415 9.68829 0.22276 0.10066 0.174658
O 9.19529 2.95224 10.608 0.934207 -0.541127 -0.294557
O 0.58932 1.6154 11.4523 0.352419 -0.280756 1.035905
O 4.31206 10.7211 3.79486 1.044012 -0.42152 0.875368
O 4.28051 10.5567 0.85097 -1.401538 0.04419 1.125121
O 7.39035 5.70267 7.01161 0.564325 -1.368675 -0.756194
O 4.95824 6.01394 7.79472 0.91791 0.914204 1.238939
O 9.05126 7.16301 4.76718 -0.59176 1.153932 -1.979445
O 2.06449 8.66367 6.1231 -2.562239 0.238715 0.648016
O 11.0715 2.42593 0.74174 -1.568911 1.090052 1.129339
O 0.04552 3.81735 9.76011 1.427291 -0.105614 0.202906
O 9.53042 4.65896 3.85727 -0.575463 0.406301 0.238506
O 4.39519 9.65492 7.615 0.173192 0.393111 -1.188077
O 1.91003 5.66003 10.8916 -0.118431 0.364925 -1.21385
O 10.6659 0.54345 2.41638 -1.927673 0.491779 1.64437
O 4.59743 7.95831 0.87092 1.18709 -1.220498 0.757161
O 12.3077 10.2941 12.1797 0.074135 -0.394583 0.500253
O 10.7117 9.23755 4.03579 -0.041017 -0.029518 -0.422385
O 7.63627 8.44868 12.1388 2.370952 -0.688481 0.604418
O 0.95456 5.60805 0.95114 0.57794 1.813419 1.706505
O 11.7797 5.7021 5.28035 -0.53149 -0.417941 0.304425
O 6.86326 8.6576 7.74339 -0.290416 -0.390699 0.0821
O 3.26093 2.11062 12.36712 0.319951 0.46618 -2.001637
O 8.09591 1.40213 8.75493 -0.367859 0.927738 -0.576004
O 0.7145 11.521 10.2465 0.53905 0.576544 -0.67522
O 4.69538 5.65379 10.2474 -0.436902 0.698271 -1.147204
O 0.57787 12.0348 3.47205 -0.840534 0.781808 -0.448007
O 2.12605 1.60776 2.48153 -1.116715 -0.28592 0.294484
O 4.26653 8.27912 10.6979 1.299675 -1.311097 0.546568
O 8.06239 0.8077 3.79466 0.483285 1.164227 0.225642
O 10.9265 6.14892 12.3011 1.895316 0.459618 -0.737765
O 7.59558 10.3956 1.26309 0.878161 -0.619192 0.367444
N 9.66069 12.3176 10.5183 0.67701 0.455878 -0.532153
N 4.96532 7.63343 5.20961 -0.013015 0.000762 0.06766
N 3.5964 2.94392 8.95246 2.600764 0.241997 -0.690682
N 4.87144 3.90568 2.94543 0.005985 0.072444 -0.056423
N 1.74866 12.1805 7.34877 0.890184 0.050947 -0.640794
N 4.6762 3.06992 8.67064 -2.628328 -0.45053 0.727652
N 5.96903 3.78285 2.93761 0.013229 0.059687 0.030177
N 4.79432 7.62662 4.11882 0.040591 -0.179939 -0.147539
N 2.63685 12.108 6.68517 -0.797432 0.148422 0.626149
N 9.18056 11.6683 11.2626 -0.471572 -0.586108 0.71088
N 12.165 2.26004 5.49227 -0.593781 -0.763902 0.49519
N 11.5208 1.47541 5.94551 0.609463 0.700106 -0.419867
Cl 8.3916 2.88189 6.16424 -0.303664 0.047865 -0.270571
Cl 6.12518 3.10678 11.9823 0.188668 0.114397 -0.081946
193
energy=-1087.18330664 config_type=nep2xyz pbc="T T T" virial="1.5398635151598556 -5.112306885621445 1.9265489744529232 -5.112306885621445 -0.25749676765505614 -4.46315037043597 1.9265489744529232 -4.46315037043597 -3.2439380432077844" Lattice="12.4 0.0 0.0 0.0 12.4 0.0 0.0 0.0 12.4" volume=1906.6240000000003 Properties=species:S:1:pos:R:3:force:R:3
H 9.0822 5.5173 10.3711 -1.512271 -0.40706 -0.247087
H 2.42942 11.1746 8.1136 -0.58734 -0.093362 0.176637
H 2.51858 7.4834 1.25872 -0.620854 -0.869679 0.658733
H 6.36344 2.00444 3.97952 0.853575 -0.578014 -0.270868
H 7.69664 7.32609 10.2506 1.451951 1.199939 0.017632
H 6.3343 1.28709 8.52346 -0.398669 0.276014 -0.634135
H 7.56596 5.52601 6.67446 -0.140335 -0.294827 -0.198419
H 5.49585 10.1868 10.4322 -0.034925 -1.634258 -0.615384
H 5.59668 1.88826 6.75047 0.11742 0.485135 -0.102861
H 1.33257 8.37982 7.0452 0.427235 -1.105005 -0.193957
H 10.7336 3.91093 3.43638 -0.355554 0.555742 0.056606
H 9.25478 7.93652 12.0648 -0.401038 -0.121585 1.560667
H 7.44774 4.39847 10.6087 -0.192206 -0.729754 0.744564
H 2.39766 2.66985 1.10402 -0.229156 0.027009 -0.493747
H 9.18821 8.73188 2.02655 0.956815 -0.15806 0.332071
H 1.97503 11.6678 10.4568 0.059512 -0.29187 -0.573553
H 1.45439 4.63576 11.0921 0.232289 -0.094504 0.593066
H 0.22248 3.38466 7.33009 0.357364 0.539331 -0.577415
H 12.1999 7.64821 9.58639 -0.170724 0.356294 -0.54864
H 10.732 7.39772 7.82603 0.282271 -0.680641 -0.227807
H 9.66475 0.42133 8.83254 0.059581 -0.261504 -0.164945
H 12.3519 9.50573 1.1257 -0.271761 0.784219 0.774707
H 4.25792 8.088 0.39879 0.651514 0.153212 -0.070232
H 10.5452 6.14911 3.4237 0.450519 -0.186101 -0.154922
H 8.4393 4.28447 6.36907 0.140105 -1.525824 0.439409
H 1.03192 7.12959 1.41378 -0.661895 0.201257 0.086013
H 3.93435 10.7118 6.14458 1.301888 0.442042 -0.302956
H 6.0403 9.80561 8.18771 0.943746 0.489342 -0.223972
H 10.4236 1.21219 11.3886 0.204477 0.30359 1.386603
H 0.7969 4.20343 9.69826 1.100778 1.649951 1.05759
H 4.94674 12.0629 11.6422 0.073454 -0.434265 -0.790785
H 1.85161 6.25103 5.87143 -0.121878 0.649048 -0.882321
H 0.3098 0.42213 5.79182 1.316651 0.766457 -0.16602
H 0.6737 4.99298 6.59986 -0.337701 -0.76167 0.18113
H 8.2353 9.19721 3.00429 -0.466286 0.118924 0.683634
H 10.1115 11.2895 8.529 -0.357984 0.343043 -0.039534
H 4.53557 1.04747 4.53064 -0.092187 -0.065966 0.317012
H 0.5242 4.29652 0.65676 -0.833149 -0.541517 -0.15189
H 1.20548 1.8183 7.35936 -0.077024 0.800784 0.239377
H 10.9048 4.6258 12.2706 -0.251019 -0.040593 -0.127035
H 7.36335 3.21724 3.41908 -0.182326 1.189096 -0.144935
H 3.39894 11.4512 10.0439 0.297616 -0.046029 -0.148206
H 8.66897 4.62309 3.20758 1.996185 -0.059932 -1.257631
H 9.27719 1.10735 1.63239 0.491102 0.384695 -1.005504
H 10.9862 3.02433 12.37736 0.179241 0.815617 0.961889
H 6.1154 12.3456 1.21775 1.013486 -0.281403 0.52752
H 12.0581 10.8309 2.22428 -0.221546 -1.044431 -1.124191
H 8.94887 2.35526 8.87756 -0.124507 0.095666 -0.111474
H 5.99246 1.68689 0.13833 -0.631922 -0.436268 0.194428
H 2.73025 12.1017 3.49831 0.291893 -0.401436 -0.293278
H 5.86538 4.20909 7.87586 -0.006964 1.128108 -0.619658
H 0.5298 6.39179 10.2021 0.39958 0.041936 0.023787
H 0.9551 11.8007 0.20298 0.773754 0.754293 -0.737344
H 5.93585 8.14381 11.7713 0.698298 0.548926 -2.246634
H 7.61658 12.2901 1.93582 -1.013836 -0.458016 -0.464947
H 9.37258 2.0982 11.9645 -0.216102 0.021888 0.380094
H 1.64743 10.3721 6.88572 0.263814 0.49948 0.73818
H 1.65436 5.12922 1.2611 0.504304 0.57237 -0.073378
H 11.1369 2.81352 9.44936 -0.257828 0.766113 0.19245
H 2.21839 6.18324 7.33646 -0.594175 -0.266551 0.038909
H 4.45137 1.42209 0.64815 1.16338 -0.653129 -0.274912
H 7.06526 2.39098 7.04869 -0.221149 -0.026466 -0.049402
H 7.88976 1.72509 3.04935 0.013566 -0.741188 0.190525
H 5.03456 8.70745 9.77611 -0.619027 0.303672 0.197494
H 1.60535 0.11787 6.47132 1.657708 -2.32717 1.607113
H 5.38908 12.2432 10.1562 -0.181412 -0.769141 0.317668
H 11.5551 4.6366 6.85458 -0.360141 0.148822 -0.136545
H 10.7198 0.62584 5.33103 -0.416573 0.893322 -0.110698
H 6.63238 10.3454 2.27969 0.153728 -0.456911 0.210487
H 2.01009 0.6161 12.3863 -0.439369 -0.432813 0.300119
H 7.52673 5.13153 0.59924 0.061432 -1.908336 -0.19048
H 2.29682 0.76885 4.5462 0.061697 -0.172507 -0.090126
H 6.15802 10.5003 6.83403 -1.564077 0.51219 -2.32119
H 6.80633 12.1762 8.6121 0.017401 -0.108074 -0.170153
H 5.07106 5.62512 7.96927 1.538747 -1.040983 -0.209264
H 4.62483 10.1238 4.83449 0.335491 1.10213 1.066017
H 11.7064 8.61357 7.49727 0.264677 -0.491802 0.416936
H 10.6149 4.3458 9.6271 0.065041 -0.268657 0.327579
H 10.7453 12.2268 6.69488 0.165557 0.172732 -0.78724
H 10.8705 6.52863 6.06409 -0.332943 -1.364308 1.439156
H 3.21734 10.2799 1.06693 0.600585 -0.743974 -1.214732
H 3.08112 7.70632 4.54498 0.607768 0.443094 0.477884
H 2.7072 1.51262 2.02437 0.138144 -0.923454 1.843535
H 0.16062 7.88788 11.9344 -1.484507 -0.260487 0.55701
H 8.44421 7.30026 0.84729 0.454241 -0.683999 -0.179154
H 11.5169 0.48225 9.62877 0.955468 -0.464387 0.141593
H 7.43277 5.8577 2.08731 0.06007 -1.259464 0.395689
H 11.1857 7.64121 0.43573 -1.056462 -0.47188 -0.266485
H 7.80207 1.61367 9.70015 1.83335 0.095057 -0.022579
H 9.56693 0.2158 2.86134 0.241666 -0.457042 0.25937
H 11.1372 11.328 3.98476 0.625947 0.226062 2.073292
H 5.17989 9.16229 3.29963 -0.133898 0.182496 -0.493092
H 0.16978 9.39422 3.41034 1.250955 1.103166 -2.130835
H 6.37175 7.06626 0.53398 -0.184883 0.282042 -0.650812
H 3.06272 8.52629 11.9241 -0.42019 -0.112655 -1.791754
H 8.28345 8.77051 9.88432 -0.59952 1.305354 -0.721531
H 1.93055 7.99476 9.97768 0.355113 0.007942 -0.427924
H 0.54062 1.96579 8.77971 0.170496 0.439548 -0.253737
H 0.51265 8.85153 5.64011 0.367061 0.028071 1.656598
H 8.32693 9.93698 8.07974 1.220494 0.056441 -0.263711
H 10.9764 4.32401 1.99565 -0.640546 0.263563 -0.668714
H 3.63828 9.67443 2.91775 0.999364 0.171496 0.662699
H 10.1521 6.53787 10.406 0.311971 0.965839 -0.206435
H 9.70909 9.06053 8.20649 0.503828 -0.403583 0.039357
H 10.2523 10.2924 3.25269 -0.402826 0.070494 -0.099242
H 2.2923 6.96349 3.54149 -0.157491 -0.703593 1.172334
H 2.6448 9.29453 9.46545 0.393767 -0.678219 0.247272
H 2.65623 5.55398 8.99924 0.19448 -0.753034 0.446076
H 6.94697 5.14558 9.2818 1.505228 0.510615 1.825227
H 10.053 7.63585 3.71476 0.191147 -0.419368 -0.009559
H 10.1531 2.65129 5.12874 1.066455 0.516529 0.464172
H 0.50873 0.69348 10.6344 -0.489589 -0.743814 0.263825
H 1.86555 10.4083 1.80692 0.042187 0.10473 -0.133967
H 9.69649 5.70944 6.65975 -0.156582 -0.09647 0.004176
H 5.61409 0.33329 5.34219 -0.120101 -0.371861 -0.090286
H 6.5261 8.95123 1.65206 -0.122998 -0.314223 0.082711
H 3.34977 6.88804 8.9707 0.205948 -0.299918 -0.596228
H 7.8813 4.939 4.41357 -0.578684 0.439682 -0.657805
H 11.744 8.20392 3.89109 0.281361 -0.284251 0.28716
H 11.7489 3.17145 5.17569 -1.089949 -0.253127 0.272414
O 10.3904 12.2512 8.48263 0.298674 0.197465 0.225381
O 0.66401 8.94653 6.68733 -0.799868 1.47945 -2.297502
O 6.50827 0.5379 9.13462 -0.1382 -0.652128 0.92834
O 6.13515 2.37953 7.40697 -0.58677 0.117884 0.290152
O 12.24 9.01105 4.18162 -0.677703 -0.92409 2.312539
O 2.93778 0.58796 3.8048 -0.014067 0.783994 0.103187
O 11.0166 2.76272 4.65376 -0.286552 -0.158319 -0.691224
O 11.0571 12.234 5.73572 0.56821 -0.682041 1.131272
O 0.29468 10.3173 1.6299 -0.114936 0.093777 -0.042907
O 5.78491 9.24577 10.0416 0.197758 0.911516 0.487684
O 11.255 3.90943 0.42852 0.225559 -0.401159 -1.019639
O 4.90791 11.5727 10.7601 0.458909 1.491842 0.328199
O 1.40553 6.20026 6.74223 0.689617 -0.655942 0.467779
O 12.0581 8.01814 0.39872 2.369588 0.719847 -0.285751
O 10.6248 5.96515 6.8945 0.331142 1.499122 -1.96798
O 1.88867 6.832 1.74497 1.048979 0.897336 -0.247903
O 3.38436 5.99323 8.5202 -0.253252 1.044027 0.255216
O 9.19349 8.97257 2.99843 -0.012913 -0.001299 -0.838088
O 8.48599 7.95502 10.2986 -0.540545 -2.665317 0.873451
O 2.54405 6.90933 4.52473 -0.260191 0.206226 -2.047224
O 5.32319 0.9671 0.39529 -1.188856 1.139858 -0.074035
O 10.6621 11.1927 3.19062 -0.627603 0.141955 -1.862805
O 2.49498 11.3571 9.66109 -0.028715 -0.12619 1.134277
O 11.1147 3.71532 9.07032 0.455348 -0.302268 -0.117173
O 5.99015 5.2069 7.78312 -1.358883 -0.4481 0.92572
O 7.44512 5.90621 1.12896 -0.654906 3.45351 -0.430292
O 5.86522 7.89168 0.26528 -0.112714 -0.981714 2.750591
O 6.67559 10.2594 7.57203 0.775777 -0.714205 3.107439
O 8.79039 1.86163 9.69728 -1.025442 -0.484382 0.277191
O 1.47555 12.3194 11.9237 -0.453928 -0.450572 0.388104
O 4.27944 9.36152 3.64883 -1.047747 -0.607154 -0.141029
O 2.83233 10.6233 1.85252 -0.585503 1.022595 1.85307
O 8.2963 5.19343 6.10957 -0.638306 1.587805 -0.323445
O 7.57033 5.22737 10.135 -1.965437 0.685421 -3.109528
O 7.76684 4.82462 3.41464 -0.994411 -0.430749 2.470038
O 2.23762 11.1336 7.15178 0.175501 -0.506416 -1.229299
O 10.1961 1.64632 12.2652 -0.486326 -0.3238 -1.81655
O 12.3608 4.14062 6.5379 1.023477 0.370149 0.902671
O 7.07662 2.28572 3.28839 -1.158766 -0.013014 0.601992
O 4.84077 10.7194 5.69986 -1.634772 -0.706209 -0.445934
O 9.95632 5.67146 10.7372 1.878154 -0.761416 0.583831
O 8.94576 0.87974 2.49909 -0.164724 -0.106111 0.473322
O 3.40777 8.58315 0.39461 -0.1238 -0.237956 1.254622
O 0.48455 7.37824 10.2359 -0.16136 -0.075398 0.54114
O 10.7864 6.98314 3.88948 -0.970775 0.474596 0.397015
O 6.64788 9.34776 2.54037 -0.073182 0.901752 -0.577893
O 1.48658 4.37768 0.67032 0.60746 -0.468807 -0.198363
O 10.4594 4.62304 2.77621 0.349727 -1.025453 1.085606
O 9.31258 9.93171 8.28892 -1.933787 0.707852 0.192116
O 2.67464 1.72854 1.10742 0.335905 1.039878 -1.431087
O 11.2146 8.13647 8.22261 -0.307999 0.675365 0.657056
O 12.1836 1.06294 10.1003 -0.76713 1.188024 -0.89688
O 1.38254 4.91655 10.167 -1.550499 -1.686024 -1.574831
O 1.29044 0.75939 5.87155 -3.14405 1.609354 -1.36156
O 0.97699 2.51416 8.05356 -0.225568 -1.516778 -0.131829
O 2.83644 8.33894 9.67683 -0.702397 0.982771 0.321248
O 5.34111 1.23153 5.08747 -0.024328 0.020123 -0.830509
O 9.28387 7.77907 0.67098 0.136855 0.708255 -1.892537
O 6.85094 11.75 1.59899 0.036071 0.323317 0.330791
N 8.87845 11.1759 11.3143 0.950689 0.470386 0.007485
N 6.73888 7.95931 5.44121 -5.777029 -3.187046 -1.718939
N 4.4497 3.97645 10.6955 -0.134 -0.97277 -0.508759
N 4.39358 3.89895 2.50269 1.110029 -3.507046 2.32396
N 3.30763 3.67904 5.51579 -0.276076 -0.019766 0.082648
N 4.3766 2.98714 10.1929 0.023868 0.971312 0.513625
N 4.13068 4.76373 1.91228 -0.901205 3.563089 -2.377222
N 7.64684 8.45353 5.70907 5.830339 2.968503 1.593137
N 4.37673 3.94987 5.48819 0.165825 0.12553 -0.058713
N 7.89131 10.6943 11.3249 -0.846594 -0.311672 0.091661
N 12.339 0.90848 1.82531 -0.198488 -0.06368 -0.153045
N 12.3817 1.45176 2.7849 0.339952 0.079242 0.068193
Cl 8.85971 2.33856 6.69825 0.44937 -0.069829 -0.4608
Cl 7.2457 3.1645 12.1525 0.26766 -0.382504 0.425588
193
energy=-1087.82866554 config_type=nep2xyz pbc="T T T" virial="-9.604672274293533 -11.925986951372447 -1.0627126511291167 -11.925986951372447 2.4892861566727356 -3.6705963115660767 -1.0627126511291167 -3.6705963115660767 -16.679788077571754" Lattice="12.4 0.0 0.0 0.0 12.4 0.0 0.0 0.0 12.4" volume=1906.6240000000003 Properties=species:S:1:pos:R:3:force:R:3
H 2.66757 4.90519 11.1912 -0.826462 -0.138592 0.036869
H 2.67849 9.45575 6.46459 0.942209 0.278512 -0.02937
H 3.28214 7.52362 1.82306 0.724176 -0.063667 -0.595469
H 8.7321 4.84335 3.11208 1.004714 2.295126 -0.861233
H 9.52168 3.91428 11.5365 0.545804 0.237029 -0.708032
H 5.18089 1.48293 6.35863 0.365516 -0.475802 0.722922
H 7.68119 5.47506 7.94697 0.242542 0.186842 0.424745
H 5.26187 9.35538 9.81308 -0.11981 -0.139837 0.35257
H 5.24924 2.53127 4.90462 0.729675 1.018046 0.741282
H 10.5861 7.75477 9.94227 -0.339504 -0.932856 0.960906
H 0.50985 6.01688 4.73494 -1.049158 -1.559796 -0.076706
H 11.7011 6.56163 0.83299 -0.955887 1.087337 -0.099697
H 5.80557 6.11448 8.35717 -0.996728 -0.498536 0.118247
H 3.54126 1.88533 12.0822 0.348152 -0.511488 0.154833
H 9.16558 7.83451 3.43386 0.509169 0.575871 0.056611
H 4.71127 10.8643 11.4318 0.583756 -0.495758 -0.777477
H 6.30016 4.17962 10.3623 0.389117 0.011116 -0.73476
H 1.50155 2.59731 2.77281 -1.045853 1.108343 -0.028283
H 11.5321 10.1533 0.19377 0.393842 0.61817 -0.281782
H 8.75058 3.32395 9.41075 -0.332329 -0.861485 0.123945
H 12.0395 10.8888 7.08336 0.935049 0.010548 -0.642
H 1.00593 10.3511 1.59826 0.837711 -0.129735 -0.250899
H 5.33277 6.89043 0.55213 0.700858 0.355869 0.59156
H 7.84894 9.68806 3.98855 1.245332 -1.001107 -0.282009
H 8.45353 6.35497 9.03226 -1.320786 -0.536581 -0.413089
H 2.46644 8.81692 2.17089 -0.341114 -0.33423 -0.256197
H 4.44788 11.4578 6.30018 -0.888958 0.415736 0.087512
H 3.00244 11.0215 8.05696 6.9e-05 0.178173 -0.215582
H 11.8113 1.79086 12.333 0.050493 -0.362347 -0.091833
H 5.57431 3.20868 11.2911 0.006542 -1.906401 0.38169
H 6.31251 0.70478 9.90082 0.390711 -0.132312 -0.531633
H 1.85879 8.09633 8.09571 0.42524 0.832339 -0.393317
H 0.55898 12.3224 3.71854 0.297657 -0.060583 -0.84304
H 11.4925 3.96417 9.90698 0.958256 -0.731335 -1.078623
H 8.14851 6.28147 1.5338 -0.420433 -0.112489 -0.646486
H 11.0601 9.97338 8.53128 -0.335444 -0.037035 0.121458
H 8.74436 1.18874 2.759 -0.453505 -0.572498 -0.436791
H 1.20904 5.34883 0.24953 0.650866 -0.300719 -0.375111
H 1.95292 1.14786 3.22409 0.493297 1.241742 -0.796722
H 0.23466 4.61451 1.99199 0.70678 0.380385 0.638513
H 8.13916 4.07107 4.30346 -0.21066 0.287888 1.135653
H 5.58592 11.5141 10.2198 0.295564 -0.146872 -0.050247
H 10.7764 9.75294 3.98015 -0.365104 -0.19177 0.468625
H 11.3346 0.63616 1.99828 0.467195 0.555668 -0.81063
H 11.8357 3.38556 1.87697 0.574599 -0.206564 1.532908
H 6.48124 10.1322 0.70567 -0.117147 0.101772 0.075584
H 2.1229 11.0431 2.51738 -0.517973 -0.632679 -1.015157
H 8.05194 2.73348 0.42419 -0.774361 0.037766 -0.113989
H 8.35926 0.81328 0.74649 -0.463471 -0.295174 0.521167
H 5.20184 1.10541 3.00806 0.54999 -0.497027 0.23156
H 4.40795 4.29249 5.72694 0.279101 -0.196233 0.017055
H 11.557 8.84911 0.89979 0.907395 0.240463 0.540085
H 0.25605 2.21102 10.3893 -0.19083 -0.672766 0.298497
H 6.50285 5.0222 0.14142 -0.322713 -0.913089 -0.179027
H 7.9297 9.97992 1.34158 -0.09433 -0.372453 -0.66957
H 10.3943 2.06448 0.49537 -0.947761 0.184396 -0.365173
H 2.14993 8.12995 5.83864 -0.237671 -1.002049 -0.758339
H 1.49408 6.45426 1.43012 -0.716322 -0.678938 -0.544941
H 10.0082 11.1889 8.27095 -0.688328 0.631356 0.221759
H 1.77121 6.71178 8.56524 -0.538489 0.553361 0.639961
H 7.25548 0.03183 1.63181 0.319927 0.117272 -0.36286
H 6.2372 3.30564 6.03071 1.678688 0.366628 -0.114019
H 10.6986 0.6037 3.36282 -0.372646 0.705949 0.327624
H 4.93896 7.74139 9.67231 0.763525 1.291686 -0.534889
H 1.69207 12.0768 4.70037 0.676723 -0.122617 1.37259
H 5.93981 0.36018 8.33588 1.155939 -0.186817 1.089366
H 0.53697 3.88378 10.3087 0.6163 0.352813 -0.846406
H 8.39194 0.77472 4.90106 -1.062673 -1.431597 1.160668
H 7.4781 8.61183 11.7509 0.344563 -0.977582 -1.200692
H 1.26193 1.70684 11.5097 0.209255 -0.377385 -0.000518
H 7.26801 3.53719 2.18635 -0.040243 -0.124701 -0.325887
H 3.99366 1.96539 3.02895 -1.035842 0.716128 0.112404
H 1.43835 11.4642 9.55766 0.895719 0.243128 -0.458582
H 6.35407 0.47354 6.32531 0.12954 -0.107516 -0.213407
H 3.08633 4.613 6.4445 -0.142319 0.128004 0.280319
H 4.94782 10.2336 6.78329 -0.359533 -0.838439 0.244917
H 8.09831 2.06568 8.73888 -0.213442 -0.248238 -0.463716
H 7.89502 11.9262 8.58559 0.487026 -0.066092 -0.479314
H 7.72451 11.6422 5.17589 0.318782 1.002003 0.08051
H 6.58544 9.78665 4.89532 0.558633 -0.016095 0.169699
H 4.35855 9.27769 0.45128 0.932258 -1.298096 -0.404216
H 2.38004 7.3094 3.96153 0.338081 -0.336107 -1.085509
H 2.45807 1.74518 0.91553 0.49796 0.730775 -1.278719
H 9.19056 7.64344 10.7564 0.06666 -0.273326 0.118155
H 9.76362 6.57126 1.64706 -1.466475 0.144292 0.21871
H 12.1011 11.4637 9.24378 0.565771 0.475943 0.946126
H 6.14158 2.54698 1.67824 1.205932 0.815352 -0.698682
H 10.5862 7.15028 12.1372 0.604975 0.273884 1.698241
H 8.51825 2.28995 11.2816 -0.092047 0.095946 0.891384
H 9.44992 11.3436 1.65044 -0.282765 -0.429325 0.399719
H 8.51208 12.0612 7.04714 -0.02223 -0.729395 1.537891
H 6.23013 11.3964 3.22678 -0.819095 -0.080263 -0.945263
H 0.84874 9.96293 6.32614 0.131585 -0.319518 0.099468
H 7.15973 6.22167 11.8931 -0.02362 0.463607 0.121446
H 4.27242 7.03818 11.9563 -0.534713 0.907011 0.943133
H 10.0697 5.30596 10.9456 -0.130032 0.972004 0.046876
H 2.92641 7.15043 10.1508 -0.997045 0.756119 -0.331942
H 3.59475 11.2267 9.41769 0.259194 -0.082823 0.723594
H 0.0241 8.23045 8.72123 -1.617977 -0.901865 -0.653787
H 7.70438 10.0229 7.30774 -1.00642 0.086935 -0.469837
H 12.0625 4.68919 4.27422 0.178185 -0.561445 -1.155636
H 4.90954 11.2718 2.27644 0.819009 0.054307 -0.168474
H 2.27293 3.51441 11.8718 -0.205986 0.256619 0.034674
H 11.2038 7.62825 7.74433 0.234064 0.097775 -0.087674
H 10.4129 10.1257 1.69065 0.728619 -0.293101 -0.101359
H 2.51276 6.08586 5.01247 1.820172 -1.219334 0.235569
H 3.9202 6.06391 9.86383 0.57774 -0.515823 -0.432462
H 0.9691 5.12218 6.75641 0.439902 0.024645 1.089191
H 4.51207 5.58235 7.49479 0.7608 0.262586 1.360341
H 11.2249 11.2613 3.61161 -0.112028 -0.650799 0.118621
H 9.64826 6.01797 6.29252 0.370119 0.120449 -0.320937
H 0.44992 0.21387 10.3567 0.17086 0.867963 0.421096
H 3.37438 10.2787 0.80291 -1.057003 0.912707 0.204741
H 6.48062 9.18146 7.8538 0.629353 0.743594 -2.129124
H 8.98962 2.47521 3.5388 -0.13764 1.789155 0.001249
H 7.08374 8.13262 10.2406 -0.672959 0.157894 -0.341813
H 0.94686 4.5695 8.22127 0.17225 0.11016 -0.111578
H 9.61317 7.63615 4.85489 0.360282 0.565385 0.535314
H 12.132 10.8493 5.44273 -0.363589 -0.834643 -0.461368
H 10.9297 6.36234 5.43383 0.284946 -0.811901 0.177802
O 10.9617 10.9589 8.54907 1.530131 -0.924383 -0.840754
O 11.4229 8.25505 8.463 1.376189 0.618621 0.738987
O 5.44467 0.57153 6.69079 -0.279158 -0.17837 -0.171219
O 5.36759 2.98829 5.8197 -2.363329 -1.213213 -1.553229
O 0.34472 10.8457 6.31177 -1.596674 0.331149 0.843311
O 4.89414 1.95318 3.37107 0.593662 -0.31552 -0.124012
O 10.2487 6.74805 6.01885 -0.598158 0.029003 0.965718
O 7.89177 0.14646 5.60049 0.89999 0.449496 -1.358289
O 1.99516 10.4697 1.70421 -0.368593 0.556398 1.33481
O 5.48814 8.50758 9.34581 -0.21701 -1.14644 -0.143479
O 12.3859 3.85753 2.58214 -1.086637 -0.75809 -1.782528
O 6.58572 0.14303 9.11929 -1.80243 0.857437 -0.589424
O 1.70949 7.65068 8.94188 -0.210112 -1.308459 -0.6062
O 10.1248 7.24525 10.6919 0.109363 0.879268 -1.138388
O 7.20966 10.2879 4.34375 -1.503704 1.09931 0.150003
O 2.4848 7.83325 2.26629 -0.380475 0.299149 0.687205
O 1.49471 5.12264 7.61243 -0.951144 0.11024 -0.900097
O 8.87639 6.4227 2.1461 1.529431 0.048317 0.911006
O 9.98835 4.37164 10.7712 -0.082783 -1.036067 0.296186
O 2.00378 6.8116 4.69961 -1.791085 1.587755 0.70909
O 8.21582 0.23709 1.54141 -0.051083 0.489184 -0.744261
O 9.58254 10.4485 2.0337 -1.123239 0.66642 0.128119
O 5.133 10.7109 10.5239 -1.058012 0.585632 0.43168
O 8.62315 11.5755 7.97202 -0.09048 0.527187 -1.499665
O 3.79323 5.03358 5.93213 -0.559203 0.48312 0.053187
O 6.9226 3.09144 1.3628 -1.266837 -0.388983 1.247976
O 6.85424 5.89064 0.35655 0.265773 0.738549 0.034836
O 2.77765 11.4086 8.92299 0.341534 -0.343651 -0.408228
O 8.80429 2.47692 12.2265 0.717794 -0.439678 -0.96409
O 0.38772 1.48026 11.0779 0.15006 1.032885 -0.781515
O 5.72455 11.7877 2.4463 0.372761 -0.034669 1.130689
O 4.26825 10.234 0.44828 0.217941 0.310084 0.415362
O 7.55329 6.01823 8.76764 1.277688 0.135174 -0.018902
O 4.89778 5.70774 8.42993 -0.025737 0.321231 -1.303852
O 9.57745 8.3555 4.1783 -1.028556 -0.548818 -1.306222
O 1.95477 8.81573 6.49093 -0.7804 1.035652 0.659943
O 11.2723 1.76767 0.7524 0.390378 0.143282 0.625017
O 12.3975 3.65141 9.50067 -1.362404 0.748273 2.181147
O 8.25635 4.07646 3.35163 -0.757847 -2.211156 -0.198451
O 4.05641 10.5688 6.52323 1.33334 0.59116 -0.079392
O 1.89527 4.35299 11.4897 0.518768 0.273741 -0.141333
O 11.5011 0.31553 2.9009 0.081402 -0.644698 0.838547
O 4.55161 7.4698 0.43626 -0.1466 -0.797704 -1.533464
O 11.9693 9.7825 0.97146 -1.316177 -1.486878 -0.602096
O 11.224 10.5578 4.31462 0.792033 0.811125 0.271519
O 7.67665 7.94159 10.9778 0.29571 0.924227 1.784896
O 0.85482 5.78182 1.04879 -0.107391 1.377562 0.868036
O 12.2108 5.30241 4.98684 1.212206 2.209947 1.079652
O 6.83893 9.64089 6.98285 -0.387712 -0.976314 2.786559
O 2.59808 2.00835 12.3358 -0.745653 -0.398473 1.592838
O 8.3524 2.43391 9.58071 0.596033 1.252982 0.397264
O 0.53916 11.7479 9.86493 -2.149948 -1.567911 -0.778581
O 5.68157 4.11874 11.0813 -0.386586 2.266763 0.20788
O 1.53384 12.114 3.77283 -0.919454 0.239458 -0.374221
O 2.24774 2.00712 2.74666 0.55076 -2.073971 0.224864
O 3.40509 6.45475 10.5965 0.879369 -0.560054 0.586358
O 9.12412 1.53862 3.58425 0.580151 -1.508852 0.952332
O 10.8739 7.17108 0.77133 1.395975 -0.760754 -1.802445
O 7.3179 9.66063 0.63132 0.139449 -0.035099 0.387954
N 8.71101 11.449 11.0241 -1.159763 1.014379 -0.474436
N 6.54674 6.87721 5.34903 0.746281 -0.205742 1.175452
N 3.13574 2.47392 9.42596 2.22448 -1.233379 -1.208374
N 4.113 5.33776 2.01751 -2.462622 1.038477 -1.407943
N 2.65728 1.56287 6.1663 -0.096782 -0.417345 -0.182753
N 4.04194 1.98825 8.97486 -2.249312 1.318568 1.228169
N 4.90399 4.84259 2.57449 2.299687 -1.356979 1.677558
N 5.95921 7.04863 4.43904 -0.732159 0.272019 -1.134501
N 2.29472 2.54196 6.51889 -0.136989 0.0683 -0.064397
N 9.51205 10.7788 11.3508 1.308952 -0.927774 0.422975
N 11.3059 1.9203 6.17117 0.108498 0.091529 -0.081412
N 10.5753 1.23963 6.64199 0.012561 -0.0119 0.062527
Cl 8.18211 4.13452 6.3428 0.091704 -0.048132 0.331703
Cl 5.46585 1.27211 11.8023 -0.083076 -0.470527 0.050727
193
energy=-1086.07140026 config_type=nep2xyz pbc="T T T" virial="-0.40098951302822683 -9.998497860243086 17.213453044088574 -9.998497860243086 1.416910534135175 1.222211180423909 17.213453044088574 1.222211180423909 -7.31486935619191" Lattice="12.4 0.0 0.0 0.0 12.4 0.0 0.0 0.0 12.4" volume=1906.6240000000003 Properties=species:S:1:pos:R:3:force:R:3
H 9.51301 5.17949 10.0801 -0.06604 -0.322132 -0.034918
H 2.57579 11.7955 9.10518 0.432944 0.016056 0.567038
H 2.38273 7.32085 1.06123 -0.798103 -0.572172 0.940509
H 6.9296 1.82796 3.58591 -1.006697 -0.092968 0.555864
H 7.79369 6.9345 10.0719 -0.531424 1.168671 0.692951
H 7.01078 0.90431 8.61788 -0.220577 0.429001 -0.451057
H 7.49397 5.12096 6.09998 1.976779 -0.193714 -0.770703
H 5.57419 10.0424 10.4481 -0.271839 -0.870939 -1.066724
H 6.39045 1.77361 5.87146 -1.079321 -0.369771 -0.737768
H 0.88192 8.9771 7.45907 0.373783 -0.892217 0.176705
H 11.7574 4.98517 2.94646 0.399041 -0.903896 1.619199
H 8.85987 7.8262 11.9903 -0.161129 0.397503 -0.913167
H 7.47769 4.63202 10.3314 -0.090604 -0.211812 0.489776
H 1.96036 2.72282 1.70452 -0.592745 1.4587 -0.137215
H 9.12739 8.36812 1.65402 0.259516 -0.193997 -0.945873
H 2.20592 11.7431 11.2437 1.65818 -0.589155 -0.653947
H 1.90441 4.23952 11.4249 -0.236534 0.220546 -0.677488
H 0.8119 2.44984 7.70617 -0.602733 0.269985 -0.514058
H 12.2894 6.68248 9.77573 0.119701 0.44553 0.048678
H 10.1333 7.79972 8.12809 -1.009528 -0.070195 -2.093466
H 10.0264 11.1549 8.12079 -1.203934 -0.12473 -0.498645
H 0.22568 9.39636 0.84849 0.273022 1.820344 0.428478
H 4.37473 7.90004 0.3331 0.952081 -0.753375 0.19705
H 11.1802 6.91816 3.33657 -0.633979 1.077764 0.211274
H 9.07339 4.75767 5.69427 0.430048 -1.073521 0.688202
H 0.84239 7.18089 1.43375 -1.341138 0.460693 -0.168762
H 3.90561 11.6935 7.11811 1.125177 -0.045832 -1.340168
H 6.3317 9.74085 8.30058 -1.251336 -0.622086 0.886446
H 9.5619 2.12143 11.1969 -0.289186 0.424079 1.85233
H 1.0457 3.99886 10.0661 0.174931 -0.024985 0.014258
H 5.81491 11.4721 12.0645 -0.469738 0.529401 -0.818063
H 2.32443 6.92014 6.07582 -0.395281 0.359021 0.667379
H 12.0059 12.3776 5.70766 0.995194 -0.523239 0.520222
H 0.64471 6.10546 6.7734 1.446591 1.025865 0.667559
H 7.93062 8.93681 2.48187 -1.632708 0.348004 0.1243
H 11.4152 10.8241 8.31847 1.009654 -0.254654 -0.102452
H 4.77044 1.16528 3.6569 0.69593 0.534495 0.4098
H 0.59253 4.24301 0.69939 0.347867 -0.450131 -0.347134
H 1.16846 0.82158 7.19514 -0.470796 0.60991 -0.651434
H 10.9361 4.80677 11.834 -0.072147 -0.738366 0.526129
H 8.0505 2.92461 3.41006 0.669933 2.220407 0.316614
H 3.91276 11.6668 10.8637 -1.784078 -0.770651 -0.2467
H 9.67594 4.65053 3.24891 0.405654 0.145998 0.091504
H 9.10793 0.93917 0.84282 -0.576544 -0.115642 -0.057088
H 10.6986 3.45834 0.31173 -0.376159 -0.061533 -0.458742
H 5.52005 0.05032 1.27959 0.595272 0.340372 0.147532
H 12.0348 10.571 1.7046 -0.36648 0.091373 0.522554
H 9.67924 2.43432 8.74335 -0.039652 0.46967 -0.649792
H 5.54738 2.28839 1.13685 -0.951551 -1.172068 0.68406
H 2.70375 11.5064 3.80453 -0.373723 0.64109 -0.332278
H 6.08141 3.58404 7.43052 0.488781 0.795433 -0.089377
H 0.97849 5.94669 10.6184 -0.060332 1.33605 -0.590432
H 0.74225 11.8701 0.50742 -0.006238 -0.620977 -0.768466
H 5.98877 7.28395 11.5061 0.569454 -0.02113 0.921563
H 7.09939 12.1718 1.27446 1.688666 1.053287 0.192982
H 8.55744 2.69896 12.3409 0.758059 -0.630538 -0.4978
H 2.00496 11.1618 7.84242 0.129533 0.095693 -0.015142
H 1.58163 5.22069 1.17366 0.783501 0.681549 0.191027
H 11.6056 2.8793 9.20877 1.331845 0.562119 -0.764788
H 2.67638 6.45967 7.5384 -0.742327 0.70173 -0.245793
H 4.05591 2.01563 1.62465 -0.635408 -0.205746 -0.169839
H 7.68896 2.14785 6.46463 -0.087298 -0.270872 0.622417
H 8.37272 1.0739 2.19637 -0.328701 0.587871 0.955975
H 4.4571 9.07493 10.0613 -0.816455 -0.488044 -0.319584
H 0.51808 11.4359 6.61604 -0.30842 -1.617981 0.477762
H 6.07863 12.238 10.7466 0.592816 0.766749 -0.920821
H 11.5193 6.39663 7.10046 0.324002 0.061421 -0.260501
H 10.1679 0.23177 5.1126 -0.235928 -0.889274 0.013257
H 6.13678 10.1797 2.03468 -0.025665 1.333434 -0.59446
H 1.71152 0.63065 0.41671 -0.297389 0.12528 -0.570554
H 7.19838 4.98484 0.44323 -0.460056 0.401752 -0.245723
H 1.89476 0.04732 4.74568 -0.036559 -0.083497 -0.388378
H 5.85372 10.679 7.03302 0.22732 -0.18515 0.710044
H 7.12359 11.7959 8.61234 0.065177 -0.087077 -0.039077
H 5.3953 4.96608 7.91716 1.19861 -0.582777 -0.639179
H 4.17414 10.8413 5.83126 -0.621134 -1.381821 -1.3096
H 10.6014 8.87143 9.16136 -0.051939 -0.889839 -0.415224
H 11.7111 3.93465 8.06041 0.888641 -0.195351 0.655184
H 10.063 11.0624 5.54585 -0.250706 0.569088 -0.507749
H 10.2534 7.27212 5.58211 -0.742544 0.463821 0.623303
H 3.09202 9.51209 1.41557 -0.028105 1.59653 1.173019
H 3.21114 7.85909 4.11481 0.083265 -0.020816 0.096022
H 2.26212 1.45995 2.59136 -0.288292 -0.89099 1.585203
H 0.13468 7.50836 11.9332 0.967859 -0.665461 -2.092407
H 8.78283 6.84236 0.66141 0.014773 -0.831085 0.177502
H 11.5838 0.10416 9.95672 0.775409 0.349982 -0.470953
H 7.79127 5.06158 1.78463 0.036193 1.073105 0.297992
H 11.2703 7.46718 0.32476 -1.631886 -0.201552 0.232541
H 9.10716 1.23212 9.41535 0.202728 -0.195534 0.138133
H 9.64796 11.8 1.94402 -0.204514 -0.195244 0.607554
H 10.2167 11.3977 3.45569 0.250451 -0.310912 0.104459
H 5.02751 9.50427 3.99317 -0.399897 -0.148467 0.389573
H 1.36065 8.42182 4.48096 0.277481 0.284047 -0.494265
H 6.12997 6.7299 0.66781 0.28719 -0.196252 -0.782092
H 3.24549 8.62256 12.0486 -0.304257 -0.401462 0.666276
H 7.22663 8.50343 10.2162 -0.076604 -0.956429 0.009729
H 1.93965 8.12885 10.1743 0.361645 0.058773 0.269068
H 1.01006 1.34225 8.69612 0.542682 -0.423681 -0.922967
H 0.50613 9.54636 6.04774 0.339509 -0.244567 -0.361804
H 8.12115 10.2672 7.21299 0.846618 0.516052 -0.865022
H 11.2539 5.22373 1.57322 0.303199 0.550625 -0.161357
H 3.62479 9.8323 3.58525 -0.338634 -0.03416 0.0037
H 10.373 6.41639 10.2118 0.277797 -1.114541 0.198633
H 8.9514 9.16871 6.71297 0.94343 -1.328742 -0.656973
H 9.61703 10.135 2.43327 0.382521 0.899903 0.055283
H 2.41287 6.77541 3.27814 -0.367051 0.620694 0.633701
H 2.42483 9.61563 10.4316 0.213824 0.97728 -0.043453
H 3.12297 5.01514 9.16664 0.555396 0.944847 -0.330766
H 7.34633 4.94928 8.84749 0.408414 0.073148 0.096531
H 9.96806 7.99693 3.53428 0.509295 -0.007188 -0.065486
H 10.8501 3.54199 4.94449 0.712749 0.401659 0.328648
H 0.52868 0.33732 10.7124 1.180233 -0.503136 2.761
H 1.85548 10.4675 1.84728 2.241362 -0.36991 0.467048
H 8.922 6.71451 6.33719 1.867315 1.370608 -0.477939
H 4.90919 0.48161 5.00737 0.388356 0.35783 0.237123
H 5.6813 8.7475 1.88216 -0.099192 -0.238921 -0.214692
H 3.69291 6.4455 9.33165 0.123427 0.487145 0.382889
H 8.28783 4.83831 3.90141 0.217268 0.3934 0.219751
H 12.2906 8.61886 4.21142 0.804769 1.196103 -0.293919
H 11.8709 4.79038 5.28707 -0.898805 -0.323654 -0.123447
O 10.6966 11.2378 8.79321 0.254422 -0.042791 0.564202
O 0.6002 9.76446 7.00762 -0.484408 1.021714 0.030082
O 7.37372 0.18375 9.13697 0.264708 -0.14192 0.350829
O 6.77116 1.90106 6.73794 1.04759 0.774261 0.427565
O 0.74534 9.16917 4.29527 -1.475926 -1.188149 0.9267
O 2.35782 0.01957 3.88492 0.276573 -0.329411 0.462857
O 11.4013 4.27622 4.57639 -0.169976 0.069012 -0.104581
O 10.4045 11.6923 4.84352 -0.148644 0.754396 1.160954
O 0.41827 10.3724 1.18283 -0.844486 -2.099922 -0.714856
O 5.38988 9.204 9.87881 1.267099 1.544245 0.965005
O 11.2085 4.28813 0.26027 0.208778 0.625528 -0.422746
O 5.45797 11.6105 11.0991 -0.220779 -1.129969 1.391232
O 2.00302 7.00896 7.01725 1.288164 -0.777016 -0.60615
O 12.1333 7.85118 0.30831 0.276933 1.568514 1.691425
O 9.67217 7.43153 6.38944 -0.985143 -1.434753 -0.174836
O 1.68839 6.80345 1.62411 2.790636 -0.413469 -0.213014
O 3.6357 5.73942 8.68996 -0.405854 -1.491157 0.139231
O 8.88041 8.95026 2.39797 1.303622 0.326789 0.770477
O 7.58555 7.71972 10.682 0.682328 -0.855069 -0.873759
O 2.53576 7.15837 4.19394 0.359292 -0.461773 -0.254478
O 4.94939 1.63697 1.64562 1.674676 1.023533 -0.568785
O 10.2006 11.0763 2.47278 -0.709547 -0.732785 -0.734015
O 2.93264 11.3324 10.619 -0.03777 1.264793 1.10078
O 12.2902 3.41949 8.68695 -2.388764 -0.087546 0.107247
O 6.25429 4.56374 7.55241 -1.510598 -0.048623 0.506816
O 7.36662 5.68363 1.12807 0.691412 -1.292394 -0.052163
O 5.63669 7.28305 0.02371 -0.313398 0.139099 0.042078
O 6.61063 10.3063 7.59395 0.656001 1.308946 -1.049168
O 9.77828 1.93675 9.5555 -0.498443 -0.57887 0.278393
O 1.13457 0.06812 12.2312 0.844811 0.753797 1.420775
O 4.12165 9.52476 4.3913 0.354722 0.230561 -0.888278
O 2.89131 10.3609 1.98398 -1.421522 -1.021112 -0.664352
O 8.34037 5.3459 5.55228 -2.994764 0.675062 0.819044
O 7.91565 5.16336 9.64103 -0.670422 -0.003726 -0.593244
O 8.73285 4.53807 3.08706 -0.401444 -0.311523 -0.259765
O 2.44852 11.9791 8.14079 0.232848 -1.431881 -0.710665
O 9.44364 2.22794 12.2253 -0.454288 0.276187 -1.363045
O 12.1432 5.88415 6.56252 -1.966049 -1.1742 -0.237604
O 7.77349 2.06091 3.21916 0.171006 -2.522529 -0.861385
O 4.58677 11.5128 6.34778 -0.591582 1.32522 2.552838
O 10.4133 5.42795 10.3846 0.03523 1.542356 -0.317792
O 8.62694 0.39237 1.53803 1.353077 -0.442214 -1.262893
O 3.50007 8.2915 0.56351 -1.258577 0.964966 -1.275991
O 0.61035 6.88715 10.3967 0.446318 -1.662391 0.191092
O 10.8648 7.75576 3.84554 0.149413 -1.308436 -0.029261
O 6.18685 9.32564 2.46205 0.2343 -0.90618 0.631531
O 1.57812 4.31798 0.77771 -1.147327 -0.526886 -0.126331
O 11.6693 5.7083 2.34385 -0.756862 0.499349 -1.007675
O 9.05621 10.1106 6.80677 -1.25412 1.157531 0.870711
O 2.37509 1.87358 1.7536 0.675992 -0.699218 -1.604279
O 10.6297 7.91545 8.91165 1.214469 0.939727 2.596555
O 0.06532 0.54488 9.94416 -1.705501 0.913953 -3.058662
O 1.82041 4.45817 10.4413 -0.062941 -0.013539 0.854532
O 0.49669 12.2441 6.12935 -0.254997 2.169135 -0.957976
O 1.3704 1.64379 7.76423 -0.311602 -0.211923 2.16199
O 2.71898 8.69807 10.3952 -0.507907 -1.036556 -0.181611
O 5.2809 1.24243 4.50093 -0.913516 -0.90504 -0.579655
O 9.41428 7.50431 0.31558 -0.194677 -0.253454 0.614941
O 6.25185 11.8116 1.07236 -2.453357 -1.726125 0.033348
N 9.15119 10.5264 11.2437 -0.328299 0.058926 0.15688
N 5.94801 8.0274 5.93713 -2.736811 -2.14267 4.034724
N 4.53655 1.87082 9.76794 0.426712 -2.891888 0.485683
N 5.79624 4.1925 4.14616 3.454316 -3.035746 1.269005
N 2.17347 3.65498 5.0369 -1.775462 -2.662994 -2.681889
N 4.33728 2.91769 9.5549 -0.601079 2.743948 -0.704471
N 5.02414 4.8906 3.86878 -3.483878 3.138551 -1.347722
N 5.34963 7.59853 6.81153 2.776079 1.909776 -4.096806
N 2.63935 4.34471 5.72668 1.799611 2.537371 2.688996
N 8.05499 10.3774 11.2028 0.615927 0.116016 0.001459
N 12.3379 1.7268 3.49386 1.585777 -0.534836 1.099555
N 11.4499 1.98378 2.91236 -1.692748 0.36776 -1.25792
Cl 9.89333 2.17319 6.18454 -0.075798 0.035235 0.141838
Cl 6.49926 3.23903 11.8303 0.533599 0.329508 0.132828
193
energy=-1088.77000218 config_type=nep2xyz pbc="T T T" virial="-0.5000468701758694 -10.11059784874991 -1.3178174763542503 -10.11059784874991 -12.444479148744236 3.3447328311751714 -1.3178174763542503 3.3447328311751714 -6.722869554891601" Lattice="12.4 0.0 0.0 0.0 12.4 0.0 0.0 0.0 12.4" volume=1906.6240000000003 Properties=species:S:1:pos:R:3:force:R:3
H 9.16043 4.48729 11.2037 1.088689 1.559988 -0.150237
H 3.01362 11.5776 6.88128 -0.312682 1.18148 0.161486
H 0.25977 6.82293 1.83675 -0.943868 0.374507 -0.605741
H 7.28216 2.24268 3.49329 1.334647 -0.286196 0.085924
H 8.21602 6.90173 10.081 0.114166 0.734256 0.332104
H 6.87204 0.72328 8.39933 -0.659412 -0.816417 -0.044851
H 7.50908 5.62116 7.10319 -0.579664 -0.119651 -0.124595
H 6.3179 10.1368 10.3859 -0.050281 0.159756 0.649517
H 6.23006 2.25268 6.12108 0.729999 -0.121963 1.270816
H 1.20284 8.36388 7.10292 -0.061776 -2.886735 -1.56583
H 11.0483 5.30535 3.7329 0.812914 -0.704033 1.13791
H 8.91282 7.83025 12.1456 -0.019387 0.364227 0.40449
H 7.11971 5.12303 10.8211 0.267384 -1.033779 0.493999
H 2.40531 2.26444 1.11453 -0.552879 1.77007 -0.356228
H 7.15002 10.2578 3.22075 0.243616 0.028085 0.062939
H 3.40239 10.3416 11.8558 0.095648 -0.301713 -0.474456
H 1.38298 4.4497 10.5075 0.476365 -0.11776 -1.569642
H 1.89984 1.18371 7.37053 -0.079621 -0.079851 -0.00639
H 11.9701 7.43385 10.082 0.383196 -0.866987 0.46106
H 10.6551 8.3727 7.97997 0.380162 0.160631 0.889975
H 12.0245 11.202 7.83549 0.063583 0.078552 0.827469
H 12.2102 9.56191 1.45322 -0.174914 -0.49145 -0.520907
H 3.33078 7.10619 11.8639 0.866774 0.165635 0.092458
H 10.1703 7.25545 3.2724 1.40091 2.123558 1.081741
H 8.79636 4.82723 6.68557 -0.546633 1.03885 0.031955
H 1.71895 6.64445 1.41009 0.749389 0.303915 -1.382129
H 4.38133 11.3356 5.14735 0.088511 -0.637104 0.028033
H 5.46259 9.46108 8.5527 0.571149 0.044756 0.231735
H 10.6786 1.8832 11.2673 -0.479432 -0.450443 0.506269
H 1.51201 3.63255 9.17688 0.13079 -0.815599 -0.187363
H 6.61359 11.8333 12.0849 -0.359248 0.074036 -0.567848
H 1.37147 6.97732 5.55913 0.676311 -0.07267 -0.099236
H 11.3623 12.0728 6.23033 0.457188 -0.92254 -0.493326
H 10.724 4.30725 8.50134 0.010887 0.360781 0.020605
H 7.61538 10.1733 4.73782 0.120828 0.067997 0.413856
H 11.3801 10.218 8.87326 -0.07484 -0.330649 0.464758
H 5.23938 1.87258 3.67669 0.270143 -0.531558 0.133063
H 0.6371 4.1231 0.06551 -1.128294 -0.411911 0.276317
H 1.2636 0.06763 6.47386 0.390506 0.06746 0.319749
H 10.7843 4.88257 12.1776 0.272433 -0.69597 0.778036
H 8.36679 3.3851 3.42317 0.11811 -0.801692 -0.072398
H 4.47225 11.0506 10.8664 -0.780945 -1.161977 0.392372
H 9.19013 5.3936 3.42991 -0.441118 -0.289123 -0.064629
H 9.79658 0.83598 1.03923 -0.333913 -0.130954 -0.037654
H 10.8461 3.41887 0.46382 1.197571 1.728188 -0.239515
H 6.31996 12.3908 1.57241 -0.786895 0.764458 0.05421
H 0.13674 10.3515 2.77244 0.230633 0.014684 -0.527615
H 10.3419 1.94265 9.04306 0.070345 -0.266901 -0.22237
H 5.90659 2.13708 0.75123 -0.705106 -1.285495 1.509614
H 3.48745 0.14339 4.05266 0.652325 -0.31471 -0.455417
H 6.17521 4.04596 7.55231 0.008578 -0.895871 -0.145179
H 11.9056 5.93202 10.5826 0.696727 1.753552 0.464201
H 0.45666 11.7335 0.76985 -0.110067 0.773851 -0.433505
H 5.88537 6.75329 11.5533 0.531509 -0.51552 -0.352767
H 7.85802 12.16 1.55472 -0.491083 -0.40508 -0.180544
H 9.26103 2.32737 11.8521 0.715668 -0.719019 0.314481
H 2.73855 10.1126 7.12811 -0.148231 -0.265361 -0.53891
H 1.99326 4.69597 0.15917 0.626687 0.284106 0.074815
H 1.39457 1.34785 9.37782 0.122473 -0.284204 0.270642
H 1.92643 6.32015 6.93473 -0.875143 0.31739 -0.794914
H 4.50141 1.66454 1.23371 -0.822726 -0.327672 -0.163329
H 7.56459 2.49961 7.05191 -2.320489 -0.452539 -0.227977
H 8.89392 1.38418 2.21454 -0.088831 -0.145252 0.450502
H 5.89276 8.59962 10.6943 0.18481 0.715429 -0.074169
H 12.2732 10.8014 5.64852 -0.49705 0.052785 -0.322604
H 6.48257 12.2453 10.4714 0.247439 0.082653 -0.126728
H 12.0762 4.80821 9.09952 0.295082 0.149458 -0.262159
H 9.42664 0.91243 6.23641 -0.218715 -0.079527 -0.229592
H 6.72634 9.7724 1.19322 -0.35527 -0.65361 0.252342
H 1.48432 0.63656 0.85286 -0.076747 0.11089 -1.306378
H 7.39976 4.70456 0.64994 -0.202984 -0.876806 -0.26106
H 2.535 0.94905 4.89101 -0.063064 0.237157 -0.625627
H 4.77783 10.2947 7.3662 1.0706 -0.0487 0.521012
H 6.17419 11.5904 8.4629 0.579078 0.690681 0.023682
H 5.04567 5.1594 7.7028 0.834032 0.362217 0.468418
H 4.50604 10.6633 3.70819 0.348853 0.627846 0.941339
H 10.2046 8.41402 9.46132 -0.151512 -0.121297 -0.00197
H 0.17972 2.11355 8.82996 0.669953 -0.45322 -0.057671
H 8.70918 11.8539 6.07708 -1.31109 -1.213208 1.024346
H 10.115 8.16537 5.70493 0.128948 0.099246 -0.482847
H 2.32795 8.82723 0.33916 0.474691 0.875022 0.408586
H 2.72345 8.13573 4.05099 0.968469 0.491767 0.018068
H 2.56105 1.24615 2.32169 0.236433 0.257381 0.575321
H 11.8383 7.88978 12.192 0.311377 -0.146167 1.673958
H 8.77742 6.85183 0.86696 -0.071745 0.336322 0.416991
H 0.72817 11.6124 9.87198 -0.957222 -0.645416 -0.946534
H 7.37249 5.30363 2.12763 0.145224 -0.225699 -0.023124
H 10.7668 8.13422 0.84291 -1.045135 -0.214052 0.447657
H 11.0222 0.5699 9.32061 -0.029529 -1.433517 -0.360135
H 9.93037 12.28 2.8515 -0.281938 -0.345758 -0.669077
H 9.8868 12.0116 4.46569 0.214372 -0.308468 -0.151006
H 4.96377 8.84671 2.67873 2.627967 -0.886607 -1.033945
H 0.64244 8.92428 4.43442 0.36487 0.740672 0.104067
H 5.7658 7.86659 0.26904 0.582655 0.316433 0.824425
H 1.88957 6.97411 11.3831 -0.635112 0.060461 -0.297864
H 7.86916 8.43226 10.2071 -0.387913 0.183431 -0.239524
H 2.65912 8.57346 8.93137 0.331834 -0.596788 0.33583
H 2.21417 11.4994 10.4118 -0.978573 0.841091 0.025074
H 0.49555 9.41704 7.82835 1.108296 0.232138 0.313253
H 7.25113 10.4518 7.05038 -0.056079 -0.163515 -0.118463
H 10.8474 5.09872 2.18266 0.513997 -1.054384 -1.730567
H 3.58142 9.23996 2.14415 0.10653 0.097108 -0.105054
H 10.3469 5.15333 10.3246 -0.495562 -0.062987 -0.415514
H 8.62123 9.80705 6.73002 0.696697 -0.967086 0.100034
H 9.30149 10.935 3.48267 -0.253027 -0.175067 0.041178
H 1.53698 7.4527 3.26103 0.353219 -0.351109 1.111816
H 3.6269 9.04619 10.0153 0.081115 -0.807321 0.066822
H 3.21663 5.45673 8.8345 -0.360666 -0.406016 -0.042925
H 6.55298 5.39222 9.38525 0.211651 0.652921 0.862088
H 9.47923 8.60526 3.54887 -1.015751 0.968994 0.015562
H 11.2241 4.10359 5.71932 0.02171 0.053926 0.358449
H 0.90185 12.3802 11.7142 0.888565 -0.150923 -1.363369
H 1.7522 10.051 1.18956 0.348024 -0.240999 -0.161986
H 9.30468 7.31169 6.69697 -0.003993 0.751825 -0.111679
H 6.07259 0.61208 4.20353 -0.637735 1.474944 -0.106756
H 7.44748 8.44357 1.40951 1.07568 -0.650061 -0.20458
H 3.75443 6.83181 8.62592 0.391399 1.142038 0.412855
H 8.38947 5.16605 4.73748 -0.419241 0.370116 0.984776
H 11.601 9.13238 4.10003 -1.313006 -0.264957 -0.222288
H 12.1414 5.44691 5.66675 -0.356599 -0.718345 0.076476
O 11.9042 11.0473 8.83358 0.019486 0.690292 -0.729938
O 1.40653 9.13763 7.57047 -0.843029 2.270916 1.657742
O 6.78118 12.274 8.88472 0.174406 0.424619 -0.306023
O 6.53766 2.31797 7.08215 1.939401 0.441522 -1.211329
O 12.3478 9.65128 4.41136 1.412807 0.034627 0.257945
O 2.86708 0.88379 3.95959 -0.648974 0.323697 0.714923
O 11.5259 4.8431 5.17894 0.507403 0.725517 0.046089
O 9.41712 0.02682 5.81141 2.32384 1.635297 -1.041328
O 0.26637 10.3684 1.77737 0.060102 0.86772 0.791349
O 6.40843 9.2139 10.1011 -0.262695 -1.128002 0.189215
O 11.3449 4.32869 0.45714 -0.997099 -1.318819 0.159425
O 6.08218 11.8015 11.2517 -0.503846 -0.426487 0.584078
O 1.11325 6.62688 6.44167 0.332275 -0.372619 0.878323
O 11.7304 8.11562 0.78509 0.449825 0.010303 -1.942238
O 9.70429 8.22565 6.5784 -0.282245 -1.093916 0.525432
O 1.12823 6.57993 2.14386 0.082407 -0.625095 1.554098
O 3.74962 5.96595 8.2077 -0.85698 -0.801615 -0.553937
O 7.91221 10.1392 3.81136 0.167678 -0.15091 -0.632549
O 8.61472 7.80149 10.2545 0.943609 -0.346516 0.157078
O 1.8501 7.78559 4.20432 -1.240297 -0.150206 -0.824659
O 5.42303 1.57656 1.47048 1.690531 1.524347 -1.511504
O 10.1117 11.5262 3.54693 -0.01385 0.371719 1.525012
O 3.72146 10.3574 10.9086 0.658109 2.133031 0.037773
O 1.16739 2.02772 8.7243 -0.671627 0.331674 -0.112879
O 6.02935 4.97225 7.76182 -0.069747 0.737251 -0.025734
O 7.6859 5.4146 1.2182 0.345136 1.224056 0.224417
O 5.31838 7.41563 11.951 -1.439777 0.141719 -0.833998
O 5.66376 10.1218 7.86724 -1.61087 0.633318 -1.279916
O 11.0386 1.48731 9.55447 0.069873 1.551523 0.439692
O 0.69824 0.1967 0.25752 -0.711115 -0.871138 3.51471
O 4.11374 9.07662 2.95509 -2.637735 1.01424 0.959561
O 2.58215 9.72874 0.72712 -0.672044 -1.080225 0.105395
O 8.28718 5.67236 6.5165 1.533772 -0.830079 0.09824
O 6.89385 5.83967 10.2381 -0.830716 0.093346 -1.658289
O 8.30929 5.09451 3.78724 0.266469 -0.166952 -0.884105
O 3.36039 10.7071 6.65775 0.914414 -1.238935 0.098259
O 10.1372 1.87015 12.0991 -0.251007 0.868037 -0.384821
O 11.1253 5.05306 8.99996 0.319897 -0.765399 -0.556817
O 8.27903 2.38466 3.34157 -0.826704 0.936104 -0.288189
O 4.81184 11.4474 4.28003 -0.373627 -0.721537 -0.785694
O 9.80889 5.28384 11.1446 -1.63282 -1.37802 0.505652
O 9.25951 0.518 1.81921 0.291924 1.343351 -0.689069
O 2.41746 7.10911 12.1782 -0.043144 -0.113218 0.239634
O 12.3105 6.81982 10.8043 -0.725143 -0.081271 -1.00801
O 10.3324 8.22066 3.7134 -0.608412 -3.260242 -1.108802
O 6.57015 8.82744 1.46193 -0.863839 1.621992 0.00223
O 1.55998 3.90363 12.2322 0.274042 0.127186 -0.12535
O 10.7052 5.67174 2.91589 -1.104506 2.008191 0.102138
O 8.02506 10.4944 6.4412 -1.367004 0.353962 0.130026
O 2.61142 1.37531 1.34556 -0.074248 -1.731276 0.24994
O 11.0062 8.5963 8.91137 -0.745577 -0.43551 -0.695957
O 1.39315 12.1074 10.3638 2.106617 -0.525866 0.43894
O 1.45822 4.54485 9.49071 -0.45717 0.932994 1.805157
O 12.1832 11.5255 6.32061 -0.22435 0.859078 0.229633
O 2.13622 0.45398 6.75667 -0.75057 0.536328 -0.558966
O 3.36896 8.20554 9.5198 -0.712776 1.287448 -0.532216
O 6.00253 1.61582 4.22772 -0.210874 -0.965601 0.377774
O 8.98334 7.81839 0.74865 -0.004392 -0.880902 -1.112776
O 6.97288 11.7034 1.42533 1.050016 -0.626673 -0.025766
N 8.82773 10.8812 11.0172 -0.946543 -0.303736 -0.71121
N 4.99569 8.17978 5.81348 -3.159424 0.875884 0.294728
N 4.58694 3.27469 9.42122 -1.041089 -1.580726 1.01682
N 3.63498 4.55435 2.19984 1.805876 2.148384 -0.354516
N 2.04254 3.39285 5.94164 0.573151 1.278192 -1.61619
N 4.05474 2.42783 9.91679 0.865885 1.273472 -0.770617
N 4.32641 5.43358 2.08948 -1.745213 -2.189247 0.367005
N 6.01928 7.83676 5.70076 3.138265 -1.046697 -0.391563
N 2.35694 4.02555 5.07523 -0.538472 -1.170467 1.589143
N 9.75195 11.0856 11.5714 1.203083 0.245919 0.723322
N 11.3818 2.05969 3.01994 0.466224 -0.018102 0.643939
N 11.8661 1.83055 3.99153 -0.321751 0.133814 -0.595931
Cl 9.79559 2.76433 7.06359 -0.111428 0.290994 0.112699
Cl 7.4631 3.06174 11.5523 -0.131439 0.042174 0.082522
193
energy=-1086.52490394 config_type=nep2xyz pbc="T T T" virial="-3.1390733830462003 8.349580810616509 -7.006046978087817 8.349580810616509 -5.04742693473618 -9.053430695990663 -7.006046978087817 -9.053430695990663 6.295532974500942" Lattice="12.4 0.0 0.0 0.0 12.4 0.0 0.0 0.0 12.4" volume=1906.6240000000003 Properties=species:S:1:pos:R:3:force:R:3
H 8.82124 5.42824 10.0908 1.103166 0.078009 -0.004924
H 2.5222 11.2598 8.34624 0.257772 0.416764 0.616794
H 2.45567 7.72433 1.15996 0.747374 0.067144 -0.449611
H 6.66291 1.72854 4.0067 0.122892 0.374843 -0.066184
H 7.31663 6.97895 10.6196 -0.309454 -0.957435 -0.073524
H 6.334 1.21917 8.56048 -0.212055 0.001167 -0.21312
H 7.80526 5.08724 7.37539 0.587353 -0.045533 -0.038057
H 5.97013 10.521 10.1763 -0.319903 -1.483478 -0.862886
H 5.71083 1.83292 6.22075 0.681258 0.040963 0.892664
H 0.83713 8.4645 7.48592 0.562417 -0.097206 0.179525
H 11.115 4.2833 3.11055 -0.14638 -0.507791 -0.279233
H 8.75408 7.40388 11.8132 0.389164 0.15551 1.550819
H 7.196 4.84191 10.9477 -0.453379 -1.583651 1.247338
H 1.94659 3.04372 0.81698 -0.585434 1.969036 -0.336807
H 8.99671 8.04885 1.77771 -0.230227 0.402098 0.491734
H 2.2619 11.8878 10.8425 -0.893908 0.726317 0.814443
H 1.79663 5.01136 10.8358 -1.243034 -0.131992 -1.794892
H 0.59894 3.49593 7.63686 0.207603 -0.412329 0.232081
H 12.3972 7.89518 9.68946 -0.623644 0.131046 -0.220326
H 10.7306 7.49121 8.23893 0.021994 0.597106 0.266221
H 10.1473 10.5901 7.33981 -0.46895 -0.925665 -0.579984
H 12.3783 9.91421 0.71842 -0.15182 -0.301984 -0.118849
H 4.27569 8.11048 0.40988 -0.534048 0.776827 -0.33477
H 10.7669 6.31871 3.53689 0.458589 -1.118225 -1.451585
H 8.80873 3.91235 7.41547 0.240488 0.348381 -0.307276
H 1.02257 7.82626 1.46189 -0.216474 -0.792151 -0.096931
H 4.01424 11.1627 6.52276 0.591524 -0.130684 -0.547917
H 6.53704 10.155 8.14005 -0.124524 -0.761766 0.906247
H 9.73767 1.85944 11.3749 0.349866 -0.077135 1.001838
H 0.6065 4.57078 9.82057 0.553731 0.02697 0.062934
H 6.08225 11.5831 11.9121 0.228625 0.284714 1.341503
H 2.37911 7.19404 5.91434 0.97249 0.630492 -2.403611
H 0.40308 0.30282 5.75068 -0.209596 -0.16007 0.147477
H 1.16561 5.54077 6.65437 -0.682057 -0.731098 0.883853
H 7.85908 8.75844 2.56355 -0.958333 0.371499 0.288624
H 11.6439 10.1682 7.77489 0.23738 -0.240988 -0.569507
H 4.55441 1.27241 4.33914 0.612784 -0.589833 -0.016176
H 0.28095 4.7434 0.34259 -0.315463 -0.855401 -0.362324
H 1.07949 1.92424 7.09359 -0.403082 -0.365983 0.635813
H 10.5285 4.7925 11.4957 0.765765 -0.480022 1.534785
H 7.79497 3.12474 3.98231 0.143523 -0.079178 0.232621
H 3.78806 11.6381 10.5979 0.58026 0.188948 0.304494
H 9.15123 4.26981 4.69335 -2.098241 0.016778 0.197733
H 8.86182 0.7455 1.13584 0.731043 0.698184 -0.857469
H 10.5689 3.46051 0.04732 0.639005 0.330175 -0.366236
H 5.35412 0.12163 1.20958 1.609158 -1.523444 -0.063799
H 11.7762 10.8682 1.81597 0.770952 0.139107 -1.046286
H 9.73577 1.40349 9.02675 -0.86308 0.888504 0.709581
H 5.40538 2.55629 1.13331 1.294212 -0.157126 -0.02306
H 2.74245 0.00963 3.05002 0.026957 0.218979 0.068401
H 6.12442 3.74913 7.49412 0.045101 1.05751 0.62724
H 1.00136 6.74943 10.1338 -0.239441 0.387531 -0.26973
H 0.72042 11.9648 12.1892 -1.075232 -1.759427 2.115724
H 6.38219 7.9431 12.3635 0.393349 -0.749324 0.117495
H 6.88648 12.1791 1.3743 -0.597088 -0.507931 -0.074334
H 9.01231 2.58262 0.05935 0.286115 -0.471787 0.35482
H 1.98631 10.5148 7.08883 0.071542 -0.456626 0.367127
H 1.44267 5.58835 0.6798 0.739572 0.685011 0.73479
H 11.3848 2.98641 10.1457 0.405994 0.694192 -0.752186
H 2.80331 6.70192 7.3598 1.704105 -0.515568 0.936913
H 4.06943 2.00517 0.95099 0.506501 -1.267648 0.011199
H 7.12851 1.83854 6.96094 -0.527834 0.329341 -0.397356
H 8.00286 1.40113 3.16462 -0.356306 1.618661 0.097838
H 5.24847 9.14476 9.65812 -1.583716 -0.674825 0.234774
H 1.87162 12.3623 6.47157 -1.01799 0.833916 -0.088833
H 6.12217 0.11164 10.5605 -0.007208 -0.562906 0.182135
H 12.1115 5.45821 7.29462 0.770204 -0.392262 -0.56599
H 10.572 0.2251 5.65164 0.382603 -0.067446 -0.26743
H 6.42165 10.2937 2.14837 -1.189268 -1.259461 -0.236071
H 1.38177 1.01477 12.2191 -0.411976 -0.919158 -0.05574
H 7.25143 4.65904 1.4156 0.333818 -1.01799 -0.042569
H 2.12496 0.8506 4.23363 0.049844 -0.133107 0.102958
H 6.07365 10.7365 6.77991 1.143909 -0.137091 0.270744
H 6.84936 12.1387 8.39183 0.210855 1.539303 1.412777
H 5.2529 5.03775 8.02286 0.834159 0.134085 -0.0173
H 4.51945 10.3421 5.22955 -0.062083 0.414094 0.338258
H 10.6445 8.9822 8.70208 -0.455556 1.012077 -0.149309
H 10.9411 4.39555 9.6233 0.592566 -0.816158 -0.195989
H 11.4125 11.4321 6.06642 -0.068505 0.267252 -0.265113
H 10.9498 7.01432 6.15923 -0.324665 -0.65184 0.309655
H 2.9875 10.1723 1.33339 0.490413 -0.24799 -0.456603
H 2.95013 8.23992 4.06123 0.428144 0.763407 0.031036
H 2.18245 2.0219 1.91018 0.277394 -0.584865 2.614571
H 0.14824 7.95204 11.8162 1.198994 -0.224016 -1.956253
H 9.18834 6.2502 0.4313 -0.155916 -0.386143 0.161643
H 11.4133 0.11633 9.0653 -0.143247 -1.472928 -0.3671
H 7.69813 5.4875 2.74745 0.957418 -0.734202 1.644703
H 11.3689 7.58556 0.29415 0.633787 1.32135 0.089143
H 8.243 1.62188 9.40165 0.537207 -0.206701 0.267562
H 9.16969 11.983 2.12918 0.796698 -0.409575 0.205308
H 10.8257 11.1012 3.48302 0.482682 0.778946 1.343343
H 4.793 9.30973 3.43498 1.455434 -0.308618 -0.56514
H 0.71691 8.18985 4.45899 0.188258 0.724653 0.199324
H 6.42608 6.85814 1.2207 -0.271974 0.212775 -0.952346
H 3.43177 8.74793 11.6467 -0.209213 0.090207 -2.113053
H 7.26172 8.40951 10.1792 -0.086984 0.875905 0.126815
H 2.47337 8.19818 9.76743 -1.055352 -0.00243 0.148278
H 0.21683 2.01579 8.56628 0.225491 0.09156 -0.727806
H 0.33088 9.12191 6.20741 0.287046 0.324877 0.377248
H 8.28689 9.89783 6.70998 0.838654 -0.885459 0.221069
H 11.038 4.79067 1.51111 0.307131 -0.089735 1.810472
H 3.56614 10.1437 3.22625 -0.871915 0.06078 -0.125817
H 10.1165 6.44796 9.96981 -0.574011 -1.406076 0.372347
H 9.04504 9.26997 5.51536 0.384429 -0.055754 0.892045
H 10.1344 10.1075 2.63172 -0.776477 -0.819753 -0.348096
H 2.03173 7.3625 3.20427 0.133685 -0.293413 0.22147
H 3.02658 9.65176 9.6065 0.463274 -1.316978 0.827929
H 3.40367 5.3075 9.11241 -0.711597 -0.394226 -0.014383
H 6.87491 4.963 9.33833 -0.249192 -0.065868 0.352979
H 9.69189 7.50531 3.75742 1.253213 -1.418264 0.528642
H 10.4179 2.74022 5.59799 -0.507293 -0.269151 0.255854
H 0.11433 0.57081 10.1762 0.414867 -0.920197 1.111689
H 1.66386 10.7645 1.80745 -0.375231 0.024459 0.084349
H 10.1954 5.91944 7.00986 -1.53031 -0.846708 -0.290717
H 5.41705 12.32205 4.67615 -0.26186 3.367385 0.818729
H 5.96465 8.73058 1.76413 -0.015398 0.128036 -0.67907
H 3.82109 6.76064 9.24177 0.452648 -0.347765 -0.651952
H 7.63902 4.66023 5.16219 -0.44746 0.509843 1.525322
H 11.5913 8.09198 4.51795 -0.610165 -0.170351 -0.023543
H 11.4282 3.9208 5.69468 -0.291901 0.28645 -0.096474
O 10.9214 10.8118 7.85879 0.653386 1.316591 1.167451
O 0.71656 9.35732 7.13399 -0.905302 -0.127599 -0.832121
O 6.80117 0.53715 9.07542 0.100926 -1.56121 -1.450998
O 6.17795 2.168 7.04805 -0.162479 -0.027921 -0.701364
O 12.3071 8.72058 4.7275 0.517936 -0.252358 -0.028783
O 2.78056 0.8717 3.5158 0.090058 0.016272 -0.072362
O 10.5482 3.66677 5.35108 0.955853 0.298835 -0.527459
O 11.3686 12.1068 5.34754 -0.757263 -0.382938 0.345876
O 0.14177 10.7682 1.15201 -0.115742 0.204214 0.48948
O 6.0352 9.64505 9.55379 1.460053 2.299995 1.076788
O 11.017 4.36208 12.3053 -1.245669 0.576653 -0.734644
O 5.64722 11.8221 11.094 -0.623438 -0.317539 -2.145817
O 2.11825 6.91404 6.75905 -2.81681 -0.45139 1.218072
O 12.1175 8.24961 0.19935 -2.192825 -0.821942 1.889133
O 10.9197 6.53894 7.02168 0.940667 1.175761 -0.166158
O 1.77195 7.20014 1.61075 -0.726967 0.527335 0.120162
O 3.88888 5.98682 8.63291 0.078467 0.827278 0.626707
O 8.80364 8.57684 2.61699 1.53238 -0.658907 -0.603554
O 7.49775 7.87056 10.9529 0.094485 0.305866 -0.319948
O 2.23454 7.59061 4.15368 -0.684661 -0.774817 -0.07218
O 5.00965 1.68062 1.06382 -2.400672 1.004696 0.219538
O 10.464 11.0134 2.60632 -0.2113 -0.31601 -0.146343
O 2.90059 11.4976 10.2513 0.589856 -1.080843 -1.660028
O 11.6714 3.69814 9.51814 -1.253418 0.270382 0.854969
O 6.17999 4.71516 7.87702 -0.6625 -1.331281 -0.532203
O 7.2798 5.47788 1.91807 -1.329295 2.413306 -1.307139
O 5.86392 7.49708 0.67157 0.207167 0.087479 0.569628
O 6.91555 10.5693 7.35368 -0.703782 1.217021 -1.517461
O 9.15263 1.92875 9.63868 0.439749 -0.643374 -0.549193
O 0.99812 0.27361 11.6622 1.335221 2.725406 -1.653161
O 3.94955 9.49478 3.84782 -0.273273 0.214617 1.163747
O 2.62426 10.7237 2.03793 -0.0908 0.61119 0.037365
O 8.73128 4.84334 7.11994 -0.649687 -0.079301 0.502887
O 7.22534 5.38382 10.1749 0.639487 1.265863 -1.532636
O 8.11767 4.28332 4.45241 3.144462 -0.395815 -1.553534
O 2.67339 11.1538 7.39705 -0.375233 0.006499 -0.616882
O 9.87058 2.04896 12.3694 -1.097706 0.004268 -1.512354
O 0.47431 4.8717 7.00882 0.066169 0.332442 -0.395476
O 7.44986 2.18971 3.54512 -0.213615 -2.477979 -0.765195
O 4.78817 11.0521 5.88492 -0.346037 -0.467461 -0.215542
O 9.8526 5.49292 10.1896 -0.503403 1.710736 -0.531988
O 8.54672 0.27924 1.90369 -1.5654 0.377659 0.924695
O 3.50412 8.71922 0.18242 0.893851 -0.797593 2.723815
O 0.80925 7.73575 10.2021 0.70752 -0.921091 0.199739
O 10.3856 6.87647 4.20328 -1.907537 2.709648 0.841126
O 6.17641 9.36793 2.47569 1.044792 1.019579 0.910612
O 1.25271 4.68805 0.40348 0.09004 0.041599 -0.521565
O 11.2734 5.0015 2.49756 -0.295459 0.868889 -1.374823
O 9.15055 9.36598 6.49141 -1.608382 0.962134 -1.093172
O 2.09233 2.13153 0.99639 0.76103 -1.235343 -2.547738
O 10.7447 8.10232 9.04297 0.384775 -1.639198 0.302928
O 11.9005 0.80754 9.48493 -0.083451 2.408618 -0.866002
O 1.4511 5.12666 9.87113 0.835651 -0.021945 2.272919
O 1.2265 0.6724 6.14838 1.518924 0.055796 -0.078461
O 0.81914 2.50378 7.90218 0.171659 0.195984 -0.557858
O 3.28637 8.70689 9.86987 0.57018 1.467966 -0.706035
O 5.4469 1.00748 4.69749 -0.695432 -2.451059 -0.734821
O 9.17242 7.20384 0.32917 0.383859 0.424433 -1.093204
O 6.02572 11.7023 1.1899 -0.118683 2.016064 0.722026
N 9.80294 10.632 11.8691 0.776213 0.052867 -0.138287
N 5.73774 7.1349 5.12543 5.527728 -0.905923 -1.395268
N 4.38633 2.30552 10.6276 -0.674493 -0.29698 1.816988
N 4.22144 5.69373 1.90354 -0.142551 4.027084 -1.559543
N 4.07695 4.3115 5.70408 1.684082 2.785902 -2.046568
N 4.65515 2.51034 9.58806 0.373047 0.464194 -1.750965
N 4.2064 4.69747 2.31701 -0.079175 -4.220974 1.705521
N 6.83338 6.94667 4.84222 -5.563967 1.027434 1.438839
N 3.59226 3.5228 6.2655 -1.856046 -2.808528 1.949077
N 8.70837 10.5439 11.9352 -0.782686 -0.062896 0.050143
N 11.9039 2.18554 2.17149 -1.075954 1.767264 -0.343531
N 12.3454 1.21394 2.39875 0.603365 -2.059518 0.597019
Cl 8.91937 1.37661 6.4963 0.634111 -0.319671 -0.155344
Cl 7.25134 3.29673 0.0741 -0.075054 0.158319 -0.451737
193
energy=-1086.43711057 config_type=nep2xyz pbc="T T T" virial="-10.941970396208895 -3.677141427667855 8.715583703027956 -3.677141427667855 -2.1515581658209704 1.9178618203541993 8.715583703027956 1.9178618203541993 -9.342510623889574" Lattice="12.4 0.0 0.0 0.0 12.4 0.0 0.0 0.0 12.4" volume=1906.6240000000003 Properties=species:S:1:pos:R:3:force:R:3
H 2.48925 5.13337 12.1223 -0.254794 -0.613106 0.763135
H 3.97185 9.73741 6.4475 0.229597 0.037568 -0.501905
H 2.94935 8.20673 2.34765 -1.259532 -1.151286 0.856312
H 8.66635 5.4733 2.52748 -0.127323 1.114469 -0.26571
H 9.39403 4.13982 10.6994 -0.149017 -0.694116 0.983184
H 8.5628 0.2279 2.88125 -0.38423 0.502021 0.775011
H 9.2685 4.50509 7.01364 -0.035143 -0.578831 -0.108985
H 5.2794 8.18279 8.78047 -0.396467 -0.038126 -0.262393
H 6.08179 3.6071 6.11727 -1.174347 -0.000963 0.764242
H 10.3275 7.34327 10.1036 0.564476 0.370963 0.06151
H 0.92272 6.17753 5.38729 0.103393 -0.106672 0.886752
H 11.5871 7.01002 1.01786 1.738002 -1.529131 0.899206
H 7.92935 5.66218 7.73392 -0.362246 -0.068051 -0.064489
H 3.54169 1.71458 12.0588 0.322391 -0.314385 0.036499
H 9.1416 7.27783 3.94225 -0.371189 0.2133 -0.883447
H 4.01199 11.1282 11.1744 -0.122331 0.117652 -0.161503
H 5.32954 4.38421 0.72502 0.880592 0.594971 0.123947
H 3.40857 0.34642 2.47274 -0.286132 -0.702162 -0.206498
H 11.6384 10.3623 12.2034 0.174028 -0.14885 0.065984
H 5.38433 5.49275 9.26562 -0.564297 -0.86562 0.503516
H 0.0244 10.5991 7.1387 -0.195171 -0.269463 -0.364108
H 12.0596 10.0648 1.93774 -2.139036 0.540112 -2.952515
H 4.89835 8.11938 1.05963 -0.003819 -0.131365 0.31327
H 7.45493 10.0788 1.59887 -0.287879 0.214567 2.558401
H 9.54856 4.63635 8.64821 0.464297 -0.389905 0.354551
H 1.51961 8.67291 2.91001 -0.128677 0.032673 0.097234
H 5.76989 10.9366 6.6861 0.061416 0.099891 -0.463944
H 3.42247 9.36233 8.27416 -0.061834 0.312034 -0.76449
H 11.8056 1.73778 0.05669 0.528746 0.079562 0.166367
H 6.23891 4.14923 1.89016 0.464547 0.054708 0.518207
H 4.97069 11.5001 8.42409 -0.901186 -0.330189 0.665296
H 2.46729 8.23633 9.47078 -0.048394 -0.091093 0.338931
H 12.2033 0.37586 3.98239 0.627299 0.007268 -0.851002
H 11.8043 3.9608 10.2875 0.952972 0.194329 -0.27739
H 7.87587 7.61819 2.1446 1.321188 -0.484883 -0.173812
H 11.6615 8.9721 9.2345 -0.229688 -0.642313 -0.356222
H 8.35803 0.37079 0.6211 1.095706 -0.102956 0.704561
H 1.07211 5.50149 1.50043 -0.670268 0.20682 0.741479
H 1.88773 0.07781 2.82007 -0.049433 -0.121032 -0.070598
H 11.7078 4.69172 3.04309 0.712579 0.712588 -1.024639
H 8.43086 4.12236 3.15841 -0.21494 -0.540557 0.29566
H 4.93853 12.0423 10.2378 -0.134702 0.184227 0.274865
H 10.567 8.03352 4.84974 -0.44246 -0.513285 -0.760556
H 10.9509 1.72452 2.40467 0.196003 -0.263907 -1.331682
H 10.3609 4.69934 3.78111 0.099766 -0.150004 0.098931
H 7.69093 11.0309 12.3247 0.710004 0.048026 -0.730902
H 0.46469 10.762 3.00694 0.14575 1.02109 0.514061
H 8.58703 4.06038 0.67427 -0.021321 -0.887943 -0.994232
H 6.2924 0.79063 11.6384 0.574048 0.134932 -0.372515
H 6.25077 0.50654 2.74865 -0.518392 -0.371294 -0.030196
H 4.47078 5.17443 6.93057 0.050197 -0.276825 -0.160969
H 10.9074 9.23846 0.60177 -0.047069 -1.570901 -0.030014
H 0.81037 1.62602 10.564 -0.519782 -0.670359 1.129795
H 6.26638 6.48058 0.97089 0.31882 1.366364 -0.054514
H 9.28056 10.5808 12.2001 -2.224685 -0.68426 0.112562
H 10.4909 2.33935 0.48389 -1.004001 0.56394 -0.150396
H 3.05636 8.44626 6.33013 -0.514202 0.82091 -0.259301
H 1.05951 6.80789 2.36869 -0.101467 -0.611222 0.217868
H 10.4932 10.8798 8.89589 0.082332 0.103286 -0.465241
H 1.77367 6.78661 9.51792 -0.032664 -0.303883 -0.82333
H 6.23555 0.19965 0.59766 -0.466933 -0.193716 1.24543
H 4.81085 3.04784 5.57863 -0.23302 0.427147 0.527707
H 11.201 2.49554 3.63535 0.085375 0.946366 0.476488
H 6.17014 7.0165 8.05329 -0.136036 0.026611 0.055419
H 0.64465 11.7971 4.83701 0.271818 -0.11387 -0.527642
H 5.20202 0.50696 7.8163 -0.024561 0.089889 0.238943
H 0.64286 4.24956 11.1856 0.426109 -0.057514 -0.096943
H 8.90502 1.63094 5.97574 -0.243436 0.214976 0.05035
H 7.39279 9.12204 10.873 0.546817 -1.81237 0.646902
H 1.43174 1.39542 11.9589 -0.309043 -0.326684 -0.34942
H 6.7723 2.75552 4.10092 -0.451029 -0.292225 -0.216901
H 5.12712 11.7195 2.72173 0.170752 1.500027 -0.248988
H 1.33347 10.6577 11.2527 0.066861 -0.248898 0.188913
H 8.18687 0.24161 4.48088 0.346259 0.079246 -0.66626
H 3.23985 5.64093 7.74962 0.34266 0.100853 -0.389403
H 6.28062 9.56749 6.27869 0.99964 -1.130206 0.109908
H 4.93841 4.20709 10.1596 0.357668 -0.333319 -0.396198
H 8.25258 11.7821 8.38561 -0.201559 -0.535867 0.356169
H 10.1529 0.93181 5.51621 -0.205839 -0.388193 -0.199654
H 7.47053 11.068 2.93964 -0.288168 -0.67077 -0.38033
H 3.31629 9.66221 0.58151 -0.409068 0.446949 -0.970265
H 2.39162 7.37103 4.49492 -0.307733 -0.363888 2.171358
H 2.72845 1.07268 1.01069 0.326128 0.881231 -1.099478
H 8.84811 7.38079 10.7018 0.514863 -0.269413 0.401276
H 9.42333 7.40148 1.71825 0.647155 0.306308 -0.613546
H 12.0086 10.8574 9.37153 0.015791 0.177287 0.471803
H 5.34127 2.29541 3.45746 0.422322 -0.47588 -0.009096
H 10.5214 7.22235 12.2433 0.164306 -0.069082 -0.108167
H 7.84361 3.50683 11.7771 -0.462663 -0.137077 0.364576
H 10.0575 11.018 2.96084 -0.663627 -1.731943 1.610639
H 8.78688 11.6791 7.04475 0.700879 0.482484 -1.224089
H 4.79959 10.5131 4.35972 0.070077 -0.114234 0.434477
H 1.30297 10.0302 6.43953 0.493818 -0.097286 -0.081429
H 6.63001 7.57692 12.2932 0.525564 0.385117 -0.667939
H 3.65741 7.50792 0.38946 0.098488 0.232292 0.30817
H 10.0061 5.46038 10.3227 -0.028813 -0.381255 -0.082904
H 2.81951 7.01269 10.8871 1.080118 -0.501672 1.544798
H 4.13223 9.95366 9.59479 -0.162453 0.171299 -0.042895
H 0.29983 7.82975 9.63601 -0.888487 0.333082 -0.355906
H 8.64941 9.42805 7.17637 -0.075221 0.036613 -0.162668
H 12.2145 5.05001 4.98791 -0.120639 0.79756 1.240756
H 5.49497 10.1617 3.04736 -0.90031 -0.204277 0.461601
H 2.234 3.60693 0.15634 0.652996 -1.330871 0.11308
H 11.4785 7.38752 7.83908 -0.393323 -0.137934 0.061971
H 8.95481 9.94816 3.41409 1.126985 0.58395 0.150599
H 3.108 6.58902 5.84516 -0.919657 0.007128 0.050988
H 4.05187 6.01583 10.8917 0.145261 -0.011996 0.106264
H 1.12931 5.27823 7.61127 -0.04394 0.239018 -0.599075
H 7.19211 5.29522 6.48602 -0.199201 -0.125146 -0.414813
H 11.5685 9.21867 4.04017 0.094636 1.032882 -0.65402
H 10.3079 6.428 7.11198 0.617264 0.517743 0.652896
H 0.40306 11.8739 11.2348 0.240793 0.464625 -0.243726
H 2.63589 10.9834 0.93867 0.098526 0.296429 -0.489051
H 7.8396 8.11659 7.37983 0.358996 0.442905 -0.606775
H 9.94803 0.09855 0.76707 0.379108 0.024038 -0.222369
H 6.76979 7.95981 10.0607 -0.220021 -0.721346 -0.86838
H 1.06889 4.60556 9.00041 0.683488 0.718647 0.302608
H 8.98749 7.72536 5.48524 -0.411274 0.081301 0.227942
H 11.8631 8.7669 5.60981 0.167408 0.811507 -0.909715
H 11.7559 6.34703 6.3688 0.344353 0.394277 0.013836
O 11.3941 10.6031 8.65662 0.243261 -0.116773 0.198845
O 11.747 7.9789 9.28174 0.420828 0.41581 0.125147
O 7.82944 0.25539 3.56345 0.220661 -0.33249 -0.317515
O 5.11497 3.50935 6.3861 1.525583 -0.277636 -1.0835
O 0.37595 10.2666 6.2832 -0.19653 0.334013 0.320889
O 5.40294 0.24002 2.31318 -0.09415 -0.403716 0.226677
O 11.0747 7.07983 6.95271 -0.188562 -0.872227 -0.021859
O 9.30317 0.74281 5.94644 0.096813 0.096383 -0.220592
O 0.21355 9.91285 2.65001 2.153777 -1.743899 2.720104
O 6.15631 7.75365 8.70512 -0.09557 0.000997 -0.637627
O 11.2717 4.36598 3.82509 -0.284174 -0.393488 0.926365
O 5.61435 12.0552 8.01028 1.021972 0.32625 -1.057057
O 1.76338 7.68212 9.91258 0.427585 -0.149961 0.066203
O 9.76749 6.95877 10.8056 -1.036456 0.304736 -0.399819
O 7.24104 10.1387 2.61639 0.460005 0.28276 -2.100041
O 2.12734 7.90316 2.94851 1.298817 1.065435 -0.649459
O 1.59987 5.26847 8.45128 -0.376156 -0.289366 0.195508
O 8.78724 7.29961 2.43441 -2.054807 0.127213 0.225048
O 10.0214 4.48776 10.055 0.41929 0.51741 0.182399
O 2.27878 7.08326 5.53328 0.925605 0.536425 -2.778683
O 6.83643 0.22437 12.2469 -0.189111 0.157513 -0.363923
O 9.84001 10.3331 3.69233 -0.450899 1.195263 -1.932497
O 4.35828 11.2616 10.2574 -0.011972 0.237662 0.824467
O 8.80468 11.1831 7.85961 -0.562984 -0.194897 0.923997
O 3.91677 5.95783 7.09947 -0.058108 -0.06952 0.479294
O 5.98525 3.00077 3.57488 -0.210582 0.704746 -0.317221
O 6.43225 7.48336 0.83665 -0.53843 -1.812258 1.218681
O 3.85683 9.13504 9.10914 -0.010438 -1.149785 0.157333
O 8.7011 3.5307 12.2106 0.259671 0.660958 0.716423
O 0.6316 1.10337 11.3959 0.574161 1.043508 -0.428475
O 4.59996 10.4632 3.41638 1.230373 -0.426013 -0.993467
O 2.88354 10.4723 0.13463 0.516618 -0.687781 0.95872
O 9.60561 5.03665 7.74753 -0.262718 1.352356 -1.178386
O 7.01764 5.69254 7.34869 0.373225 0.466163 0.648201
O 9.53612 7.25304 4.82847 0.238509 -0.456608 1.09217
O 3.0551 9.42693 6.53789 0.00257 -0.576457 0.542576
O 11.3649 2.16745 0.82307 0.203045 -0.288904 -0.383761
O 0.41122 3.98703 10.2712 -1.832588 -0.421778 0.654276
O 8.59037 4.54389 2.30694 0.487393 -0.457293 -0.048626
O 5.73117 10.2641 5.95598 -0.956662 1.220107 0.479084
O 1.9505 4.50084 0.2901 -0.350208 2.188705 -0.826013
O 10.9934 1.6079 3.35168 -0.11802 -1.044716 1.513907
O 3.90743 8.15828 1.11435 0.035966 0.248808 -0.434469
O 11.0298 10.1842 0.55404 -0.15719 1.945244 -0.52169
O 11.4955 8.54299 4.71853 1.228716 -1.132154 1.726158
O 7.3331 8.10487 10.8398 0.528685 2.17595 0.645109
O 0.50236 5.9997 2.16117 0.541487 -0.13603 -1.135605
O 0.1949 5.59702 5.78848 -0.233152 -0.511949 -1.69469
O 8.36391 8.61755 6.70686 -0.829213 -0.278906 1.062927
O 2.81951 1.82032 0.2996 -0.818395 -0.349855 0.657632
O 4.66 5.053 9.77153 0.390624 0.896402 -0.224525
O 0.441 10.9277 10.9686 -0.192068 -0.326437 0.006341
O 6.18865 4.70946 1.09918 -1.731567 -0.560951 -0.72803
O 0.62979 12.2117 3.94165 -1.164403 0.225775 1.094893
O 2.56329 12.3821 2.10782 0.595494 0.773059 0.492646
O 3.49291 6.54836 11.5247 -1.374714 0.292571 -1.14864
O 9.13112 0.16648 1.2549 -1.508398 0.32081 -0.29804
O 10.9129 7.56057 0.68284 -2.019335 1.358958 -0.512354
O 8.29637 10.3058 12.0444 1.345673 0.446047 0.428088
N 10.1198 1.38866 9.41768 -1.755401 0.191246 -1.507999
N 6.41404 6.89736 4.56856 1.898266 -1.399605 0.234615
N 2.37864 1.75501 8.10151 -0.462252 0.318243 2.05503
N 2.76619 4.08404 3.72403 -2.071054 -0.552962 4.430213
N 3.38188 1.27772 5.37742 0.283238 0.101203 -0.297748
N 2.11013 1.88269 9.17815 0.671289 -0.205806 -2.208276
N 2.28421 3.95107 4.74935 2.155124 0.520385 -4.537639
N 5.54087 7.53515 4.42657 -1.994239 1.345541 -0.291484
N 2.67778 0.43823 5.49701 0.085007 -0.317732 0.241785
N 9.2622 1.46484 8.70041 1.79061 0.043859 1.737504
N 12.2481 2.18769 6.0965 -1.135498 1.780582 1.01909
N 11.7011 3.05339 6.55125 1.179698 -1.938323 -0.845601
Cl 8.2464 3.69966 5.35152 0.206989 -0.221349 0.020813
Cl 5.14825 1.98454 10.4193 0.032121 -0.023655 0.284493
193
energy=-1086.6269549 config_type=nep2xyz pbc="T T T" virial="-3.8779098890371335 4.645640107564645 4.510977318823328 4.645640107564645 -6.276837742872044 3.965566843956587 4.510977318823328 3.965566843956587 -8.774668251110375" Lattice="12.4 0.0 0.0 0.0 12.4 0.0 0.0 0.0 12.4" volume=1906.6240000000003 Properties=species:S:1:pos:R:3:force:R:3
H 8.83891 1.56898 9.0956 0.034404 0.101466 0.11024
H 6.73499 11.1543 7.91559 -0.00358 -0.07131 -0.845595
H 1.9299 6.18496 0.46191 0.38113 -0.500218 0.900983
H 9.39572 4.07191 8.23916 0.898727 0.212729 -0.763653
H 6.88412 7.07332 10.6051 -0.035046 -0.47473 -0.448498
H 9.60551 2.66448 6.53466 0.004805 -0.926187 -0.091872
H 6.94796 5.36201 9.13483 0.503693 -0.558758 0.390452
H 4.09606 8.84237 8.98389 -0.523625 -0.651589 -0.290899
H 5.04011 2.02384 7.12173 -0.312609 0.075837 -0.101763
H 1.4041 11.4095 7.62102 -0.196833 -0.366857 0.577347
H 12.35829 7.24645 2.77389 -0.781024 0.478529 -0.504706
H 5.13871 8.4937 0.91996 -0.053042 0.010386 -0.268179
H 6.96301 2.56826 11.5719 -0.320986 -0.339074 -0.018734
H 2.98219 1.33323 1.39515 0.474164 0.113227 0.4116
H 11.9075 0.55477 2.92346 2.453459 1.276148 1.186898
H 3.56533 10.6817 10.4429 -0.350195 -0.15452 -0.195901
H 2.52617 4.04693 9.71377 0.661866 -0.681384 -1.098026
H 1.39159 0.13204 3.67906 0.46333 -0.174099 0.208055
H 0.006 10.5512 9.621 0.058931 -0.234972 -1.250376
H 8.97563 3.0556 10.4312 -0.513198 0.422907 0.042955
H 10.6691 6.62373 9.10358 0.544978 -0.629631 0.221754
H 11.4624 10.2534 4.74477 -0.427772 0.660541 -0.49424
H 3.2976 7.78743 12.03 0.865127 0.400099 0.003029
H 9.46336 8.17126 7.62685 -0.376048 -0.296439 -0.144446
H 7.66135 4.9585 10.5189 -0.191868 -0.937341 0.347767
H 1.35203 4.8818 0.32172 -1.282082 -2.062827 -1.944304
H 5.42456 10.5753 5.99979 -1.293464 0.233016 -0.747789
H 3.95653 7.9687 6.7966 0.509681 -0.313561 0.644842
H 9.80419 9.6941 10.2872 -0.304252 0.39325 0.505802
H 3.09902 3.18281 8.45799 -0.208131 -0.817884 -0.449877
H 5.89369 12.1643 0.55958 0.502412 -0.470406 -0.221541
H 12.2819 5.41332 8.3674 -0.204421 -0.197949 -0.107445
H 0.66303 3.04965 6.10436 0.311441 -0.25102 -0.030449
H 11.4395 4.53578 6.75122 1.889486 -0.175348 0.107543
H 10.4196 0.6416 2.53936 0.777322 -1.076895 -0.982315
H 9.00788 6.42356 9.51223 0.418066 0.095059 -0.37818
H 5.67222 0.8419 3.62025 1.342322 0.733876 -0.245325
H 0.66737 4.80123 10.423 -0.683057 0.73264 -0.431176
H 1.07608 1.52051 4.61818 -0.389743 -1.524673 -1.041879
H 12.233 1.81768 9.60191 -0.330754 -0.109715 0.59501
H 9.51301 5.30001 7.21962 -0.133397 -0.773102 0.030522
H 4.98979 10.6454 9.81711 -0.657644 -0.441361 -0.493204
H 9.50751 9.60416 4.25932 0.802745 0.543988 -0.342117
H 9.18786 11.6987 9.00915 0.860115 -0.800987 0.329174
H 12.0181 1.43267 11.1737 -0.326301 0.093744 -0.545451
H 7.82534 11.6649 2.84701 -0.028468 -0.393222 -0.574241
H 11.109 11.4302 3.55855 0.054356 -0.377696 -0.130339
H 9.34399 8.84532 11.748 0.224715 0.542401 -0.306166
H 6.70994 2.25837 1.19172 0.381861 1.065359 1.109336
H 2.38103 10.2293 3.18297 -0.128816 0.684092 0.277209
H 6.30591 3.74957 7.67855 -0.247297 -0.41504 0.074445
H 0.1295 9.73031 11.0047 -0.063639 0.430412 -0.334521
H 9.5009 11.828 11.8603 0.653831 -0.212537 0.539731
H 6.48671 8.15511 2.75778 -0.603471 0.245362 -0.365808
H 7.73969 10.2912 3.51573 0.211283 0.009238 -0.810548
H 9.76407 10.4488 8.21693 0.04331 -0.182741 0.751872
H 6.31687 0.0893 7.15069 0.184778 -0.566181 -0.419122
H 0.73302 3.40619 10.9932 -0.042913 -0.044362 -0.205094
H 3.30229 0.96385 7.43452 -0.150947 0.049847 -0.343923
H 0.43843 6.59696 9.14037 0.500077 -0.068414 0.126094
H 5.33944 1.54849 0.92335 0.597494 0.27416 -0.177186
H 6.18056 2.07159 6.06367 0.104242 0.027372 -0.200921
H 8.62993 1.72946 1.82089 0.060589 0.089464 0.163317
H 4.86315 7.59679 9.27842 0.248908 -0.662448 0.2098
H 0.63654 1.72992 6.84624 -0.659 -0.683734 0.383565
H 6.76347 11.1452 12.1398 -1.140776 0.281304 1.040925
H 0.26913 5.45191 6.38376 0.597241 1.586541 -0.849417
H 11.0192 1.04045 7.77917 -0.275185 0.514496 -0.541834
H 9.13397 11.5819 4.79797 0.161123 -0.132712 0.060704
H 3.48669 0.12837 0.46453 -0.426965 -0.756228 -0.953999
H 8.51534 9.82258 1.11134 -0.178245 -0.207703 0.367575
H 1.75658 11.0287 2.0592 -0.194894 0.081905 0.009321
H 3.31178 8.13692 5.38389 0.415836 0.200039 -1.059798
H 9.34974 1.19468 5.83488 0.128759 0.625127 1.004282
H 5.19624 4.22256 8.72794 0.568214 0.175749 -0.867291
H 3.89411 10.1113 5.4133 1.832299 0.735164 0.002995
H 10.4158 2.58824 10.1239 -0.48605 1.242503 -0.94608
H 2.84377 2.22827 6.54816 -0.439825 -0.280559 0.015382
H 12.2364 0.12782 8.10345 0.103397 -0.110216 -0.07961
H 6.78838 9.13974 9.79591 -0.394562 -0.237163 -0.30207
H 1.53767 8.54341 0.33925 -0.532434 1.490951 0.562431
H 1.59081 7.31113 5.85206 0.483206 -0.268346 0.807286
H 4.35734 0.23265 2.29349 0.408594 1.489215 0.879684
H 10.4576 8.52054 1.89701 0.548079 0.137068 -0.205671
H 4.81032 9.65867 12.3885 0.15769 -0.829087 -0.165235
H 3.71009 11.4085 6.77643 0.750195 -0.315309 -0.664807
H 8.36432 8.25148 1.1277 -0.743504 -0.844829 0.912439
H 11.3417 9.30495 2.8774 -0.055592 -0.121761 -0.101528
H 9.82666 7.96191 10.0104 -0.27122 -0.244438 0.511588
H 8.51344 0.51274 0.88449 0.291519 -0.257458 0.236185
H 11.2761 12.2852 0.68144 -0.068804 0.2926 -2.353023
H 4.02697 8.62455 3.21681 0.771923 0.306651 -0.059586
H 0.18051 8.39397 5.94196 0.451395 -0.804259 -0.42956
H 6.09346 9.68027 2.3467 -0.057725 -0.641958 0.163456
H 2.25082 7.30201 10.9316 8.2e-05 -0.430995 -0.737144
H 5.85426 8.07398 11.235 -0.856113 0.348902 1.132199
H 1.67117 11.2523 10.9791 0.507519 -0.141745 0.909953
H 3.53829 11.4067 8.39237 0.042619 -0.193189 -0.814151
H 0.13999 10.5653 7.27332 0.167223 -0.210907 0.340823
H 6.96679 2.3624 3.37583 0.440962 0.735627 -0.295911
H 1.18133 6.22413 2.3913 -1.026208 2.15633 0.96646
H 2.56657 8.17382 3.27072 -0.898936 -0.451753 -0.12383
H 7.73757 0.93114 8.27662 -0.427902 0.136629 -0.725398
H 7.57301 1.08681 4.24267 -1.239875 0.545179 -0.542751
H 11.4979 11.6407 11.5297 0.491625 -0.142927 0.20357
H 0.78927 6.71755 4.73847 -0.301677 0.065792 -1.311155
H 2.23546 10.606 12.2842 -0.279519 0.204273 -0.516681
H 2.43319 5.76374 9.29504 -0.64373 1.075267 -0.353111
H 7.68988 3.59617 0.01054 0.143805 0.140292 -0.052874
H 9.23234 9.08595 6.25016 -0.705633 -0.828259 -0.402866
H 2.23866 3.66008 1.83697 -0.332936 -0.150717 0.044398
H 8.4211 12.2781 11.0129 -0.762942 0.151492 -0.489384
H 0.4011 9.20048 1.30491 0.330479 -0.035514 -0.437293
H 7.78051 10.2618 9.6339 2.212919 0.866274 0.566226
H 4.65487 11.9639 3.73063 -0.032861 -1.028164 1.413567
H 7.83607 11.631 5.75207 0.448621 0.595443 -0.305573
H 2.8396 7.25979 8.90022 -1.165373 -0.975887 0.872237
H 8.64205 8.32804 4.14797 -0.444936 -0.896621 -0.344946
H 11.179 8.8978 6.24448 0.153393 0.313294 0.580696
H 1.3907 2.42912 2.55084 1.112986 0.378635 -0.329191
O 9.76553 7.05028 9.21182 -1.132645 0.6102 0.351219
O 0.54003 11.1022 8.00747 0.360326 -0.2049 -1.17651
O 9.65174 1.68071 6.64701 -0.282021 0.26707 -0.67562
O 6.0277 2.00432 7.01809 0.473915 -0.456565 -0.050029
O 12.0926 9.21574 6.06712 -1.005077 1.801449 0.005359
O 1.99988 11.1321 2.99025 0.467479 -1.044323 -0.228534
O 2.23516 2.72736 2.11257 -0.470363 -0.688498 0.011174
O 11.9618 1.07237 8.00372 0.248398 0.063614 0.780932
O 10.7883 10.6607 4.1132 0.53137 -0.698885 0.8355
O 4.10042 7.86432 8.73274 0.759073 1.731895 0.045425
O 12.0401 2.17538 10.5176 0.227201 -0.48477 -0.055833
O 5.91384 11.2277 0.27308 0.60111 -0.151457 -0.947499
O 12.0604 5.99392 9.12785 -0.619075 -0.174793 -0.204019
O 11.3976 8.6044 2.18977 -1.013204 0.419295 0.248496
O 6.92671 10.0196 9.36118 -1.947384 -0.233515 -0.439014
O 1.71155 5.36774 1.02423 1.019851 2.440821 1.252938
O 2.02553 6.677 9.30936 1.891001 0.160408 -0.334659
O 11.2588 0.09318 2.42654 -2.487922 -0.182111 -0.663299
O 6.20401 7.73797 10.4065 0.684156 0.051867 -0.813186
O 0.69318 6.98456 5.65827 0.483911 -0.506253 0.606547
O 6.30284 1.5433 0.70687 -1.399737 -0.992167 -0.802819
O 11.1684 0.00948 12.0362 -0.291987 -0.023725 2.327133
O 4.04553 10.4073 9.60376 1.254579 0.715367 0.864403
O 3.42567 1.93997 7.269 0.624958 0.344296 0.407903
O 5.99117 4.50183 8.2011 -0.73113 0.596101 0.902589
O 8.9041 8.97616 0.82075 0.802725 0.597777 -0.93132
O 5.70985 8.7769 2.47925 0.343899 0.152866 0.032566
O 3.13873 7.98346 6.30929 -1.062771 0.246627 0.04765
O 9.82484 8.87181 10.8456 0.32732 -0.791473 -0.848389
O 8.54432 11.6515 11.7362 0.043874 0.395789 -0.220983
O 3.1882 8.77861 3.68772 0.070189 0.003253 0.039733
O 1.17222 9.43285 0.72397 0.199644 -1.352632 -0.39823
O 7.6567 5.61103 9.8207 0.263072 1.235183 -0.655178
O 7.58659 3.2958 11.4803 0.439039 0.580423 0.363233
O 8.7958 9.12086 4.68848 -0.801305 0.185947 0.520389
O 6.65588 11.5604 7.00657 -0.29337 0.299629 1.269771
O 9.76591 10.8636 9.12264 -0.917481 0.969025 -1.190148
O 0.06675 4.59244 6.72294 -2.410478 -1.616438 1.125375
O 9.75744 4.3596 7.34286 -0.661022 0.633116 0.5932
O 4.6289 10.8058 5.42236 -0.720867 -1.066911 0.3683
O 8.24866 0.78248 9.06587 0.569571 -0.306846 0.84303
O 8.96795 0.82047 1.6949 -0.922099 0.710702 -0.042497
O 2.40991 7.44019 11.882 -0.845486 -0.063049 0.70658
O 0.06728 10.6025 10.5689 0.22043 -0.192379 1.69663
O 9.68616 8.94533 7.10367 0.969057 1.148245 0.677662
O 8.37888 12.1266 5.07462 -0.112915 -0.114004 0.160193
O 1.23868 4.25149 10.9558 0.720277 -0.525359 0.397482
O 0.88256 7.08241 2.94679 2.458385 -2.960605 -0.418793
O 6.74524 1.56569 3.91197 1.468257 -0.953946 1.779492
O 3.7092 0.6526 1.2273 -0.290573 0.809909 0.078514
O 9.63047 3.11253 9.7093 0.90606 -1.709609 0.756193
O 3.25637 11.8131 7.51843 -1.071598 0.413402 1.533729
O 3.09727 4.0465 8.87418 -0.328884 1.379371 2.004514
O 1.00805 2.11803 6.04192 0.414007 1.547949 -0.507807
O 0.92969 0.98117 3.73808 -0.517907 1.704754 0.796547
O 2.48583 11.2472 11.5707 -0.175304 -0.107062 -0.107094
O 4.82536 0.39492 3.30906 -2.701831 -1.533267 -1.736368
O 4.79007 8.66056 12.38755 0.060068 0.981277 0.730315
O 7.69924 10.7189 2.62036 -0.127566 0.324224 1.144564
N 10.8353 4.8078 11.6425 0.806448 -0.261541 -0.023946
N 7.39516 7.36526 6.96825 -2.157265 0.808993 -0.302599
N 5.38135 1.83459 9.93604 -1.770907 -2.020883 1.211799
N 4.07118 4.19731 12.2639 1.852352 2.288303 -1.331532
N 4.99051 4.7429 5.34166 -2.402532 0.976857 -1.134661
N 4.72174 1.05325 10.4034 1.658415 1.97341 -1.244163
N 4.66937 5.03284 11.8032 -1.681905 -2.33999 1.28003
N 6.40885 7.86985 6.81421 2.006824 -0.984806 0.178273
N 4.02868 5.14927 4.92748 2.399796 -0.990628 1.027074
N 9.86452 5.20697 11.9665 -0.86561 0.496666 0.335542
N 11.37 3.60905 3.40475 0.494158 -0.607823 -1.560026
N 11.0853 3.98717 4.39148 -0.666722 0.566548 1.271254
Cl 7.83724 6.75272 2.88935 0.240873 1.533855 0.133657
Cl 7.59574 3.9057 2.42195 -0.012426 -1.535244 -0.844301
193
energy=-1087.49397257 config_type=nep2xyz pbc="T T T" virial="-11.381195287482601 -3.0248789573868082 -1.3590993086398306 -3.0248789573868082 -6.642614531272703 -3.3222533324183363 -1.3590993086398306 -3.3222533324183363 -5.818215507514886" Lattice="12.4 0.0 0.0 0.0 12.4 0.0 0.0 0.0 12.4" volume=1906.6240000000003 Properties=species:S:1:pos:R:3:force:R:3
H 1.87514 6.31172 1.28773 0.078112 0.819995 0.351829
H 3.94797 9.69655 6.69583 0.448616 -0.115271 -0.357128
H 3.2176 7.91805 2.42026 -0.257006 0.401196 -0.208458
H 8.67461 2.95232 3.71208 0.038243 1.212723 -0.08176
H 9.87416 4.48322 11.4471 -0.19504 1.204329 -0.972532
H 8.61947 12.2747 3.86172 -0.043577 0.181802 -0.385863
H 8.99335 4.58137 7.45253 0.340186 1.098972 0.543222
H 4.65569 7.98437 8.19227 1.716081 -1.186222 -0.644868
H 6.64255 3.16163 5.66583 -0.089287 0.193865 -0.591308
H 10.2185 8.00443 10.2885 0.733092 0.469349 -0.508577
H 1.39787 6.29259 6.11429 -0.002339 0.312798 -0.246949
H 0.1756 7.26798 12.3876 -0.759482 0.323362 0.141384
H 7.83781 5.83749 8.99471 -0.1477 0.376353 -0.329787
H 3.48608 3.207 12.1203 0.320852 -0.418464 -0.063449
H 9.24826 6.74773 4.44817 1.803586 -0.004024 0.782628
H 3.72902 8.92264 0.62754 0.254235 -0.569461 0.347785
H 5.00356 5.49415 0.55621 0.246317 -0.461377 -1.455594
H 2.98471 1.12407 2.50332 0.195646 -0.194494 -0.07796
H 11.1067 11.4149 11.8359 -0.961312 -0.646954 0.498405
H 4.75734 5.48778 10.9216 0.056297 -0.339819 -0.174155
H 0.32341 10.4239 7.57541 -0.28987 -0.048209 -0.621642
H 12.3434 9.02495 1.22811 0.49316 0.577672 0.185426
H 5.46384 8.92464 2.04612 0.567173 1.1273 0.345503
H 4.92232 11.6654 10.9254 -0.217456 0.113809 -0.283596
H 9.47205 4.82336 8.97843 -0.240459 1.146392 -1.051287
H 1.61243 8.19685 2.14956 1.648537 -0.813761 0.38992
H 6.08532 11.2922 5.71489 0.344873 0.217446 0.214582
H 4.92357 9.72975 9.60904 0.366406 0.707309 -0.515048
H 11.7774 2.13214 0.34309 0.435652 0.135273 -0.632605
H 5.19664 5.00686 1.99853 0.053924 -0.641332 0.380809
H 6.05932 0.06518 7.08576 -0.186914 -0.299467 1.360195
H 1.91048 6.71488 10.8352 -0.051956 0.128681 -0.008979
H 12.3254 0.43223 5.00476 -0.148288 -0.159119 -0.159744
H 11.9732 4.90279 10.5423 -0.533478 0.088644 -0.211692
H 8.6387 6.31126 2.11789 0.034523 0.445457 0.7719
H 11.8196 9.11732 9.14944 0.011344 0.829692 -0.07672
H 8.09921 0.73961 0.2116 0.291018 0.141088 0.010772
H 11.4551 3.77461 1.7248 -0.284214 0.975256 0.356945
H 1.48653 1.54199 2.74666 -0.200859 -0.166179 0.1011
H 11.8186 4.42569 3.78287 0.166483 0.068483 0.729921
H 8.61628 4.50838 3.03381 0.125245 -1.487568 0.807703
H 2.88627 10.0863 0.22992 -0.683246 0.933626 -0.038679
H 10.4794 7.69489 5.19692 -0.188863 0.166529 0.043213
H 12.0522 1.69208 2.88383 0.066131 -0.093421 0.423728
H 11.3011 3.76414 5.08885 -2.056572 -0.566923 1.029588
H 7.17066 11.7288 10.8451 0.6066 0.075276 -0.200679
H 0.031 10.0417 2.50201 1.076515 -0.86996 -2.448771
H 8.97289 3.82842 1.2219 -0.469839 0.386281 0.087601
H 4.35383 2.47814 10.013 0.555974 -0.080476 1.147931
H 5.50164 12.3158 2.46251 -0.680743 0.686868 -0.871046
H 4.55362 6.13037 7.0105 0.377898 -0.908692 -0.279065
H 10.7137 11.1413 0.89868 -0.6632 -0.369194 -0.767766
H 0.40146 3.10102 10.9226 -0.261891 0.820019 -0.654619
H 6.77745 6.45994 1.22536 0.766785 -0.103488 -0.673333
H 8.74578 11.6208 11.3198 -0.22599 -0.247031 0.16448
H 10.3675 1.86527 1.01395 0.56531 -0.014977 0.134611
H 2.96935 8.43886 6.66308 0.666715 1.342618 0.22673
H 12.2775 5.13966 1.79552 -0.130357 0.206848 -0.340223
H 10.6648 10.8187 8.46927 1.441248 0.006608 0.759533
H 2.05425 8.11299 11.4546 -0.200958 0.231303 0.099652
H 4.80635 1.55833 11.1524 -0.142069 -1.47406 0.231518
H 5.29642 3.32155 4.76557 0.841236 0.01019 -0.256999
H 0.00715 2.69549 4.01394 0.304757 -0.051959 0.459151
H 5.95676 6.97009 8.49305 -0.158395 -0.091882 0.32296
H 0.07468 11.473 5.84696 0.531254 -0.617569 0.323231
H 5.87129 1.26874 6.16431 -0.079795 0.403374 -0.143313
H 0.8299 5.01435 11.4348 -0.196054 0.003658 -1.607109
H 9.13334 0.88003 5.82497 -0.387334 0.29859 0.279079
H 7.44874 10.0112 11.8278 0.09561 -0.92636 0.026404
H 1.25275 2.45816 11.9386 0.99658 -0.001936 0.575701
H 6.61609 3.35315 2.50074 -0.19098 0.676204 0.703891
H 5.20068 0.62751 1.06724 -0.033616 -0.574367 -0.802256
H 0.73799 11.9621 11.2094 1.055394 -0.430304 0.63266
H 8.41909 0.53038 2.3821 0.464353 -0.93678 0.444921
H 4.88891 4.69575 6.26631 0.149947 -0.036332 0.086735
H 6.76941 9.85543 5.99395 -1.268123 0.791752 -0.564479
H 5.62622 4.1613 11.1036 -0.345906 0.443362 0.295863
H 8.44906 11.1429 8.59739 0.706631 -0.714581 -1.335221
H 10.3176 12.3587 5.89556 2.275509 -0.227786 -0.312911
H 3.47787 11.8734 11.6876 2.026211 0.828157 -0.422675
H 1.18407 11.1859 0.69645 0.670443 -0.027553 -0.314139
H 2.54167 7.03652 4.36832 -0.402201 0.626212 -0.535717
H 2.76358 2.57328 1.02269 0.073084 -0.093809 -0.292837
H 8.90386 8.03174 11.0375 -2.278285 0.966541 0.377741
H 10.0275 5.75463 2.35215 -0.026562 0.227335 1.309664
H 11.7411 11.4695 9.56478 0.238088 -0.185881 -0.139814
H 5.29567 2.70356 2.47825 -1.05203 -1.681106 -0.457194
H 11.034 7.61942 12.2822 -0.149091 0.200576 -0.134462
H 8.04119 4.74111 0.26212 0.203109 0.302858 0.314082
H 9.84878 10.9815 3.12656 1.663293 -0.410736 -0.498945
H 9.08911 11.3805 7.15063 -0.260904 -0.086819 0.022538
H 6.1497 10.5083 3.78728 -0.259934 -0.403917 1.298952
H 1.6264 10.1022 6.74743 -1.259033 -0.187962 -0.220926
H 7.74166 7.51103 0.54721 -0.064236 -0.154407 -0.20884
H 5.01366 7.46804 1.83084 -0.435364 -0.326707 -0.021947
H 10.155 5.95505 10.7012 -0.733356 -0.77468 0.596801
H 2.92295 5.231 9.65967 0.89534 0.899733 0.327445
H 4.33678 9.14888 10.8903 -0.540261 -0.074385 0.131915
H 0.36158 8.06306 9.91156 -0.693927 -0.529309 -0.445523
H 8.1241 8.94367 7.3576 -0.213973 -0.85166 -1.005304
H 0.51295 5.0152 5.90128 -0.527573 -0.505367 -0.750655
H 6.89962 11.4001 2.79178 0.535156 -0.95495 -0.011723
H 1.89763 4.82082 1.0564 -0.277464 0.140736 -0.616448
H 11.3298 7.42187 8.31878 0.949585 -0.124574 -0.810105
H 11.1547 11.4003 3.89839 -0.031829 -1.254832 -0.690735
H 3.30364 6.43158 5.52153 0.554119 -0.375716 0.503927
H 3.60943 6.72895 9.81168 0.286514 0.746799 -0.620687
H 2.66507 4.54251 7.8494 0.512844 0.425656 -1.260947
H 6.67532 5.63365 10.0391 0.045446 0.97506 -0.148423
H 11.0258 9.41687 4.17002 0.29081 0.137971 -0.023696
H 10.3606 6.26034 7.72608 0.178643 -0.09288 -0.826411
H 12.31958 0.7468 10.908 -0.019037 2.425582 0.284531
H 2.07392 0.05977 0.92262 -0.484509 -0.481413 -0.765069
H 6.96816 7.85225 6.96499 1.071689 0.809107 -0.264508
H 8.23335 2.31412 0.42118 -0.168709 0.470023 -0.255904
H 6.65782 8.72565 11.2978 -1.099427 -0.186608 -0.961273
H 1.36195 4.91767 8.7092 1.02557 -0.784737 -0.211793
H 8.88758 7.47198 5.81664 1.038955 0.104433 0.573459
H 11.9628 9.38688 5.42021 0.450088 0.095876 0.712384
H 11.9251 6.45869 7.04188 0.176615 -0.354322 -0.346419
O 11.6238 10.7834 8.8606 -1.848033 -0.577401 -1.218868
O 11.9747 8.16093 9.26241 0.567336 0.15017 1.312655
O 8.53538 12.0735 2.89998 -0.467474 1.174643 0.20476
O 5.66958 3.22265 5.65582 -0.336815 -0.225904 0.702928
O 0.62334 10.2255 6.63994 1.760383 -0.006371 1.224348
O 5.19698 0.76404 2.01009 0.017519 -0.131063 1.54862
O 11.0886 6.91233 7.42146 -1.20495 0.192263 1.705337
O 9.38243 12.3405 5.80397 -2.309783 -0.099952 -0.10514
O 0.55843 9.71965 1.65596 -1.709169 0.078452 1.77935
O 5.32497 7.31321 7.79771 -1.284155 1.374346 0.141203
O 12.0891 4.10138 4.71194 1.140234 0.65177 -2.003243
O 6.41737 0.48739 6.31327 0.22234 0.183903 -0.998378
O 1.38629 7.51665 11.0485 0.313735 0.222509 -0.077672
O 9.75212 7.64398 11.0376 1.775339 -1.328828 0.086054
O 4.40444 12.27 11.4865 -2.091634 -0.493926 1.371241
O 2.34525 7.4954 2.30635 -1.998633 0.647551 0.313386
O 2.23517 4.44401 8.68925 -1.15271 0.032442 0.835939
O 9.25264 6.09664 2.90645 -0.13157 -0.468377 -1.765438
O 10.1282 4.96446 10.5863 0.605243 -0.405893 0.362578
O 2.68133 7.15788 5.31787 -0.184014 -0.298967 0.053832
O 4.76712 2.48041 10.9154 -0.449055 1.743081 -1.292127
O 10.8322 10.7033 3.21142 -1.499904 1.834463 0.826979
O 3.15709 9.23021 12.3051 0.538929 -0.423713 -0.288276
O 9.04385 10.7182 7.89941 -0.763424 0.68699 1.167151
O 4.19208 5.34066 6.48549 -0.647871 0.780563 0.506942
O 5.65648 3.54489 2.69469 1.391103 0.696639 0.095095
O 7.70354 6.57503 0.8518 -1.113356 0.328743 0.772867
O 4.64112 8.90402 10.0021 0.078692 -0.842558 0.450402
O 8.74157 4.07203 0.3009 0.38775 -0.664067 -0.456327
O 0.39756 2.33869 11.512 -0.464959 -0.723568 -0.207732
O 6.20855 10.6991 2.85366 -0.06321 0.92515 -1.223314
O 1.85214 11.7644 0.21692 -0.291609 -0.035508 1.189208
O 9.16955 5.32629 8.12059 0.494599 -2.540279 0.535286
O 7.06801 6.29055 9.39397 -0.210082 -0.717927 0.640983
O 9.70416 7.00109 5.36873 -2.355624 0.278205 -2.060244
O 3.2489 9.25331 7.18786 -1.054666 -1.0458 -0.353382
O 11.3108 2.12161 1.19391 -1.326817 -0.157856 0.980521
O 0.54274 4.82783 10.4684 0.101012 0.166278 2.318339
O 8.42302 3.50819 2.93555 -0.191568 0.623267 -1.087251
O 5.95263 10.3304 5.64673 0.78586 -1.165169 0.099257
O 1.34156 5.60971 0.86822 0.134567 -1.568899 -0.077934
O 0.18192 1.76548 3.7206 -0.268845 -0.271278 -1.080053
O 4.69602 8.36086 2.0889 0.108405 -0.301495 -0.904808
O 10.3779 10.9776 12.3794 1.673371 1.083169 0.122728
O 11.4872 8.81761 4.80902 -0.932163 -1.185041 -0.32116
O 7.3671 9.00158 11.8544 1.113159 0.55859 0.883404
O 11.4392 4.71772 2.10684 0.437112 -1.149394 -0.00296
O 0.62969 5.78771 6.45691 0.733818 0.540363 1.075348
O 7.82807 8.29523 6.64281 -0.886335 0.251836 1.337588
O 2.70499 3.22528 0.29599 -0.517814 0.292646 0.251104
O 5.61094 5.12447 11.3144 0.38463 -0.719303 -0.03589
O 12.3545 12.2294 10.736 -0.888217 -1.604513 -0.418167
O 5.00889 5.78965 1.4597 0.070399 1.317735 1.013572
O 11.8779 12.0136 5.29897 -0.310193 1.250857 -0.566529
O 2.13838 1.26044 2.05012 0.67105 0.178762 0.208101
O 3.45064 5.92108 10.2853 -1.012573 -1.160198 0.187218
O 8.53294 1.45384 0.73317 0.039597 -1.046939 0.289741
O 11.7804 7.56837 0.49863 0.719096 -0.0617 0.285604
O 7.81032 11.591 11.592 -0.373559 0.391697 0.311106
N 8.3289 1.89452 9.23438 -0.292433 0.673176 0.705173
N 5.6906 6.84636 4.05094 2.00613 2.078342 0.852862
N 2.67628 1.09206 7.82106 0.026376 -0.063009 -0.01435
N 2.9401 3.92482 4.10774 0.772209 -0.246159 0.637556
N 2.02483 10.8146 3.87097 0.497439 -0.045141 -0.093079
N 3.38858 1.55595 8.52477 -0.111833 -0.017018 -0.170259
N 2.14728 4.13228 3.3761 -0.581069 0.221206 -0.61354
N 6.41445 7.68701 4.23627 -1.741793 -2.399125 -0.439884
N 3.0792 10.7237 3.54407 -0.407243 0.046418 0.159402
N 8.00917 2.67664 9.95734 0.217974 -0.740566 -0.768432
N 11.9971 2.15335 7.799 1.393751 1.672996 -1.031699
N 11.3551 1.39877 8.25468 -1.406069 -1.587225 1.019506
Cl 9.10845 3.0713 5.71259 0.05179 0.000157 0.574377
Cl 5.98643 11.6277 9.21941 0.401501 -0.178124 -0.516877
193
energy=-1085.28599683 config_type=nep2xyz pbc="T T T" virial="-13.09047020777867 -6.0077620698223875 -1.1064816275333729 -6.0077620698223875 13.311052520619697 0.5219908594334681 -1.1064816275333729 0.5219908594334681 3.450537608013193" Lattice="12.4 0.0 0.0 0.0 12.4 0.0 0.0 0.0 12.4" volume=1906.6240000000003 Properties=species:S:1:pos:R:3:force:R:3
H 9.01336 3.74054 10.0835 0.344276 -1.345638 0.883075
H 3.40883 12.0433 7.69577 -0.482124 1.484751 0.042294
H 2.0298 6.66689 1.25965 -2.058144 -1.310279 1.258576
H 7.27028 2.91564 3.26105 -0.144967 0.330284 -0.726441
H 7.48495 6.42918 8.26657 0.264331 0.678287 0.063823
H 6.91227 1.03748 8.21039 -0.433891 1.090348 -0.405346
H 8.4527 6.85765 6.48902 -1.722543 1.16339 2.09666
H 6.29285 9.18508 10.0196 -0.087287 2.158495 -0.200752
H 6.08581 2.73333 7.18054 -0.164298 -0.474901 1.04924
H 1.69598 8.97569 7.41691 -0.364542 0.220798 -0.299703
H 12.1569 4.57785 4.17296 0.129074 -2.556635 -0.439889
H 9.72021 5.7835 11.5259 0.779042 0.766169 0.973249
H 7.71982 4.31187 11.8807 -1.652438 -1.497896 3.047734
H 1.24099 2.63065 1.20294 0.318791 1.281164 -1.615758
H 9.25321 8.68887 2.93525 0.476239 -0.447786 0.055581
H 3.07629 11.0069 11.6146 0.788205 -0.060367 0.728694
H 2.41172 4.86902 10.8947 -0.149201 -0.297155 -1.205578
H 1.95137 1.60948 7.59483 0.354993 0.789748 0.418023
H 12.1659 6.71852 9.63088 0.818455 0.461046 0.462654
H 9.57759 7.27838 8.67932 -1.035031 0.124525 0.155723
H 0.24665 9.73101 8.95276 0.643086 -0.173142 -0.131118
H 12.2134 9.38777 1.33889 -0.825843 -1.997905 -1.082351
H 4.38591 7.51239 0.5229 0.143319 0.059115 0.168666
H 10.7721 8.57492 7.37066 0.297033 -0.270134 -1.28908
H 9.06885 5.38519 6.19186 -0.304393 -0.195926 0.38208
H 0.4998 6.82773 1.05911 0.055074 -0.653848 1.147952
H 4.43309 11.3504 5.96195 -0.100609 0.173253 -0.252329
H 6.49808 8.58677 7.4455 -0.045474 -0.377108 0.779534
H 9.24863 12.0908 10.3774 -0.48809 -1.27549 -0.764132
H 1.73497 4.52048 9.33523 0.828076 -0.333923 0.744906
H 5.99149 11.5891 11.2782 0.175138 -0.789318 -0.535686
H 2.15356 7.23922 5.83074 0.313769 -0.514221 -3.893271
H 11.4292 12.1409 6.956 -1.375839 0.398161 0.060253
H 0.5484 6.41316 7.0009 0.119962 -0.164597 -0.343632
H 9.02847 9.92764 3.81405 -0.533921 -0.389917 -0.956171
H 11.7825 8.98688 10.0715 0.38674 0.982396 -0.557528
H 5.99637 2.05202 5.01609 -0.710169 -0.116382 0.499431
H 0.60211 3.91125 11.8622 0.489285 -0.169194 0.312622
H 1.39866 0.29107 7.166 -0.322074 -0.454382 0.152354
H 11.4026 2.34316 10.3172 -0.199032 -0.120644 0.083358
H 8.20859 2.96694 4.55429 -0.898177 -0.76974 -0.528071
H 4.15073 11.2371 10.3616 -0.543014 -0.118153 0.92193
H 10.5577 6.75497 3.44142 -1.229307 0.512271 -0.142202
H 8.94889 0.57369 11.9971 0.013337 0.073836 -0.21592
H 0.1262 1.23556 10.6763 -0.400118 1.173945 -1.051358
H 5.25583 12.3833 1.09881 -0.873317 0.491565 0.108869
H 12.0701 10.0433 2.75294 -0.756851 -0.643106 2.918805
H 9.96506 10.3235 8.99399 0.582646 -0.164168 0.217752
H 4.07555 1.95105 1.19434 0.075897 -0.380737 -0.06348
H 3.09884 0.64767 4.36515 -0.250743 0.109633 0.071246
H 6.2562 4.41374 8.84832 -0.134539 -1.153785 -0.277448
H 1.20256 6.15898 10.1332 0.261807 0.221316 -0.216145
H 12.18464 11.6563 1.34847 1.043746 1.019587 -0.085199
H 6.81179 7.41993 0.7389 -1.96216 0.947946 0.056166
H 6.82452 0.04551 1.0256 -1.13046 -0.723997 -0.55827
H 9.13071 1.30444 10.4297 0.485167 -0.152979 0.315571
H 3.30997 10.5862 7.90849 -0.107051 -0.184588 -0.03882
H 1.01046 4.84991 0.61512 -0.072065 1.112645 0.967581
H 0.49509 3.03622 8.83726 0.471571 0.438818 0.019198
H 2.72524 7.12131 7.17123 1.285987 -0.446989 1.161495
H 3.02689 0.97862 1.82925 1.764703 0.118127 -1.610791
H 7.36957 3.20254 7.82711 -0.077332 -0.392666 0.163219
H 8.0897 1.76411 1.08741 0.35843 -0.95302 -0.704261
H 6.26355 8.12098 11.017 0.086788 -0.354231 -0.358193
H 0.01997 11.599 5.94712 0.02966 -0.236346 -0.006516
H 6.25716 11.658 9.68792 -0.082549 -0.828743 0.928996
H 12.0755 5.57639 5.98131 0.524249 0.278727 0.465039
H 9.73949 1.18426 6.11447 0.314686 1.456612 0.422307
H 6.51143 10.485 1.75637 -0.924636 0.095013 0.037758
H 0.53209 0.94667 1.65684 0.238022 -0.051223 -1.023002
H 7.35799 5.414 1.65854 -0.28656 -0.820031 0.474444
H 2.29795 0.91152 5.62154 0.214657 0.084926 0.085284
H 5.46083 9.87415 7.67464 1.565712 -1.51276 -1.409376
H 6.75413 12.0789 7.40523 -0.131409 0.478136 0.148337
H 5.45967 5.73122 8.75648 -0.013849 0.429558 0.241161
H 4.33127 11.1605 4.41081 -0.52582 -1.348625 -0.961527
H 10.6946 6.55145 8.01943 0.903078 -1.75744 -1.751364
H 0.58241 4.24023 7.75626 -0.205863 0.194188 -0.160823
H 8.92925 0.0427 5.68343 0.944249 -0.782847 0.31599
H 9.11673 9.37931 5.79971 -0.283065 0.201109 0.082952
H 3.10353 9.40292 0.5717 0.134342 -1.473274 0.083764
H 2.89988 8.12427 3.96736 0.853574 0.987888 -0.565168
H 0.63508 2.58906 2.59982 -0.370581 0.100808 0.809126
H 0.0849 7.80751 11.7202 -0.092417 -0.289768 0.411398
H 9.17006 6.27514 0.39908 0.17968 0.269693 0.658872
H 12.36162 11.1052 10.5775 1.020591 1.085695 0.533216
H 8.34414 6.54108 2.34314 0.064201 -0.425844 0.42601
H 11.0861 7.42029 12.28991 0.267602 -0.352852 0.608749
H 8.77101 10.8954 8.28578 -0.984834 0.722304 -1.667764
H 9.08475 0.49922 1.55535 0.325388 0.189424 0.159219
H 10.0248 0.1646 3.59781 0.071213 0.5864 0.796508
H 4.97188 9.33845 3.36974 -2.318615 1.195155 -0.540511
H 1.07049 9.43252 4.86016 1.441997 -1.243519 0.152592
H 6.01271 8.63704 1.35186 0.418889 0.294803 0.070157
H 3.3933 7.97037 11.8141 -0.356059 -0.399993 0.118242
H 7.41772 7.73973 8.93636 -0.656358 0.939653 1.499334
H 1.9195 8.20268 10.1122 2.468218 0.655443 0.245737
H 1.40461 11.7114 10.7521 2.073326 -0.237799 -0.651642
H 0.97779 10.4114 7.39354 -1.522868 1.498456 -1.771929
H 7.55759 0.35589 3.94455 -0.425218 -0.907418 0.075584
H 0.28011 5.87455 3.49562 0.112739 -0.363343 0.265272
H 3.731 10.0667 2.58325 0.190843 -0.193738 -0.511352
H 9.50864 2.856 8.92262 0.330813 -0.249345 -0.330157
H 6.7754 11.4115 4.2083 -1.507953 -0.30603 0.335333
H 9.78384 11.3347 2.78792 0.487712 0.408658 -0.452874
H 1.95233 7.18845 3.16491 -0.005412 -0.053261 0.062476
H 2.80489 9.52723 10.2051 0.172352 1.099962 0.042361
H 3.44044 5.98613 8.85643 0.8641 0.975174 0.053611
H 7.37044 5.08381 10.5704 -0.295306 -0.107526 0.121789
H 10.731 7.67654 6.13531 -0.263768 -1.164525 -0.330138
H 11.3571 2.60774 4.74922 0.117031 0.171858 -0.389238
H 0.43878 0.0015 0.0467 0.204013 -0.147634 -0.707262
H 1.91708 10.1835 1.27039 0.945468 0.0311 -0.572976
H 7.62201 9.64155 6.02679 -1.973795 -0.408723 1.127701
H 4.90624 1.02532 5.42682 -0.301782 -1.287239 -0.255626
H 7.47938 9.69113 2.61694 -1.07103 -0.413279 -0.143568
H 4.14973 7.41946 8.93284 -0.190741 -0.06248 0.374256
H 9.29108 6.79118 4.25728 -0.897463 -0.536854 1.98715
H 11.9653 9.53099 5.18573 0.345173 -0.218068 0.241808
H 0.37196 2.09602 4.6311 2.110225 -1.430048 0.952973
O 12.03 9.8712 9.70165 -1.40145 -0.981531 0.742347
O 1.51154 9.82981 7.87535 1.726038 -1.841195 1.824322
O 7.03451 0.09016 8.23705 0.319915 -1.655157 0.286835
O 6.52327 2.78119 8.09107 0.328944 0.539527 -1.681048
O 0.31387 9.9609 4.72676 -2.01701 1.394566 -0.328913
O 2.23038 0.97269 4.65121 -0.217953 0.010276 -0.470102
O 12.1546 2.61889 4.17853 -2.199146 1.404235 -0.465608
O 9.84126 0.24116 6.03298 -1.319057 -0.926033 -0.846134
O 12.37404 10.1218 1.89061 1.654762 2.383578 -2.003113
O 6.37311 8.24882 10.0435 -0.253467 -1.336864 1.053173
O 12.3508 2.15072 10.2644 0.344522 -0.956045 0.730049
O 6.01456 11.0321 10.4487 -0.070548 1.622646 -0.531144
O 1.95226 7.41578 6.70554 -1.376018 1.101046 2.936803
O 11.9737 7.80705 0.16411 0.536304 0.818801 -0.667553
O 8.33959 9.89317 5.48425 2.754188 -0.416163 -0.514705
O 1.11235 6.26774 1.69294 1.987339 2.41289 -2.559771
O 4.10924 6.60577 8.40555 -1.05005 -0.918882 -0.027663
O 9.1025 9.6445 2.84995 -0.132911 1.106787 1.28729
O 7.90256 7.34534 8.20927 0.204765 -1.707184 -1.239167
O 2.29107 7.39841 4.04987 -0.734366 -0.590458 0.506806
O 3.79709 1.01615 1.15073 -1.718994 0.346353 1.78342
O 10.2224 12.2247 2.7287 -0.67187 -0.995547 -0.569518
O 3.21263 11.2615 10.6929 -0.349114 0.141612 -1.393982
O 1.10175 3.66626 8.35948 -0.750208 -0.8413 0.011854
O 6.30385 5.33491 9.09344 0.388476 0.742622 0.050696
O 7.90171 6.19236 1.55517 0.308186 1.155325 -1.121701
O 5.95871 7.98921 0.60962 1.781916 -1.934277 -0.765559
O 6.04234 9.31787 7.02889 -1.453342 2.062208 0.64274
O 9.10631 10.7276 9.13908 0.752368 -0.232481 1.854935
O 0.23755 0.1222 1.00581 -1.458607 -1.388501 1.40253
O 3.97539 9.63976 3.41819 1.927297 -0.895996 0.871111
O 2.81076 10.2725 0.83454 -1.267306 1.465229 0.932666
O 8.97706 6.3215 5.96052 2.265805 -0.981066 -2.786494
O 8.05777 4.62806 11.0934 1.898494 1.996393 -3.752819
O 9.64203 7.1663 3.46477 2.081044 -0.434863 -1.54214
O 3.96305 11.2696 7.68139 0.974826 -1.703401 0.093627
O 9.3591 0.46248 10.939 -0.258559 1.794813 0.736571
O 12.2788 5.69843 6.94112 -0.687956 -0.21398 0.169085
O 7.52152 2.4312 4.04961 0.914141 0.0803 1.100792
O 4.62471 11.7578 5.0816 0.670062 0.835048 1.20091
O 9.54089 2.88299 9.8904 -0.613143 0.918469 -0.577628
O 8.53124 0.86705 0.81989 -0.5051 0.534346 0.237354
O 3.42115 7.64071 0.35146 -0.421657 0.07349 -0.344871
O 0.60271 6.96066 10.1144 -1.22509 0.138172 -0.332677
O 10.8617 8.58557 6.37003 -0.123097 1.529938 1.201541
O 6.48532 9.7023 2.35776 1.677333 0.577347 0.591345
O 1.30745 4.08771 0.12195 -0.306651 -1.276327 -1.407365
O 12.1872 5.50164 4.25373 -0.339165 2.839298 -0.277822
O 7.63177 11.7747 4.07861 1.746968 2.527539 -0.627857
O 1.13957 2.07716 1.96328 0.141229 -0.961646 1.224239
O 10.5389 7.18804 8.67871 0.344098 1.474011 1.792883
O 0.51409 11.8943 10.9878 -2.565359 -0.311433 0.002057
O 2.35402 5.11271 9.93298 -0.17757 0.241654 0.655821
O 12.3141 11.8076 6.89476 1.420081 -0.294995 -0.43913
O 2.25214 0.75465 7.27955 -0.540712 0.124408 0.021375
O 2.89341 8.57337 10.2611 -2.48898 -1.968099 -0.430909
O 5.2262 1.89427 5.62899 1.538631 1.883434 -0.027255
O 10.0361 6.30294 12.3292 -1.440546 -1.098121 -1.78612
O 6.02213 11.882 0.80091 2.04872 0.294491 0.061624
N 10.016 10.4069 12.3129 1.298405 0.368546 -0.205939
N 5.31733 6.94252 5.47548 -0.402034 -0.098723 0.380323
N 4.17959 2.13008 9.99399 -2.987259 1.471771 -2.281144
N 3.62129 5.1805 2.52165 0.08595 1.752195 -0.703155
N 3.56016 4.19827 6.68074 -3.057073 0.801251 -1.924316
N 4.96924 1.73618 10.6191 2.948094 -1.499737 2.284409
N 3.65441 4.16106 2.91441 0.057981 -1.87253 0.679754
N 5.9726 7.00222 4.5925 0.401708 0.046312 -0.490533
N 2.61451 4.4271 6.1055 3.24142 -0.826025 1.72623
N 8.97791 10.0734 0.03019 -1.324763 -0.467156 0.087976
N 9.93506 3.40622 1.66743 0.81037 0.48813 -1.160096
N 10.4736 3.69538 0.73474 -0.626111 -0.605369 1.274987
Cl 9.48601 3.30217 6.27332 0.08971 0.082006 0.218681
Cl 6.6904 3.27084 0.99322 0.096376 -0.126821 0.472699
193
energy=-1087.50566763 config_type=nep2xyz pbc="T T T" virial="-2.918050762394691 -1.6059929882100057 -3.5632207068636284 -1.6059929882100057 -3.5682663963675445 -0.07516173327060424 -3.5632207068636284 -0.07516173327060424 -8.764493570624882" Lattice="12.4 0.0 0.0 0.0 12.4 0.0 0.0 0.0 12.4" volume=1906.6240000000003 Properties=species:S:1:pos:R:3:force:R:3
H 2.84368 4.69605 1.21679 -0.048883 0.074561 0.171487
H 4.27637 10.1232 6.39439 0.464505 0.219999 -0.360687
H 1.99659 7.78972 2.19358 -0.315928 -0.460379 1.216499
H 9.15662 4.06006 3.56884 0.38448 -1.023894 1.259601
H 9.44947 4.17481 11.3791 0.035247 -0.875861 -0.003464
H 6.23771 0.4663 5.42536 -0.383424 0.277315 0.14506
H 9.51987 3.96463 7.47311 0.071133 -0.668375 -1.004574
H 5.42796 8.07755 8.30246 2.153138 -1.733506 -1.782456
H 7.38877 3.78602 5.45747 -0.45726 -0.296669 0.017326
H 10.1071 7.75535 10.3066 0.074139 -0.072233 -0.031659
H 1.48364 6.20839 5.91316 0.574347 0.660418 -0.105826
H 11.5893 6.50056 1.20804 0.337224 -0.813359 0.219722
H 7.91317 5.40187 8.64394 0.572259 -0.701093 -0.058738
H 3.38269 1.48218 12.0581 0.649155 0.278002 -0.274419
H 8.93966 7.45958 3.87956 -0.000818 -0.39847 -1.214784
H 2.78958 8.93975 12.2399 0.694444 -0.607187 -0.216527
H 4.5338 5.6878 0.2064 0.108167 0.397909 0.689935
H 3.29658 11.7906 2.74061 0.31929 -0.073725 0.859797
H 10.7254 11.5701 11.4864 -0.49607 -0.157641 0.61549
H 5.28394 4.65833 11.2182 -0.183735 0.004224 -0.395662
H 12.1211 10.4653 6.91212 0.624777 -0.416699 0.16291
H 11.5006 9.07828 1.1697 0.461616 0.528334 -0.085531
H 3.48998 9.27202 1.9333 0.040776 -1.171123 -0.010097
H 6.68305 10.5579 0.90823 0.227757 0.762363 -0.097602
H 9.69734 4.41432 8.97752 -0.296233 0.327449 -0.260272
H 1.05062 6.54061 2.57113 0.362856 0.756082 0.675515
H 6.27929 10.9776 4.75552 -0.92663 -0.830438 0.927544
H 3.92538 9.21157 8.21285 0.012009 -0.479123 0.619272
H 11.3439 2.41356 0.51387 0.271616 -0.070358 -0.410199
H 5.1163 5.18832 1.60883 0.529209 -0.438476 0.08231
H 5.51306 1.28906 7.44571 -0.119645 -0.55605 0.249588
H 1.45183 8.02008 10.9155 0.23811 0.120319 -0.429774
H 12.2532 12.3449 3.94074 -0.448947 -0.463543 0.478188
H 11.5438 4.94807 10.3289 -0.85903 -0.179892 0.182149
H 7.98241 7.25628 1.79464 -0.540076 0.302535 -0.671273
H 11.3021 9.3561 8.80457 -0.328738 -0.410578 0.211301
H 8.68413 1.30089 0.71912 0.379381 0.251261 1.055985
H 11.7824 4.26286 1.83022 -0.34329 0.307209 -0.307002
H 2.60267 0.89115 2.88579 -1.084624 0.06749 1.071683
H 12.2331 4.58078 3.51205 0.375993 -1.145194 2.122337
H 8.96544 5.24223 2.6893 -0.081424 1.503296 -0.476495
H 2.14767 10.1257 11.7523 -0.451183 1.108172 -0.219928
H 10.3003 8.09745 4.47353 -0.694709 -1.401066 0.333484
H 0.00169 1.90394 2.66058 0.389004 -0.17387 0.242713
H 11.4563 3.93145 4.78594 -0.722792 -0.342499 0.084603
H 7.1766 11.8199 11.1945 -0.205065 0.02541 -0.38254
H 12.0642 9.89542 2.31034 -0.29204 0.206198 1.019929
H 8.39902 3.68502 0.81298 -0.060627 0.038667 0.593105
H 5.31079 0.91236 10.7941 0.452718 0.370519 1.131311
H 6.12616 0.9938 3.19106 0.101095 0.18312 -0.116311
H 4.97011 6.10558 7.05985 1.04306 1.17844 0.532577
H 10.6807 11.0339 0.56144 -0.297816 0.06963 -0.158642
H 0.13515 3.30323 10.7235 0.417411 1.465756 -0.626922
H 5.83242 7.02787 0.85903 0.00712 -0.190609 0.139896
H 8.48811 11.6437 12.08 0.296644 -0.349526 0.190524
H 10.2903 2.23969 1.6417 0.033984 -0.070313 0.262519
H 3.524 8.84596 6.11022 -0.318573 -2.501743 -1.779923
H 0.75439 4.72554 1.40082 0.46164 0.030231 0.144412
H 10.2041 11.22 8.31392 1.349067 -0.832681 -0.363157
H 1.82079 6.9835 9.79999 0.531217 -0.080424 -0.65282
H 5.61304 1.14882 12.3648 0.540618 -0.481405 0.478987
H 6.20433 3.60842 4.48442 -0.072229 -0.061338 -0.367296
H 0.82812 2.4351 3.86317 -0.544337 -0.299714 -0.068975
H 6.566 6.8691 8.39012 -0.326861 0.329537 -0.568749
H 11.9016 10.886 4.67883 0.188559 1.723238 -0.738764
H 6.03382 2.30382 6.40783 -0.677738 -0.530675 -0.592179
H 0.47244 5.74698 10.2703 -0.546631 -0.769622 -0.207306
H 9.57466 0.96597 5.04266 -0.262208 -0.075692 0.235455
H 7.30619 9.93972 11.4782 0.070975 -0.589254 -0.68382
H 0.99094 2.26037 11.5817 -0.872385 0.423965 -0.5692
H 7.22648 4.07837 2.56884 -0.487548 -0.153598 -0.322273
H 4.86945 1.12885 2.3511 -1.102335 -0.366959 -0.06494
H 0.59962 11.9556 10.9327 -0.146892 0.073826 -0.506387
H 7.63444 0.08439 4.84593 -0.022192 0.006577 -0.379522
H 4.94589 4.89437 6.16084 0.506031 -0.762581 -0.263802
H 6.43101 9.69249 5.70206 0.154602 -0.081622 -0.458651
H 5.80422 3.12388 11.1565 -0.702515 0.034558 0.27086
H 7.95665 11.7505 7.92664 0.498547 -0.482786 -0.165236
H 10.2693 12.0307 4.67928 -0.336727 0.301331 0.245562
H 6.3246 9.13045 1.42326 0.413485 1.624428 0.873009
H 0.73186 10.9145 0.97739 0.705095 0.550139 -0.857825
H 2.55037 7.38611 4.38712 0.02295 0.051893 1.008803
H 2.57143 1.33149 0.94285 -0.055036 -0.352279 0.282232
H 8.59367 7.87551 10.657 1.685572 -1.231495 0.992704
H 9.61144 7.34382 1.82365 -0.415895 -0.058463 -0.023709
H 11.7056 11.5594 8.9364 -0.476633 -1.192465 -0.396907
H 6.00561 3.0371 2.26071 0.459439 0.414413 0.240591
H 10.6442 7.15617 0.09468 0.669511 0.400878 1.376742
H 7.60062 3.52134 11.8794 0.062467 0.270522 0.454527
H 8.88159 10.6654 4.03493 -0.615081 -1.123074 -1.091098
H 9.01437 11.8261 6.72472 -0.025097 0.116955 -0.369968
H 4.42473 9.99989 3.82824 0.439484 -0.211595 1.33439
H 1.107 9.69962 6.67871 2.131674 -0.529198 1.159397
H 6.80044 7.9099 0.0313 0.365085 0.692795 -2.205217
H 3.95627 7.75032 1.6358 -0.156672 0.006583 -0.188653
H 9.55505 5.56116 10.8353 0.148844 0.550717 -0.64352
H 3.77171 6.05939 10.2742 0.769495 0.667992 -0.116124
H 3.62318 9.0706 9.80216 -0.17362 0.321733 0.510328
H 12.1446 8.23956 9.65888 -0.474623 -0.238722 -0.762648
H 8.10696 9.65594 6.81545 0.397603 0.288643 0.022787
H 0.71443 4.90878 5.62255 -0.348972 -0.0256 -0.0692
H 4.98286 10.3093 2.47137 1.762825 0.396836 -0.939258
H 2.39325 3.26825 0.68141 -0.369922 0.897674 0.698005
H 11.2868 7.38231 8.19832 0.330978 -0.246781 -0.978134
H 7.84565 10.1019 2.95821 0.274294 -0.040252 0.138258
H 3.31153 6.60417 5.51646 0.520046 -0.056104 0.353005
H 4.61053 7.31952 10.0095 0.071434 0.960425 -0.753296
H 3.17053 5.59036 8.13647 0.314801 0.107763 0.201617
H 6.86635 5.2386 9.85871 -0.192307 -0.804846 0.493824
H 0.11912 8.10836 3.76056 -0.740421 0.167361 0.291302
H 10.6643 5.83412 7.7516 0.620204 0.503799 -0.968797
H 0.00981 0.80511 10.2226 0.246839 -0.462536 0.064574
H 2.10368 11.7092 1.24131 -0.862463 0.028412 -1.043717
H 7.20051 8.36014 6.85902 0.565075 -0.161522 -0.253853
H 7.90331 0.80807 1.8733 0.099974 0.086917 0.534126
H 6.50224 9.39687 10.2513 0.446701 -0.211504 0.540044
H 2.0836 4.96941 8.95429 -0.949952 -0.732895 0.199523
H 8.83496 8.28932 5.17502 -0.146229 -0.667683 0.79172
H 12.0617 9.12197 4.87335 0.597606 0.259774 1.306701
H 12.0923 6.34315 6.87506 -0.078338 -0.664371 0.586267
O 11.1846 10.8893 8.36582 -0.814773 1.355208 0.395149
O 11.2966 8.38251 9.12825 0.731129 0.485002 0.424327
O 6.67269 0.07751 4.6286 0.800249 0.296686 -0.341054
O 6.42658 3.56356 5.42677 0.800972 0.97295 0.077762
O 0.32743 9.99353 6.27995 -2.861907 1.055508 -1.433314
O 5.7709 1.44489 2.38065 0.913115 -0.313994 0.163094
O 11.2511 6.60889 7.39872 -1.042516 0.111543 1.183949
O 9.42549 12.39582 5.12563 -0.064525 0.177009 -0.072475
O 11.8511 9.9915 1.38473 -0.383418 -1.055746 -0.505763
O 6.13041 7.49004 7.69836 -2.077131 1.586132 2.018093
O 12.3373 4.04263 4.40556 0.743722 1.673174 -2.291425
O 5.4812 1.47799 6.50145 0.657914 0.588194 0.606552
O 1.0771 7.44038 10.2119 -0.52466 0.196714 0.918559
O 9.45469 7.33313 10.9056 -1.768475 1.459996 -0.614407
O 6.41469 10.1287 1.73666 -0.41387 -2.199869 -0.53877
O 1.47647 7.34631 2.97534 -0.265895 -0.393207 -1.600098
O 2.77917 5.61059 9.03724 0.154678 0.322321 -0.692948
O 8.78128 7.11206 2.30802 1.152197 -0.598248 0.850291
O 9.89446 4.66092 10.6415 -0.179637 0.413813 0.45629
O 2.80857 7.4207 5.35703 -0.523383 -0.331712 -1.3267
O 5.27154 1.55959 11.5747 -0.793034 -0.369094 -1.787217
O 8.63589 9.86019 3.48968 0.315143 1.362926 0.806736
O 2.5502 9.33616 11.3737 -0.092682 -0.493797 0.586173
O 8.72653 11.293 7.49758 -0.610578 0.241637 0.573431
O 4.37894 5.46871 6.67024 -1.260261 -0.015842 -0.087662
O 6.24896 4.00185 2.3828 -0.238338 0.078708 0.240799
O 6.60433 7.62933 0.90639 -0.529165 -0.439796 1.621714
O 4.22021 8.79258 9.0987 0.052316 0.27884 -1.112477
O 8.44492 3.31383 12.3279 0.035674 -0.00378 -0.697043
O 0.12964 2.43711 11.1136 0.497591 -2.221494 1.40865
O 4.1698 10.3411 2.97539 -2.247671 0.116437 -0.42258
O 1.44804 11.4715 0.5228 0.118595 -0.589794 1.1686
O 9.44895 4.71646 8.05609 0.478241 0.599324 1.257829
O 7.21461 5.7971 9.17181 -0.135051 1.108906 -0.152841
O 9.39989 7.54577 4.74853 1.360539 2.109317 0.05839
O 3.56671 9.54823 6.70823 -0.162119 2.437862 2.218572
O 11.2156 2.49873 1.46741 -0.006554 0.295522 0.23752
O 0.04458 4.89211 9.98862 1.321062 0.855057 0.119505
O 8.91352 4.29125 2.67798 -0.430917 -0.213383 -1.108448
O 5.7715 10.1891 5.18173 -0.02057 0.59587 -0.486515
O 2.0898 4.08453 1.22928 0.984221 -0.524747 -0.823446
O 0.68543 1.62849 3.32721 0.129759 -0.150695 -0.382416
O 3.25991 8.40203 1.44121 -0.067223 1.002649 0.214385
O 10.1113 11.3432 12.2211 0.913872 0.260035 -0.662131
O 11.721 8.5642 4.17834 0.14236 -0.709788 -1.418315
O 7.11118 9.0917 10.9661 -0.222397 0.311125 0.051581
O 12.3245 5.09432 1.82919 -0.730996 -0.411551 0.136737
O 0.93207 5.54867 6.34165 -0.416489 -0.03743 0.305811
O 7.87859 8.8703 6.28633 -0.815828 -0.099956 0.707466
O 2.66138 1.88527 0.15827 -0.575237 -0.120868 -0.284549
O 6.03881 4.06889 11.2713 0.86106 0.128932 -0.274873
O 0.16672 12.229 10.0936 0.035934 0.897144 0.931488
O 4.57437 5.87958 1.17029 -0.451593 0.010363 -0.677022
O 11.5627 11.6508 4.12743 1.142452 -1.004015 0.037453
O 3.19844 0.30949 2.42933 0.713144 0.14908 -1.668536
O 4.51031 6.61902 10.641 -0.556896 -2.071695 1.562185
O 8.75321 1.24548 1.70963 -0.476544 -0.373372 -1.486544
O 11.1142 7.31386 0.98404 -1.334599 0.754047 -1.95757
O 7.51626 11.5044 12.0567 -0.211104 0.170304 0.456674
N 8.94239 1.26838 9.32403 0.398357 0.329561 1.109297
N 5.75613 7.31465 4.20256 -2.792178 1.966167 0.442405
N 3.02584 1.54455 9.48393 -0.816693 2.398701 -0.046515
N 3.19539 3.88885 4.71728 -1.633375 4.113625 3.368233
N 2.64694 0.20375 6.39398 -0.430522 0.110817 0.506958
N 2.65813 2.60419 9.49087 0.871282 -2.442864 -0.100285
N 3.48778 3.10294 4.04757 1.523246 -4.206554 -3.531138
N 6.61717 6.67946 4.02283 2.635634 -2.05474 -0.389043
N 3.36593 0.00087 5.58604 0.251588 -0.164276 -0.553735
N 9.29098 1.4027 10.3726 -0.28751 -0.2762 -1.165788
N 0.31904 2.20866 6.40298 -0.282289 0.682405 3.004254
N 0.1863 2.51953 7.47573 0.288546 -0.834363 -2.796956
Cl 9.62732 3.09555 5.35186 -0.242245 0.11038 0.298581
Cl 6.1976 11.7858 9.44376 -0.219724 0.431516 -0.312701
193
energy=-1087.78706976 config_type=nep2xyz pbc="T T T" virial="-14.696201391344605 5.353631266399561 -1.290518392104287 5.353631266399561 -8.13298506849202 2.8349039874799167 -1.290518392104287 2.8349039874799167 0.9238014870271909" Lattice="12.4 0.0 0.0 0.0 12.4 0.0 0.0 0.0 12.4" volume=1906.6240000000003 Properties=species:S:1:pos:R:3:force:R:3
H 2.34297 6.5718 10.5861 -0.496857 -0.073994 -0.027461
H 2.93877 9.28641 6.49503 2.007517 0.521022 0.207297
H 3.01281 7.84607 2.5063 -0.280118 -0.014717 -0.162039
H 9.88145 4.78677 3.33066 -0.303985 0.120414 -0.537233
H 9.47093 5.13257 10.1815 0.973384 -0.282389 0.270381
H 4.99206 0.80539 6.28841 -0.484685 0.147162 0.363768
H 7.21615 5.36869 6.23763 -0.018613 -0.360413 0.133456
H 6.58786 10.5781 9.79003 0.854773 -2.334697 0.099642
H 4.44786 2.30977 5.06337 -0.303649 -0.421295 -0.968616
H 11.041 8.23872 10.2228 0.012604 -0.054634 -0.289832
H 0.36276 6.10879 4.96517 -0.132337 -0.264855 0.482979
H 12.3861 6.19932 0.68483 0.493252 -0.108659 1.190801
H 6.0795 6.21543 8.16989 0.438269 -0.223879 0.161231
H 3.72541 1.9316 12.1528 -1.463255 -0.333614 0.555675
H 9.33493 6.71476 3.45439 0.281957 -0.065481 -0.494893
H 4.51295 11.0065 12.3168 -0.065275 -0.825116 0.915643
H 5.37338 4.97679 10.3735 -1.223553 -0.449506 1.301299
H 1.30386 2.30609 2.61036 -0.140884 0.497618 0.097312
H 0.15569 10.809 11.2155 0.170446 0.534073 -0.494505
H 8.05765 2.18916 8.11728 -0.052731 -0.043217 -0.57478
H 12.2034 10.7658 6.1548 -0.75393 0.313784 0.654178
H 0.96018 10.0966 0.89883 -0.716864 -0.130677 -2.122947
H 5.26782 6.65669 0.99 0.397201 -0.299608 0.451416
H 7.72298 9.5698 3.36608 0.398718 0.096963 0.650795
H 8.2427 6.18461 7.04459 -0.877473 -0.378198 -0.068058
H 1.62729 8.6292 2.24963 0.599445 -1.026949 0.389896
H 4.64395 10.7414 6.93349 0.077462 1.199626 -0.369159
H 3.45614 10.3688 8.77346 1.43198 0.04036 -1.521826
H 11.6023 2.75824 11.8759 0.462917 -0.519094 -0.542633
H 5.11002 3.92317 11.5617 0.028117 -0.184487 -0.016043
H 6.03026 0.21529 10.3434 -0.424798 -0.029089 0.597796
H 1.93121 8.23051 8.45156 0.089449 -0.035231 0.344376
H 11.8468 0.01834 3.0565 -0.604347 0.541264 -0.113146
H 11.9081 4.67676 9.96042 -0.158942 0.354329 0.205072
H 8.39999 6.20707 2.26637 0.711436 -0.258664 -0.179552
H 11.2833 9.9938 8.08642 -0.483799 0.566436 -0.489601
H 7.49928 0.9276 2.95265 0.586114 -0.118279 0.497295
H 1.68692 5.78259 0.12656 0.020459 -0.279415 -0.807956
H 1.47756 0.78726 2.61044 0.146644 0.304816 0.301872
H 0.5235 4.32825 2.28078 -0.505994 0.785042 -1.575801
H 9.26644 3.78084 4.30492 0.371193 -0.336741 -0.402633
H 4.19754 12.3887 11.6599 0.198204 -0.586906 0.120476
H 10.4237 8.10819 4.25636 -0.42636 -0.485757 0.184064
H 10.7395 1.4733 1.49866 0.114501 0.725365 -0.633573
H 11.761 3.60925 3.22432 -0.347105 0.209895 -1.148141
H 7.58976 10.593 1.40406 0.37612 -0.306433 0.182849
H 0.97877 10.7229 2.23691 0.084311 0.461036 0.816037
H 7.62578 4.06985 11.0802 0.351553 0.04031 -0.766434
H 6.28027 0.53446 1.15958 -0.516861 0.834136 -1.087325
H 4.06515 0.35131 3.8088 0.305895 0.318627 -0.208085
H 3.83462 4.36737 6.132 -0.234494 -0.112112 0.141815
H 11.9796 9.49436 11.703 -0.393018 -0.493063 0.016423
H 12.3278 2.4314 10.0987 0.781031 -1.331181 1.50082
H 7.47081 4.60172 1.01875 -0.108445 0.217272 -0.258602
H 9.12924 10.2407 1.656 -0.536831 -0.507127 -0.259145
H 10.3748 3.50793 0.14425 1.852892 -1.39575 0.475218
H 1.86279 8.24304 6.10286 0.1595 0.205397 -0.019361
H 1.68925 6.60099 1.44561 -0.664254 0.62038 0.686504
H 9.64492 11.3272 8.09439 0.006046 0.240395 -0.198485
H 1.39967 6.80683 8.43001 0.143764 0.12741 0.501611
H 5.93189 12.1833 2.42313 -2.289333 -0.8585 1.7135
H 5.50781 2.80307 6.0288 -1.338162 0.334564 -0.008896
H 9.57017 1.04696 2.52465 1.076775 -0.141537 -0.027857
H 5.90801 9.20074 10.2003 0.752025 -0.155867 -0.62619
H 0.26957 11.5668 4.11825 0.17172 0.156182 0.269849
H 5.83253 12.3184 8.83403 -0.742713 0.083867 -0.872628
H 1.11625 4.71859 10.2689 -0.678804 0.055657 -0.217095
H 7.82505 0.02884 4.91194 0.094822 -0.075982 0.404897
H 8.29514 8.71718 0.31869 0.632503 -0.57668 -0.89117
H 1.12756 2.06721 11.0013 -0.048972 -0.338507 0.463304
H 8.72622 3.06017 1.79015 0.303099 -0.153451 1.822109
H 3.60604 1.73053 3.20925 0.87962 -1.135787 0.247746
H 1.39868 11.3251 9.77296 -1.26058 -0.287385 -0.393561
H 5.99299 12.0645 6.29877 0.300367 0.055493 0.063563
H 2.57829 5.17461 6.76153 -0.137808 -0.408046 0.461945
H 5.3125 9.36769 6.85568 0.884125 -0.399886 0.322213
H 7.46969 1.21221 9.19964 -1.314822 -0.466995 0.435483
H 8.65938 0.25848 8.52739 0.045809 -1.155003 -0.860862
H 7.69316 10.9405 5.32522 0.224222 -2.218108 -1.00843
H 8.59984 8.85035 4.4864 -1.699445 1.026091 0.142484
H 4.24562 8.84532 0.95668 0.433621 -0.738219 -0.48957
H 1.89733 7.07679 4.08582 -0.625462 0.347515 0.957539
H 2.42025 1.52615 0.66049 0.208227 0.302668 0.884387
H 9.86514 8.46497 11.3378 1.449862 -0.475246 0.219654
H 10.3868 6.35503 1.2856 1.110167 -0.22663 0.468746
H 11.8634 11.3416 8.40619 -0.267435 0.469656 0.139874
H 7.6066 2.53094 0.7197 0.636556 0.177748 0.463227
H 11.0243 7.14417 0.03676 0.299357 0.284459 -0.259183
H 7.9537 3.34336 9.74766 0.116539 0.906737 0.490023
H 10.62 11.5436 1.9045 0.029032 0.38918 -0.336215
H 8.30389 11.701 7.15434 0.168561 0.121273 0.538533
H 5.63163 10.2872 3.92512 -0.518856 0.361958 0.064252
H 1.08639 10.0191 5.79928 0.790362 -0.351444 0.352602
H 6.785 5.69465 0.06889 0.602889 -0.354881 1.136153
H 4.47246 6.91464 12.0974 0.219678 0.89939 1.084691
H 10.5181 5.82644 11.1713 -0.083157 -0.781913 -1.394013
H 3.75091 8.50318 9.93028 0.437693 -0.493579 -0.165124
H 3.45222 10.7219 10.3448 -0.094164 -0.264284 -1.34149
H 12.3556 8.31575 8.84571 0.696591 -0.39206 -0.021164
H 7.33937 9.04737 8.13887 -0.333843 0.005495 0.694283
H 12.2865 4.74882 4.53271 0.180741 -1.142415 -1.081749
H 4.90797 10.2903 2.58564 -0.489774 -0.075797 -0.362784
H 3.22354 5.36162 10.8978 -0.062506 -0.442429 0.642606
H 11.1519 7.74704 8.04576 -0.288578 -0.859905 -0.778818
H 11.2676 10.5551 0.77448 -0.891161 0.293204 1.381289
H 2.57944 6.28171 5.21846 -0.623618 0.054785 0.764859
H 4.7861 7.26219 9.73825 -0.147519 -0.487916 -1.188247
H 0.56799 5.1394 6.63153 -0.090912 0.21746 -0.086479
H 4.76626 5.62879 7.9383 -1.907818 -0.779632 -1.553016
H 11.3097 9.3943 2.80846 0.415534 -0.700887 0.915987
H 10.4109 5.73808 7.88827 0.182956 0.130279 -0.601837
H 0.42977 0.01175 10.3003 -0.507646 0.539213 -0.288875
H 3.24622 10.0156 1.36448 1.233334 -0.292895 -0.415645
H 7.50126 8.12617 6.8462 -0.828872 1.237346 0.562291
H 8.01183 1.94128 4.11137 0.22792 -0.493325 -0.109698
H 7.90406 8.54674 11.239 -0.289931 0.158176 -0.587287
H 0.91856 4.76314 8.14227 -0.19268 0.082802 0.252184
H 9.92862 7.26242 5.4891 0.598093 -1.031245 2.342481
H 12.0501 9.31971 4.24487 -0.508962 -0.585988 -1.016277
H 10.9593 5.86687 6.39327 0.573886 -0.699159 -0.363384
O 11.1746 10.9676 7.81005 0.232738 -0.992067 0.301078
O 11.4345 8.48063 8.59185 -0.143865 0.84439 0.50871
O 5.1849 12.3808 6.76394 0.358692 -0.021514 -0.026956
O 4.49997 2.74091 5.92437 2.158084 0.119924 0.738345
O 0.33406 10.5029 5.40288 -0.747653 0.23491 -1.293254
O 4.41178 1.23633 3.57446 -1.238952 0.637229 -0.025806
O 10.4608 6.30967 7.09574 -0.795763 0.567251 1.139003
O 7.57956 11.8129 5.6642 0.015452 2.038508 0.96179
O 1.45229 10.0598 1.71185 1.115496 -0.181876 1.640494
O 6.77467 9.54546 9.838 -1.198238 2.195137 0.797907
O 0.28552 3.86746 3.06058 0.518489 -1.373121 2.362272
O 6.47414 12.324 9.54137 0.571633 0.04522 0.243709
O 1.60642 7.5415 9.07516 -0.245828 0.008648 -1.130128
O 10.9215 8.30971 11.1857 -1.260125 0.234312 0.795264
O 7.80948 9.50726 4.35344 1.248554 -0.6767 -0.644488
O 2.05075 7.68967 2.49838 0.239145 1.135264 -0.038105
O 1.16939 5.3385 7.38301 -0.285225 -0.069151 0.2018
O 9.33925 6.21082 2.58005 -0.84601 0.70268 -0.230894
O 10.4558 5.32479 10.305 -1.274614 0.807347 1.007359
O 1.7598 6.83837 5.06596 1.522326 0.210676 -1.866709
O 6.63902 0.05484 1.8951 2.718004 -0.324148 -0.567416
O 10.6951 10.5968 1.64751 0.863517 -0.563002 -1.168501
O 4.6686 11.5339 11.5327 -0.590758 1.207957 -1.265873
O 8.66927 11.6577 8.12873 0.452524 1.059471 -0.553013
O 3.49599 5.23897 6.4241 1.05806 0.487074 -0.648809
O 8.44535 3.03304 0.89447 -0.899302 0.383338 -2.002675
O 7.12379 5.52567 0.98737 -0.32957 0.267144 -0.948451
O 2.92558 10.3915 9.5434 -1.09885 0.325068 3.005877
O 7.89961 4.25448 10.1511 -0.207482 -0.860732 0.489487
O 0.20289 1.77728 10.8469 -0.112082 1.316008 -2.221321
O 4.89644 10.7338 3.45359 1.024828 -0.1601 0.641332
O 4.20228 9.80217 1.09645 -1.760422 1.216578 0.753008
O 7.26837 6.04732 6.93007 1.446324 0.860545 -0.148975
O 5.29829 5.8951 8.65858 1.12898 0.882729 1.742495
O 9.60558 7.62379 4.70235 0.330983 1.696309 -2.603022
O 2.01321 9.10638 6.56748 -1.649639 -1.274005 0.219228
O 11.2429 2.99892 0.32732 -2.459211 1.67604 0.797931
O 0.39304 4.36369 9.68656 0.909791 -0.652412 -0.053433
O 9.81009 3.82845 3.47976 0.00111 -0.550672 0.804779
O 4.50981 9.81785 7.13086 -1.170286 -0.704805 0.232777
O 2.31777 5.72535 11.0827 0.703221 0.215483 -0.735496
O 10.4753 0.81287 2.14414 -0.952985 -0.606371 0.854736
O 4.66458 7.29363 0.6044 -0.595411 -0.746419 -1.164691
O 0.04326 10.295 12.0405 -0.485571 -0.549755 0.666395
O 11.6501 8.73439 3.50793 -0.19263 1.565285 0.394649
O 8.53817 8.1792 11.8728 -0.807226 0.907088 1.257514
O 1.13016 5.96978 0.91713 -0.093732 -0.624975 -0.247823
O 12.0703 5.41563 5.17013 -0.378221 1.283109 1.044132
O 7.10416 8.96899 7.20811 0.776912 -1.145738 -1.465579
O 2.75527 1.6539 12.1645 1.173328 0.146716 -1.519706
O 8.26427 1.67922 8.91995 1.15291 0.543062 -0.169796
O 0.39954 11.5328 9.8626 2.166286 0.284827 0.081233
O 4.82802 4.79396 11.2256 1.247034 0.988893 -1.755758
O 0.33046 12.198 3.36423 0.633441 -0.754619 -0.171991
O 1.9525 1.62305 2.37964 0.029146 -0.506088 -0.226981
O 4.50491 7.99494 10.2924 -0.424982 0.920111 1.164787
O 8.23438 1.10354 3.63164 -0.838944 0.417965 -0.323427
O 11.2146 6.41605 0.6834 -1.816865 0.568338 -0.737863
O 8.19623 9.83995 1.59717 -0.162646 0.673147 -0.1148
N 9.12618 11.5819 11.1207 1.40878 -2.588419 -2.363603
N 6.03649 7.71122 3.70451 -0.440176 -0.13229 -0.160585
N 3.48025 1.5768 9.2916 0.223146 2.381057 0.011237
N 4.48709 4.28765 1.79661 -2.132872 -0.30827 0.075034
N 1.69798 1.96576 5.83121 0.325349 -1.294578 0.452735
N 3.55639 2.69474 9.31423 -0.2407 -2.38286 -0.166579
N 3.37603 4.16136 1.75579 2.040873 0.257959 0.117592
N 6.30707 6.6399 3.67554 0.113462 -0.104967 0.158467
N 2.02411 0.95584 6.16867 -0.467025 1.284348 -0.428077
N 8.74801 12.3307 11.8062 -1.314005 2.583944 2.374364
N 10.8981 2.19027 7.75373 -0.09711 1.320157 -0.099688
N 10.7604 3.29348 7.70113 0.191949 -1.363421 0.068649
Cl 7.82036 3.18537 5.92209 -0.186563 -0.131032 0.107955
Cl 5.85574 2.03216 12.1821 -0.079878 0.14134 -0.439191
193
energy=-1087.61533643 config_type=nep2xyz pbc="T T T" virial="-8.551539293095201 -0.09084621149268411 -3.5232240973762154 -0.09084621149268411 -9.336977025730796 4.558935169532723 -3.5232240973762154 4.558935169532723 -7.9335018299209095" Lattice="12.4 0.0 0.0 0.0 12.4 0.0 0.0 0.0 12.4" volume=1906.6240000000003 Properties=species:S:1:pos:R:3:force:R:3
H 8.60958 5.0624 9.93183 -0.694639 0.31688 -0.288185
H 2.40797 0.08828 6.64702 0.651457 -0.610761 0.297696
H 2.8463 6.96996 0.99689 0.283055 0.513759 -0.570213
H 7.3449 1.62747 4.57706 -0.759804 -0.002535 -0.01196
H 7.49047 8.32523 8.65893 -0.142236 -1.201283 -0.3223
H 7.79899 2.48494 9.04236 -0.111008 0.092389 -0.234057
H 6.35989 6.59397 7.76039 0.555474 0.166273 -0.328038
H 7.56482 0.06339 9.12707 0.633094 0.674356 -0.119616
H 5.66649 2.44742 6.0053 0.395359 0.656938 -0.273513
H 1.48803 8.68325 6.41412 0.148234 0.761706 0.517364
H 11.7751 3.97193 4.22401 0.300072 0.497982 -0.308358
H 9.84 5.74146 11.405 -0.447268 -0.217104 0.598421
H 6.69636 3.97694 10.8697 -0.018419 -0.022161 -0.429326
H 2.26237 2.26525 0.83994 -0.503732 0.067875 0.189113
H 9.55633 6.73495 1.39413 0.006381 0.584242 0.231737
H 4.13611 11.4292 10.1166 -0.274383 -0.537421 -0.706287
H 1.51116 4.13021 10.7817 -0.711195 -0.208085 -0.662887
H 0.64867 1.49229 7.62077 -0.027871 0.350373 0.350104
H 11.384 7.10831 9.98436 0.885024 -0.002651 -0.133608
H 10.1511 7.77969 8.00428 -0.464293 0.373165 1.854432
H 0.39139 9.6949 7.89272 -0.817353 0.331411 0.879186
H 0.64672 9.12468 1.49395 -0.776067 -1.174822 -0.410245
H 4.69976 7.79816 11.8087 0.380355 0.164656 1.202929
H 11.5043 6.32561 4.01234 -0.492059 0.064397 0.149369
H 7.68177 6.71688 7.02325 0.817555 -0.73853 -0.681448
H 1.26932 6.77461 1.10341 -0.022847 0.186856 -0.113495
H 4.31567 11.5639 5.65111 -0.430895 0.201559 -0.035736
H 6.95151 11.6207 7.31861 0.519463 -0.340778 0.985885
H 9.91575 1.49791 11.9509 -0.526502 0.465736 -0.180286
H 0.96608 3.61817 9.32793 -0.168632 0.336705 1.069042
H 5.65915 11.2535 12.0062 0.106871 -0.519631 -0.086329
H 1.57824 6.98813 5.28606 -0.091625 -0.068746 0.689572
H 10.5479 0.03583 6.54795 0.549672 -0.505745 -0.017293
H 10.7192 5.53403 6.79556 0.145821 -0.802022 -0.005548
H 8.4832 7.73053 2.02164 1.516033 -0.367697 -0.23518
H 11.5717 9.06304 8.7801 0.80068 1.013242 0.186274
H 4.87756 1.6354 3.35944 0.164221 0.301598 0.455212
H 0.91957 3.7243 0.38531 -0.967124 0.563639 0.372667
H 0.17075 0.29941 6.80368 -0.191836 -0.291607 -0.32362
H 10.8799 4.70067 0.78388 0.184954 -0.352334 -0.622075
H 8.38278 2.13246 3.56633 0.019717 -0.298415 0.421638
H 3.5066 11.1508 8.55004 0.068478 0.550731 1.061684
H 9.82707 4.03197 2.78581 -0.657362 -0.103234 -0.384047
H 8.99269 0.19707 1.30364 -0.811181 0.3148 1.05655
H 11.1745 3.24621 0.32681 -0.893289 -0.882798 -0.455814
H 5.44903 10.9963 1.71307 0.254642 0.138199 0.162248
H 0.64082 10.0654 2.75462 -0.227724 -0.57286 0.46595
H 9.82527 2.28351 9.66748 -0.579357 -0.51134 -0.052598
H 5.53383 1.71011 1.32085 -0.056922 -0.798865 -0.123861
H 3.18041 2.23848 4.34035 0.398767 -0.110647 -0.296883
H 5.57304 4.44156 7.37166 0.611569 -0.863683 -0.676931
H 0.27478 6.09983 10.1812 -0.955012 1.086664 0.24211
H 0.64 11.1969 0.96994 0.106988 0.406159 0.089741
H 6.80316 7.76162 10.8231 -0.316245 -0.412263 0.292821
H 7.06999 11.2304 1.4251 -0.361637 0.287937 0.310902
H 8.6051 2.04991 0.29614 0.516693 -0.129608 -0.602216
H 2.37284 10.9219 6.54058 1.000931 0.593841 0.312661
H 2.17329 4.63925 0.5996 -0.153488 0.621163 0.397158
H 0.76069 1.02746 9.36722 0.053824 -0.609601 0.700039
H 1.71932 6.6303 6.90772 -0.205445 0.504825 -0.697845
H 4.0583 1.29786 1.44155 1.255296 -1.017014 0.554476
H 6.94845 3.46667 6.0264 -1.327841 -0.550076 0.730711
H 7.95201 0.15605 2.57872 -0.027465 1.232299 0.88347
H 6.38899 11.6506 9.67599 1.157687 -0.551219 -0.666842
H 11.0093 11.2423 7.44343 0.010451 -0.761685 1.175258
H 5.71111 0.25542 11.3991 -0.270213 -0.97135 -0.499806
H 12.2164 5.87934 6.77509 0.403223 0.038108 -0.313825
H 8.92826 1.54618 5.75422 2.306582 0.145716 1.143876
H 6.70902 9.12407 1.66231 0.301494 -1.038572 0.235527
H 1.37657 0.31586 0.95002 -0.483051 0.463509 -0.841714
H 6.96126 4.05101 0.84246 0.250048 1.141724 -0.149557
H 1.75411 2.57837 4.67401 -2.04569 0.3182 1.872957
H 6.09571 11.5796 5.88532 0.498801 1.002571 -0.343533
H 8.79855 1.72992 8.00808 -0.742656 0.207887 0.854653
H 4.68402 5.4639 8.02788 -1.966397 0.596481 0.293817
H 5.29762 10.755 4.69026 -0.302104 -1.361615 -1.163337
H 9.35606 8.17195 9.40071 -2.451728 1.283627 0.585671
H 11.8969 2.01343 9.53271 0.547024 0.097923 -0.169236
H 10.3398 2.27604 6.12125 0.436111 0.735684 -0.613953
H 10.6349 8.63021 6.19608 0.379179 -0.153999 -0.391223
H 3.82933 9.23466 1.09185 0.271474 0.074068 0.381615
H 2.67003 8.30096 4.11514 -0.325239 -1.480879 -0.595853
H 2.09737 1.73636 2.33033 -0.052715 0.175063 0.289988
H 12.0078 7.51175 12.0401 0.644506 -0.214392 0.460637
H 8.78357 5.28151 0.1313 0.287565 0.463623 0.024147
H 0.55599 11.084 9.88714 -1.15334 -0.488393 -0.572447
H 7.9536 4.66908 1.82468 -0.400381 0.525599 -0.414623
H 11.1845 7.51733 0.92253 -0.196337 0.188949 0.605932
H 10.4503 3.5089 10.3088 0.386408 -0.502578 -0.064508
H 9.36676 10.8487 2.50397 -0.369538 0.179829 0.349108
H 8.80546 9.74383 4.56052 -1.203692 -0.184097 0.760921
H 6.42492 9.00691 4.39286 -0.068936 -0.153743 -0.340413
H 12.063 8.75097 4.23926 -0.542881 -0.557096 -0.16454
H 6.43804 6.34332 11.3989 0.463654 -1.216971 -0.220534
H 3.37636 8.40203 11.587 -0.326716 0.306274 0.44043
H 7.59845 9.57492 9.44955 -0.055717 1.671466 0.405001
H 1.61989 8.36812 10.4451 -1.849966 -0.8456 0.155445
H 1.99723 11.4345 10.0569 -0.182211 1.049769 0.08875
H 0.80551 9.7581 5.67553 -0.49678 0.849551 -0.500923
H 7.44071 10.6944 5.98759 0.817376 0.035335 0.325203
H 12.2228 4.57398 2.76511 -0.689513 -0.064291 1.201858
H 5.12583 8.98337 3.41733 0.069816 -0.115941 -0.586374
H 9.64681 6.23465 9.48666 -0.20514 0.600236 -0.661948
H 8.36219 8.76556 5.78149 0.289554 -0.045616 0.163687
H 9.51957 9.30339 2.66258 0.074765 -1.407167 -0.97765
H 2.46535 6.98272 3.17759 0.101985 -0.004273 -0.694296
H 2.50261 9.4404 9.83481 0.718755 -0.418813 0.268874
H 2.23288 5.4817 9.12372 0.328503 0.771828 -0.566311
H 6.17573 4.75297 9.54454 0.956651 -0.236582 0.190782
H 10.3123 7.35779 3.65822 1.315307 -0.820338 0.576565
H 12.2006 2.26121 5.92976 0.658926 -0.196018 0.074526
H 0.78736 11.8667 11.8962 0.288791 0.794747 -0.026142
H 2.75361 9.93477 1.99619 0.804039 -0.18806 -0.063973
H 9.93783 7.2187 6.01461 0.28515 -0.756059 -1.036628
H 4.81019 0.74899 4.52193 0.129362 -0.799439 0.525633
H 6.65708 7.81373 0.86165 0.296171 -0.311629 0.42838
H 3.00754 6.93073 8.97285 -1.073691 -1.979587 -0.767831
H 8.87149 4.47912 3.77984 -0.617652 1.182588 2.102835
H 11.6176 10.2653 4.20808 -0.658566 -0.068997 0.026378
H 11.7483 3.82477 6.27688 0.187023 -0.801432 -1.339393
O 12.1816 9.86035 8.69216 -0.004838 -1.055164 -0.817959
O 1.39025 9.71284 6.45708 0.226843 -1.759577 0.379324
O 8.33974 1.69222 8.91654 0.967654 -0.145276 -1.041053
O 6.1988 3.05563 6.56162 0.977559 0.146172 -0.618035
O 12.3739 9.67852 4.30055 0.501048 0.211142 -0.090105
O 2.31093 2.46129 3.95095 1.41896 -0.335241 -2.037123
O 11.7809 3.04943 5.54045 -0.610728 1.063257 1.22188
O 9.71549 1.60868 6.43357 -2.876648 -1.243508 -0.420782
O 0.99836 9.93249 1.85711 0.443579 1.62443 -0.420433
O 7.15434 11.5969 9.00239 -1.601328 -0.295752 0.585272
O 11.5187 3.9457 0.85938 0.832802 1.130275 0.889531
O 5.51963 11.6876 11.1369 -0.088741 1.653666 0.494029
O 1.16736 7.08515 6.2126 0.418535 -0.421269 0.86286
O 12.0986 7.62694 0.63115 0.131968 0.174739 -0.8534
O 9.98895 8.01501 6.54708 -0.565586 0.941192 1.383753
O 2.14322 6.3974 1.3233 -0.123623 -0.712439 0.555089
O 2.73457 6.0676 8.47922 0.575092 1.483097 1.449472
O 9.52335 7.49171 2.04563 -2.042688 0.041642 -0.091334
O 7.78252 8.65145 9.54014 -0.267583 -0.348661 0.358604
O 2.24928 7.40529 4.01378 0.249109 1.535418 0.693792
O 4.98381 0.99311 1.73083 -1.541292 1.461629 0.014201
O 9.70442 10.1276 3.07917 0.637603 0.667313 1.41856
O 3.40553 11.0449 9.53937 0.088352 0.103655 -0.329815
O 0.38568 1.86336 9.07514 -0.490577 0.680565 0.193021
O 5.58682 5.21837 7.94407 0.427468 0.013607 0.733469
O 7.37702 4.93696 1.0375 -0.224499 -1.668135 0.098009
O 6.23791 7.26463 11.4766 0.178369 1.611763 -0.35681
O 7.10621 11.5953 6.34539 -0.678891 -0.314943 -0.462232
O 10.5551 2.5265 10.2632 0.15601 0.996218 0.083466
O 0.62514 12.1111 0.47886 0.331208 -1.402463 0.282618
O 5.50855 9.2944 4.24012 -0.00516 0.35302 0.811792
O 3.72588 9.76378 1.92975 -0.568094 0.38345 0.358457
O 7.06113 7.25058 7.51081 -0.929013 1.091465 0.616595
O 6.96182 4.57454 10.1353 -0.630188 0.125123 0.120597
O 8.84515 4.06397 2.93552 1.682258 -1.335958 -1.105817
O 3.03332 11.7002 6.72938 -1.328945 -0.202307 -0.45261
O 9.55438 1.81413 0.39425 -0.320023 -0.466384 0.768757
O 11.6084 5.15128 6.98625 -0.486918 0.495423 0.374873
O 8.13333 1.34161 4.11071 0.26165 0.688549 -0.442239
O 5.10941 11.6508 5.04408 -0.592685 0.280361 1.271278
O 9.52709 5.3736 9.89632 0.936685 -1.255617 0.500706
O 8.49963 12.0557 1.98881 0.963634 -0.768817 -2.349644
O 3.97359 8.21408 12.3586 -0.071003 -0.845089 -1.541673
O 12.2933 7.01363 10.3812 0.352325 -0.940286 -0.023388
O 11.056 7.15574 4.32516 -0.577551 1.207947 -0.993484
O 6.94299 8.13369 1.75114 -0.411487 1.170051 -0.579824
O 1.86233 3.80569 0.22089 0.967251 -0.865546 -0.796118
O 11.7538 4.77387 3.61982 0.501137 -0.662143 -1.23347
O 8.05988 9.50756 5.23657 0.710174 0.50441 -1.15226
O 2.13978 1.44422 1.39155 0.651967 -0.119807 -0.042192
O 10.1606 7.83218 9.07705 3.121834 -1.476537 -2.494367
O 1.06414 11.8109 10.2618 0.964474 -0.443951 0.687764
O 0.92401 4.34608 10.0042 1.042634 0.273359 -0.102854
O 11.2129 11.6855 6.63442 -0.632495 1.210813 -1.195751
O 0.79799 1.05251 6.75536 0.463774 -0.24609 -0.928396
O 2.52163 8.54473 10.2457 0.890422 0.852059 -0.881113
O 4.82093 1.69747 4.36191 0.089199 0.811568 -0.943411
O 9.65833 5.75024 12.3988 0.066258 -0.344982 0.184291
O 6.27199 10.6744 1.30635 -0.073065 -0.43845 -0.686957
N 10.1473 11.6887 11.3546 0.27778 -1.221032 0.260034
N 4.37146 8.69703 6.99386 -0.841541 -1.039635 -1.046947
N 3.68801 2.77179 9.46635 0.030078 0.432327 0.417631
N 5.62321 5.19151 4.11084 -1.895757 2.609447 -1.026703
N 1.97141 3.9697 6.77781 -2.037194 -0.839848 0.982809
N 3.68025 1.97533 8.70606 0.053906 -0.456775 -0.389217
N 4.9896 6.06375 3.78034 1.998172 -2.660389 0.956983
N 4.85607 9.32902 7.74563 0.885081 0.887409 0.980037
N 2.91516 4.30075 6.34407 2.133156 0.651579 -1.084345
N 10.394 10.6548 11.6822 -0.2772 1.054184 -0.36391
N 11.7814 0.68558 3.26038 1.388429 -0.611379 0.566587
N 0.35007 0.24463 3.59673 -1.530695 0.584084 -0.495064
Cl 8.75942 5.34498 5.86065 -0.146214 -0.349492 -0.124203
Cl 6.33162 2.16505 11.905 0.424352 0.284574 -0.123513
193
energy=-1086.13616546 config_type=nep2xyz pbc="T T T" virial="-10.957726275697539 2.4791114761872435 -0.9454241705852479 2.4791114761872435 0.7346833323190776 -4.441848992577454 -0.9454241705852479 -4.441848992577454 -11.837711185476099" Lattice="12.4 0.0 0.0 0.0 12.4 0.0 0.0 0.0 12.4" volume=1906.6240000000003 Properties=species:S:1:pos:R:3:force:R:3
H 9.33046 3.11531 10.1389 0.157897 0.148579 0.934413
H 3.35954 11.9441 9.00628 -0.780608 0.117171 1.20526
H 2.17625 6.92579 1.47531 1.176306 -0.199884 -0.757408
H 8.1556 1.88929 3.56508 -0.605057 -0.480433 0.699236
H 7.3093 6.4195 7.98639 -0.174156 -0.041096 -0.027814
H 6.41864 1.26911 8.23607 -0.242061 0.843894 0.081565
H 9.0233 6.40479 6.76422 -0.357638 0.010387 0.605035
H 6.17814 9.20016 10.7945 0.022572 1.05579 -0.259043
H 5.29353 2.79998 6.05813 0.270904 -0.519886 0.342252
H 1.43091 9.40501 7.66376 0.629758 -0.533565 -0.287449
H 11.7921 4.68328 3.7849 -0.748335 0.018608 0.16271
H 8.6128 5.73673 10.7852 0.148337 0.051896 0.355084
H 7.74603 4.03428 11.8387 -0.244423 -0.270743 0.121495
H 2.16534 1.78367 0.31666 -0.195939 -1.060521 0.467438
H 9.09131 9.75968 5.20939 0.493469 -0.199949 -0.205284
H 2.88598 10.5186 11.6917 0.585324 1.3795 -1.350503
H 3.09398 4.01239 10.4388 -0.732255 -0.352779 0.914139
H 0.70235 2.02768 6.23223 -0.329016 -0.534318 -2.043481
H 0.02551 6.34455 9.36949 0.881748 -0.044845 0.198316
H 10.386 4.9907 8.58459 0.894125 0.860213 -0.100675
H 12.1448 8.96013 8.4376 -0.493114 0.529281 -0.499762
H 11.9064 9.22454 1.32347 0.316365 0.866689 0.445129
H 4.34847 7.72653 0.61049 1.082171 -0.165819 0.827757
H 10.5296 8.96505 6.72673 0.344681 0.34917 0.448968
H 9.69425 5.47269 5.7247 0.466877 -1.353518 -0.058272
H 0.66949 7.07094 1.35804 0.553524 -0.001128 0.38937
H 3.61132 12.005 6.31684 0.203956 -0.566968 -0.580423
H 4.97525 8.64108 8.27493 -0.015506 -0.684358 0.21744
H 10.2192 11.8949 10.4462 -0.209115 0.170507 -0.117639
H 2.87777 3.97498 8.89029 0.150761 0.488048 0.485525
H 6.39943 11.4391 11.406 -1.13073 -0.739567 -0.986912
H 2.3879 7.69972 6.09063 1.395989 0.256049 -1.965709
H 11.4468 11.6738 6.10678 0.452147 0.110455 -0.21862
H 0.88598 6.17519 6.5838 1.784446 2.184324 0.65852
H 8.03416 10.8785 5.31957 -0.01026 -0.025416 -0.543308
H 11.1039 7.9146 8.78211 -0.693554 -0.452189 0.039497
H 4.90509 1.97853 3.88432 0.474862 -0.638853 -0.864831
H 1.34921 2.86607 11.0017 0.179021 1.115039 1.060052
H 0.40389 0.68761 5.28942 -0.168468 1.264564 0.583948
H 11.7534 2.6322 9.91023 0.195907 0.218668 0.040133
H 8.11055 2.44431 4.96187 -0.014817 -0.045584 0.512037
H 4.06611 10.9144 10.6622 1.141582 -0.00371 0.108093
H 10.4475 6.39639 3.37238 -0.010091 0.051246 -0.14605
H 9.92261 0.21189 11.9658 0.421147 0.794026 -0.011647
H 0.4637 1.49632 9.82151 0.206275 -0.160737 -0.284795
H 6.22576 0.12675 1.16742 0.152473 -0.000338 -0.322359
H 11.9938 10.076 2.7067 0.755398 -0.06034 -1.76102
H 10.6778 10.395 9.14361 -1.685217 1.235298 0.696785
H 5.50006 2.19231 1.84752 0.221665 -0.189069 -0.332709
H 2.90154 2.44377 3.70901 1.727328 0.040981 0.536257
H 6.20355 3.87427 8.33625 -0.694646 0.86447 0.995241
H 1.63625 6.78361 9.45929 0.05123 -0.373118 0.0546
H 12.2279 11.4624 0.84817 -0.502515 -0.510405 1.211201
H 6.95646 7.29538 1.1883 -0.760158 -0.231715 -0.085338
H 7.75817 12.3085 0.83708 -1.095009 -0.587773 -0.394785
H 10.3067 1.17907 10.6026 -0.262388 -0.615821 0.55333
H 4.6615 0.04969 8.30808 -0.813826 -1.074517 -0.079027
H 1.60052 3.98191 12.2466 0.486677 -1.448879 -1.158113
H 0.95911 3.15158 8.47047 -0.014322 -0.179319 -0.696703
H 2.51665 7.25773 7.61666 0.056944 0.419463 -0.910344
H 4.34906 1.15387 1.47321 0.500043 0.429072 0.647609
H 6.78913 2.79029 6.71362 -2.039203 0.073328 0.143206
H 8.81074 1.39395 1.15554 0.197087 0.460551 0.674802
H 6.34365 8.16853 11.9102 -0.338235 -0.02709 0.798286
H 0.12788 10.9091 5.19302 -0.096531 -0.057365 0.334891
H 6.35685 11.3076 9.84516 0.490172 0.77138 -1.314978
H 0.19004 5.48103 5.48279 -0.702236 -0.031265 -1.432232
H 9.64962 1.0252 6.37569 -0.222378 -0.77411 0.603742
H 6.74532 10.6045 2.2278 0.520133 0.905307 -0.949981
H 1.00009 0.19601 0.62736 -0.391399 0.606997 -0.722427
H 7.86698 5.32373 1.55683 -0.087894 0.519838 -0.532686
H 1.4746 2.13353 4.01979 0.3618 0.207467 -0.970263
H 4.41743 10.0685 8.20485 0.737815 -0.141232 -0.82375
H 6.81565 12.3901 7.55131 -0.328376 -0.257545 0.614928
H 5.19442 4.30976 9.49567 0.759322 0.189929 -0.616363
H 3.87952 11.3128 4.72079 0.131981 0.768325 1.858132
H 11.481 5.72323 7.70581 0.087338 -0.412329 -0.797565
H 0.95563 4.0251 7.15375 -0.425072 0.926846 -0.414607
H 9.72886 12.2569 7.45404 -0.109012 0.120723 0.605507
H 8.09419 8.72508 8.26839 0.631679 -2.739736 -0.043543
H 2.68514 8.98714 0.80258 0.254868 -0.349603 -0.169852
H 2.97638 8.8541 3.98604 -0.682013 -0.806248 -0.065531
H 1.93206 1.51012 1.80061 0.290225 -0.246921 0.706968
H 0.23666 7.23341 11.4675 0.325375 -0.034812 -0.407096
H 8.25874 7.27211 10.8607 0.653948 -0.701317 -0.261351
H 0.76765 11.7316 9.04682 0.328171 0.497189 0.308861
H 8.86238 6.45955 1.69496 0.415121 0.418091 0.757132
H 11.3707 7.03459 12.2789 -1.546785 -0.735462 -0.040104
H 9.11237 10.3872 9.06119 0.266701 1.374658 0.496272
H 9.61383 0.09854 1.91753 0.005918 0.746292 0.172772
H 10.3319 0.16656 3.98988 0.27664 -0.327098 -1.12977
H 4.9799 10.1516 3.4668 -1.410883 0.083938 0.100153
H 0.8751 8.90357 4.40991 -0.256478 1.185824 -0.524463
H 6.21128 8.54964 1.83229 -0.060365 -0.726941 -1.15174
H 3.60058 7.39388 11.7824 -0.636767 -0.319905 -0.132268
H 8.41483 6.5701 9.11364 0.23383 0.746674 -0.928333
H 11.9028 9.65595 11.6552 0.736378 0.825135 -1.015714
H 1.87817 12.1822 10.0116 -0.177828 -0.123177 0.322229
H 0.71024 10.7162 7.27117 -0.24805 -0.097382 -0.150118
H 7.18673 0.19466 5.63771 -0.169242 -0.291749 -0.132832
H 0.20685 5.91468 3.17189 -1.156142 -0.240954 1.217848
H 3.46622 10.6132 2.99484 0.018396 0.066807 -1.055225
H 9.67684 2.50468 8.84296 0.329749 -0.259182 -0.868078
H 5.85104 11.7778 5.79553 0.028112 0.05192 0.022685
H 9.69317 11.3004 3.72602 -1.20375 -1.468365 0.505998
H 2.0278 7.69783 3.31892 -0.107126 -0.154056 -0.437921
H 0.59463 9.87706 10.5577 0.163371 0.129282 -0.091265
H 3.92317 6.21134 9.66882 -0.244592 0.821136 0.236477
H 7.39115 4.15934 10.2369 -0.89878 0.085566 0.255677
H 10.2219 7.88754 5.77377 -0.379484 -0.925975 -0.493688
H 10.197 3.3788 4.63418 0.18672 -0.029598 0.159553
H 0.04315 11.6828 11.8225 0.531874 0.332509 -0.508101
H 1.55061 10.0365 1.13403 1.786213 -0.180287 -0.340556
H 7.08139 9.75235 8.06889 -1.235695 0.71721 -0.266172
H 4.13709 1.09939 4.9267 -0.321647 -2.650815 0.454374
H 7.44607 9.89453 3.44555 2.047471 0.245916 1.456905
H 4.53166 7.6312 10.0437 1.303918 0.330879 0.437209
H 9.14593 7.01301 3.88637 -0.394992 0.011993 0.295585
H 11.767 9.22121 4.78982 -0.387197 0.114352 0.150804
H 11.661 2.73532 4.56511 -0.964728 0.640048 -0.373244
O 11.1792 8.77706 8.35853 0.399889 -0.173764 0.535634
O 0.91805 10.1243 8.03571 0.118594 0.675771 0.224259
O 6.53863 0.34647 8.45292 0.236467 -0.621008 -0.461308
O 5.78408 2.78597 6.92217 2.241236 0.236067 -0.255304
O 0.13837 9.62672 4.32904 0.256205 -1.211682 -0.065005
O 2.08676 2.35849 3.24037 -2.469331 -0.590714 0.200745
O 11.0126 3.38482 4.11421 0.894827 -1.592416 0.434896
O 9.58001 0.04744 6.52625 0.609286 0.512463 -0.924775
O 12.17 10.1144 1.67164 -0.603117 -1.288581 1.494055
O 6.1717 8.25623 10.9601 -0.008109 -0.913076 -1.26657
O 0.32465 2.47494 9.90538 -0.214381 0.266789 0.285075
O 5.90798 10.9974 10.6138 0.475569 0.060034 2.498569
O 1.92651 7.5411 6.88415 -1.059559 -0.313529 2.907278
O 12.1965 7.48107 12.3099 0.937771 0.928281 0.27854
O 7.98983 9.64814 8.33061 0.533271 1.734268 0.240988
O 1.39514 6.89057 2.02106 -1.684193 -0.087818 0.037014
O 3.73048 7.18127 9.78825 -0.953161 -1.138313 -0.527895
O 8.6066 10.4078 4.65915 -0.459301 -0.094815 0.303442
O 8.16694 6.83657 8.13445 -0.151964 -0.355923 0.585113
O 2.2695 8.15325 4.14217 0.775923 0.856076 1.049744
O 5.122 1.31987 2.06739 -0.607845 -0.36122 -0.640192
O 10.302 11.8831 3.26754 0.754353 1.863995 0.609444
O 3.14358 11.0804 10.8515 -1.842747 -0.944623 1.39616
O 1.36928 3.26844 7.57148 0.368213 -1.077823 1.023586
O 6.11807 4.4583 9.16093 -0.229915 -0.903037 -0.76277
O 8.08442 6.21586 1.1775 -0.784174 -0.779471 -0.557713
O 6.12742 7.89457 1.06684 0.761918 0.765865 1.87773
O 5.0162 9.42398 7.73168 -0.438198 0.883759 0.471495
O 9.88426 11.0204 9.39182 1.334457 -2.295484 -1.235409
O 0.01815 12.2226 0.26388 1.207981 0.679359 0.737263
O 3.9661 10.2037 3.69869 1.719798 -0.36613 0.199829
O 2.53917 9.9465 0.87113 -2.07505 0.529099 0.562
O 9.40418 6.35362 5.86927 -0.025178 1.400894 -0.519773
O 8.07921 4.16428 10.936 1.161824 -0.052982 -0.491559
O 9.62643 6.85833 3.07029 0.843909 0.156199 0.03334
O 3.83563 11.8691 8.20219 1.86392 0.773144 -1.315043
O 10.4764 0.29352 11.1151 -1.031277 0.158001 -0.837476
O 0.29643 5.47574 6.42844 -1.474212 -1.909414 0.820201
O 7.94402 1.61203 4.49816 0.499211 0.47036 -1.268748
O 4.06835 12.0459 5.44455 -0.24303 -0.942499 -0.372109
O 10.05 2.56567 9.74292 -0.530297 -0.10121 0.558025
O 9.27976 0.54281 1.07874 -0.020408 -0.965973 -0.982986
O 3.47373 7.41765 0.351 -0.342635 0.246654 -0.673221
O 0.75078 6.86618 9.82171 -1.077423 0.345091 0.407898
O 10.3687 8.84553 5.77487 0.30885 0.220338 0.053335
O 6.65091 10.0167 2.96581 -3.41671 -0.884961 -0.662112
O 2.02309 3.24302 11.7126 -1.118882 0.411957 0.418238
O 11.8696 5.67186 3.83018 2.305808 0.806381 -1.512689
O 6.80712 11.7824 6.04511 0.015487 0.635992 -0.282454
O 2.1075 0.99117 0.96691 -0.045977 1.256063 -0.891084
O 11.0756 5.70363 8.58356 -0.730757 -0.390134 0.663303
O 1.06349 0.10592 9.57464 0.077394 -0.886436 -0.221336
O 3.22876 4.51778 9.64238 0.384691 0.333439 -1.851932
O 0.0174 11.5932 5.92573 -0.45931 0.06452 0.101489
O 0.4377 1.70849 5.27341 0.483388 -0.195891 1.764682
O 12.356 10.359 11.1005 -0.941251 -1.768454 0.477226
O 4.43005 1.95808 4.70284 0.209695 4.177514 0.286068
O 8.941 6.63504 10.514 -0.890397 0.615142 0.484278
O 6.82496 11.9447 0.6387 0.809462 0.338859 0.749011
N 9.20214 9.18684 0.50823 0.001972 0.042276 0.062744
N 5.81185 7.14658 5.4105 0.040754 0.07321 0.077375
N 4.35059 2.18896 10.4189 0.794008 0.36917 3.337072
N 3.63684 4.59114 2.55402 2.530138 1.148936 -1.904421
N 2.77109 4.28632 5.4067 -2.813292 -1.983473 -0.275042
N 4.51027 2.45629 11.5033 -0.105585 -1.097953 -3.230117
N 4.50244 4.93302 1.91869 -2.328009 -0.978323 1.680977
N 6.71576 7.36648 4.8152 0.004803 0.031288 -0.107398
N 3.64265 4.92653 5.48458 2.808697 2.101104 0.382001
N 9.0696 9.59961 1.52534 0.09109 -0.057544 -0.235779
N 11.5882 3.18613 0.59243 0.371567 -0.857922 0.208609
N 11.0807 4.14233 0.40191 -0.428499 0.893286 -0.147772
Cl 9.08111 3.17151 6.9719 -0.10885 0.14225 -0.134146
Cl 7.61557 3.23111 1.57158 0.004463 -0.413116 0.017818
193
energy=-1085.70695741 config_type=nep2xyz pbc="T T T" virial="-5.109819741502769 2.4934393303445908 -5.486413821788004 2.4934393303445908 -3.217626676478635 -4.469754987593218 -5.486413821788004 -4.469754987593218 -6.540558320929337" Lattice="12.4 0.0 0.0 0.0 12.4 0.0 0.0 0.0 12.4" volume=1906.6240000000003 Properties=species:S:1:pos:R:3:force:R:3
H 8.11787 2.89146 9.45507 0.254411 0.21645 -0.353466
H 4.61183 11.4054 7.79864 0.215775 -0.014597 0.001116
H 2.04975 6.34932 0.82722 0.406335 0.507006 -0.386531
H 10.5295 1.09003 4.66531 -0.401706 0.618115 -0.286307
H 5.73249 6.69019 9.74078 -0.346627 1.60043 0.452774
H 7.33087 1.47449 6.45443 0.247786 0.389664 -0.685155
H 8.53949 5.97706 9.53442 -0.383882 -0.608655 -0.389041
H 3.34373 9.58326 10.2301 0.036007 -0.689892 -0.111679
H 5.23117 3.81737 5.90379 0.978928 1.37003 0.245571
H 1.61033 9.67994 7.42632 1.59986 -1.437337 -0.196603
H 0.41202 5.07966 3.55833 0.399249 -2.152472 0.136267
H 5.9223 7.7294 1.61649 0.192747 0.290507 0.570409
H 7.43365 3.98071 11.277 -0.620082 0.277883 -1.217538
H 2.13319 1.93786 0.04725 0.122168 0.421107 0.057139
H 11.4227 11.3516 4.33624 0.217752 -0.535645 0.583438
H 3.22628 12.2728 11.5037 0.130858 -0.060559 -0.124044
H 3.09046 3.81144 10.4632 -0.210699 0.328535 -2.194476
H 2.16969 1.74784 5.78014 -0.574648 -0.758672 -1.611586
H 11.7252 5.6842 10.7055 -1.12192 -0.88464 0.043457
H 10.5979 4.73832 9.13867 -1.015978 0.326536 0.252014
H 11.2895 7.99816 7.79409 -1.948098 0.561367 0.977024
H 11.5943 9.55809 1.52896 0.198668 0.155793 -0.661656
H 3.94303 7.95835 0.53108 -0.99883 -0.107883 -0.336838
H 9.81259 8.40394 6.5397 -0.465455 0.374665 -0.383934
H 8.69705 5.58652 7.96908 -0.119717 0.036611 0.355862
H 0.8332 5.86023 12.36874 -0.03114 0.23811 0.240835
H 5.54609 11.2131 5.73744 0.823 0.209671 -0.39572
H 3.78167 8.78826 6.67515 -1.420633 -0.453867 0.409555
H 10.1257 12.075 9.84051 0.264323 0.997322 0.289758
H 2.90525 3.17091 8.97145 0.003312 0.098637 -0.379208
H 6.17704 10.8532 0.22892 0.20372 0.084013 -0.264307
H 0.80485 7.22962 6.26237 -0.485423 -0.105634 0.051334
H 11.6719 1.53403 6.3445 1.143272 -0.954935 0.796153
H 12.36714 4.97304 6.51141 -0.140819 0.087313 0.071861
H 9.98004 11.674 3.8972 -0.522824 -0.062234 -0.012004
H 9.97366 7.44703 8.49794 -0.357276 -0.258085 -0.020188
H 4.07379 1.96737 4.58821 1.00847 0.065216 1.063144
H 1.32375 3.13457 11.4399 -0.196551 -0.160268 -0.338751
H 0.94154 0.95391 5.32929 -0.693282 -0.578722 0.437192
H 12.1063 2.92709 9.91243 1.665966 -0.998219 0.624959
H 9.7601 2.56008 4.92534 0.634185 -1.096107 0.241494
H 4.37988 11.2339 11.62 1.117969 -0.785519 0.569191
H 11.1819 6.05984 4.14978 0.1045 -0.000357 -0.130164
H 10.0417 1.03841 10.9828 -0.157652 -0.312829 1.344308
H 12.3466 1.48416 10.4435 0.144179 -0.102097 -0.0123
H 6.95283 12.2707 1.33788 0.006876 0.376287 0.146733
H 11.0857 10.7993 2.35679 -1.296781 1.149257 1.643437
H 10.1072 9.83237 9.16135 0.298649 0.982642 -0.222692
H 5.70782 1.73666 1.91272 0.217051 1.607573 -0.649241
H 2.69194 11.8125 2.75107 0.043562 0.793738 0.049364
H 5.70554 4.99312 7.97856 -0.064201 0.297227 -0.553035
H 0.53837 6.35079 10.4324 0.809305 0.56619 -0.011609
H 12.0306 11.2742 0.54228 0.354426 0.385011 0.143894
H 6.60733 7.53475 3.83971 -1.163435 1.252499 -0.660916
H 8.33595 12.0358 0.62806 0.374699 0.331121 -0.11774
H 9.5751 1.21426 9.51442 0.254848 0.490416 -0.609453
H 5.98634 12.0638 7.465 0.007639 -0.430299 -0.166314
H 1.74975 4.18737 0.14249 0.324409 0.157092 0.252335
H 2.65161 1.12896 7.97438 -0.639408 1.942587 -0.52989
H 0.74907 6.63511 7.69034 0.053408 -0.215598 0.099308
H 4.86404 0.57184 2.36104 0.034536 -0.072729 0.157498
H 6.64095 4.58428 5.89136 -1.243298 -0.028721 0.148575
H 9.12129 1.97683 0.23746 -1.016768 1.447616 0.587533
H 4.06294 8.17212 10.041 0.132495 0.429318 -0.251037
H 11.5619 0.11335 6.71757 -0.878016 -1.345686 0.201552
H 6.10846 10.1225 11.3428 1.402822 -0.110074 -2.712579
H 11.0224 4.2584 6.19455 0.766215 -0.341854 0.681453
H 8.89186 11.9581 5.82676 -0.384578 0.158968 0.729592
H 8.95903 9.38682 3.12794 -0.225297 -0.176418 -0.120194
H 0.75561 0.0215 12.16523 0.173169 0.159417 0.934125
H 8.98297 7.74662 1.82315 -2.078701 -1.101475 -1.992165
H 2.4775 0.76868 3.63309 0.054169 -0.603784 -0.606433
H 2.41968 8.1692 6.17642 0.426713 0.067839 0.319156
H 7.24005 1.37764 8.02936 0.285167 0.02887 -0.749414
H 4.68834 4.63133 9.03734 -1.632407 -0.596069 0.448259
H 5.03722 10.8132 4.40755 0.410115 0.173384 -0.562288
H 11.6685 4.2157 8.23626 0.212109 -0.293565 -0.123956
H 1.5741 2.37632 7.65976 -1.519351 -0.154237 0.351068
H 9.23446 11.4027 7.3483 -0.407966 0.20524 -0.324897
H 6.58786 9.05768 9.71236 -0.049646 -0.68063 0.037099
H 2.35277 9.46086 1.27506 -0.77336 1.059803 1.839106
H 2.25419 8.5521 4.5366 0.26618 -0.239667 -0.46974
H 2.45451 0.80993 1.10046 -0.271791 0.005793 -0.011879
H 12.108 7.60366 0.0844 0.064526 0.210259 -0.263888
H 5.83317 8.88918 0.47797 -0.563633 -0.296792 0.531768
H 2.28235 11.5534 7.99291 -0.396832 -0.072639 0.23623
H 9.74452 7.33923 3.12541 -0.048934 0.166751 -0.262919
H 11.2501 7.73477 1.33726 -0.00851 0.218074 0.027069
H 8.82514 10.5643 9.4362 -1.420273 -0.063727 0.470885
H 10.5549 1.33992 0.463 -0.233438 0.246359 0.538096
H 11.9536 2.19164 2.27135 0.361547 0.500843 0.548107
H 4.45564 8.66269 3.80239 -0.844945 0.768271 0.833847
H 12.3943 9.32741 4.99898 -0.146086 0.202163 0.444937
H 6.87308 9.00492 3.52539 0.127247 0.624721 -0.137072
H 3.00082 8.08901 11.6864 -0.02685 0.406776 -1.784712
H 5.70939 7.60001 11.0853 0.13752 -0.244145 0.009864
H 0.64033 9.88795 9.55815 -0.304886 0.394304 -0.554542
H 3.16404 11.8931 9.26997 0.188005 -0.003346 0.893
H 0.42928 10.4664 6.99523 0.163683 0.144946 0.807427
H 7.77334 1.11085 3.77703 -0.329569 0.073532 -0.274967
H 0.39585 6.24535 2.59337 0.181862 -0.007094 -1.628768
H 3.1745 9.38189 3.26004 -0.115763 0.530921 0.106683
H 8.85941 2.80667 8.04781 0.175073 0.226649 -0.224565
H 7.07363 12.3464 4.56088 -0.322071 -0.230379 -0.547597
H 11.6142 0.68901 2.38481 -0.059895 0.323178 -0.052328
H 1.05931 7.39459 4.17254 1.090876 1.289014 1.505504
H 1.01127 9.14647 10.7991 0.004681 -0.129508 0.363668
H 2.34287 5.42362 9.25183 -0.010062 -0.609596 -0.023799
H 6.56375 4.22981 9.80702 -1.27725 0.469538 0.155311
H 10.1035 7.82123 5.1371 0.001821 -0.427274 -0.359137
H 11.6414 3.03149 4.21449 2.057007 -0.530376 -0.546389
H 0.19228 11.1041 11.3828 -0.034171 -0.604897 -0.294665
H 1.13781 10.075 2.33069 2.528296 -0.17361 -1.112074
H 6.60493 10.3577 8.91694 -0.28617 0.175515 0.391617
H 4.9249 0.90616 5.21558 0.575533 -0.845273 0.048734
H 8.60618 9.6903 4.59762 -0.590588 0.459564 -2.02894
H 2.33972 6.97424 9.25793 0.467273 0.954178 -0.042851
H 9.73059 5.93489 4.86522 -0.884177 -1.447823 0.888078
H 10.9457 9.69327 5.47801 -2.248633 -1.022937 0.298052
H 0.85729 2.60932 4.09276 -1.131039 0.509271 0.056718
O 10.3728 8.28507 8.19249 2.582005 -0.067054 -1.169746
O 1.06547 10.3787 7.76271 -1.671778 1.059427 -0.500477
O 7.01921 0.9431 7.17619 -0.788957 -0.842326 1.160384
O 5.66195 4.71806 6.07739 0.34627 -1.666561 -0.168314
O 11.8257 10.0119 5.42819 2.952043 1.120953 -0.529257
O 2.8724 0.38538 2.79066 0.15737 -0.527688 0.14377
O 0.12871 3.19437 3.72119 -0.484459 0.542883 -0.015758
O 9.53943 11.5877 6.45146 1.03978 -0.130487 -0.512824
O 11.6955 10.5215 1.70784 1.535678 -0.888052 -1.58102
O 3.1784 8.62019 10.0763 -0.126578 0.695129 0.109541
O 0.45464 2.28737 10.2766 -1.893334 1.275204 -0.751297
O 5.56393 10.3109 12.0699 -0.775521 -0.016546 2.950667
O 0.2007 6.76935 6.88782 0.250156 0.408 0.195529
O 11.974 8.18338 0.85699 -0.376704 -0.983434 0.325141
O 6.9189 9.96664 9.7657 0.531026 0.639232 -0.799631
O 1.36219 5.67457 0.77941 -0.417688 -0.520191 0.440552
O 1.76355 6.21604 9.25917 -0.875249 0.035926 -0.079868
O 10.9063 11.8881 3.7108 -0.418803 0.6304 -0.094321
O 5.65664 7.66265 10.1122 0.106561 -2.044479 -0.288472
O 1.39732 8.14474 4.82753 -1.666817 -1.53772 -1.30461
O 5.78479 0.84345 2.1903 -0.26202 -1.418256 0.507998
O 11.7678 1.40643 1.74299 -0.308766 -0.953719 -0.554749
O 3.77758 11.6304 10.9987 -2.367685 0.975381 -1.228922
O 2.48468 2.14396 7.61687 1.77306 -1.622875 0.147105
O 5.45462 5.18388 8.90283 1.318279 0.634686 -0.346053
O 9.59214 8.05171 2.43406 2.537762 0.372101 1.643729
O 6.14929 8.33324 3.42447 1.195778 -1.98242 0.871656
O 2.87104 8.51614 6.97403 1.085463 0.350603 -0.24276
O 9.74225 10.7672 9.27041 0.854098 -0.778245 -0.222168
O 12.371 11.7892 12.0771 0.055094 0.182774 -0.391455
O 3.63548 9.18662 4.1154 1.413133 -0.791909 -1.003702
O 2.15855 10.0643 2.11612 -1.695951 -1.147714 -1.190007
O 9.0128 6.14682 8.70554 0.395837 -0.120581 0.116587
O 7.39743 4.1727 10.2631 2.54819 -0.761693 1.603419
O 10.2987 6.44863 4.31708 0.705018 1.009788 -1.029649
O 5.52709 11.1726 7.52803 -0.116049 0.607553 0.029538
O 10.2862 0.7312 10.0457 -0.589074 -1.379928 -1.41528
O 11.9092 4.11477 6.63175 -0.697309 0.351157 -0.580769
O 10.6049 2.02743 4.95332 -0.864514 0.533831 0.210031
O 5.78051 11.3397 4.76842 -1.626272 -0.601009 1.355814
O 8.55434 2.26791 8.78675 -0.006577 -0.019726 1.038056
O 9.69953 1.27133 12.3762 1.029884 -1.796799 -0.686242
O 2.96387 7.93622 0.21621 0.709608 -0.086919 2.877698
O 12.2442 6.35678 11.1365 0.544003 0.284005 -0.388354
O 9.62785 8.5476 5.56845 0.109178 0.533393 1.202164
O 8.32782 9.94117 3.62917 0.44302 -0.082655 2.445324
O 2.0667 3.4164 12.0179 0.142562 0.301651 -0.355987
O 0.32915 6.0223 3.51037 -0.242551 1.619752 1.144579
O 7.90342 0.43919 4.44718 1.023602 0.259948 0.618674
O 2.16436 0.96293 0.17163 -0.123442 -1.469818 -0.022247
O 11.4074 4.23646 9.19699 0.456486 0.048004 0.013991
O 2.94275 12.176 8.37507 0.358961 -0.257891 -0.805682
O 3.15956 4.00552 9.43739 0.158651 -0.555439 2.663956
O 12.2372 0.77723 6.74883 -0.612346 2.254158 -1.026898
O 1.71026 1.36593 4.91681 1.643723 1.369863 1.762514
O 0.34622 9.76929 10.4795 0.367604 0.075528 -0.006748
O 4.72985 1.83387 5.32794 -1.403371 0.979142 -1.279005
O 5.51125 7.99925 0.79334 0.006418 -0.109069 -1.260819
O 7.44206 11.7059 0.70798 -0.328071 -0.294811 0.24238
N 8.84568 7.66267 11.5158 0.797499 0.657541 -0.441664
N 6.86724 7.91437 6.6123 -4.243047 -1.451201 0.030748
N 5.61738 1.22405 10.9668 -1.487304 0.163878 2.279334
N 4.14429 4.98358 2.0539 -0.421966 3.99065 0.589288
N 2.49548 5.15287 6.41678 0.549087 -2.10633 -2.165855
N 6.26235 1.24866 10.0899 1.435022 -0.112106 -2.053277
N 4.26164 3.92091 1.89425 0.469633 -4.02257 -0.540532
N 5.78923 7.55491 6.58386 4.22203 1.524793 0.107257
N 2.63063 4.37014 5.62111 -0.316041 2.082132 2.009101
N 9.62307 8.30029 11.0394 -0.852635 -0.655253 0.620008
N 10.7981 3.76851 0.29815 0.126727 0.079404 -0.366802
N 11.1029 4.48557 1.07788 0.043121 0.336667 0.338036
Cl 8.75011 4.28892 5.95168 0.117791 0.092425 0.241657
Cl 7.74163 3.6532 0.9086 -0.08126 -0.272738 -0.299355
193
energy=-1087.0191036 config_type=nep2xyz pbc="T T T" virial="-7.650550510735481 -4.220314662848897 2.844769262476961 -4.220314662848897 -8.170649236604982 -0.7827601851394135 2.844769262476961 -0.7827601851394135 0.369192148984678" Lattice="12.4 0.0 0.0 0.0 12.4 0.0 0.0 0.0 12.4" volume=1906.6240000000003 Properties=species:S:1:pos:R:3:force:R:3
H 2.79325 5.24991 0.50483 -0.306037 0.048053 -0.393051
H 4.03646 9.85802 6.97332 -0.144356 0.343614 0.072522
H 2.46673 7.93307 2.83304 -0.570628 -0.289119 -0.43239
H 8.73525 4.03074 3.49357 0.082796 0.783416 -1.113456
H 9.59009 4.15671 10.742 -0.176574 0.658044 0.57763
H 7.84701 0.66149 4.43553 -0.012598 0.036429 -0.494985
H 9.26882 4.16101 7.33583 0.145598 0.38979 -0.365565
H 6.39349 8.43107 8.71271 1.170977 -0.689426 -0.047766
H 6.49697 3.10949 5.02946 0.969487 0.382753 -0.000977
H 10.7586 7.80447 10.5377 -1.397717 -0.475998 0.645724
H 1.06862 6.44502 6.42798 -0.291113 -1.224925 -0.395233
H 11.4338 6.4963 1.22186 -0.046551 0.096976 0.559315
H 7.56502 5.20249 8.20254 -0.021163 -0.126544 0.04794
H 3.76158 1.69282 12.0851 0.095121 -0.379444 0.075515
H 9.14034 7.77404 3.95212 0.198441 -0.338082 -0.504168
H 3.14921 8.94584 12.3366 0.424172 -0.449379 1.241494
H 4.41161 6.13917 12.2313 -0.081206 -0.399834 0.212291
H 3.27593 12.1457 2.73466 0.329391 -0.469064 0.176331
H 10.7293 11.2386 11.7661 0.326566 -0.142975 1.199822
H 5.46927 4.64658 10.8803 -0.042908 -0.453517 0.135743
H 12.3956 10.4763 7.53551 -0.51767 0.162228 0.5944
H 11.6016 8.67909 1.99417 0.369833 -0.228239 -0.229121
H 3.98881 9.41105 2.12723 0.117469 0.809211 0.32201
H 6.56096 11.1562 0.71559 -0.275385 -1.811959 1.158734
H 9.82057 5.07996 8.48513 -0.621992 -0.439081 0.204252
H 1.07361 7.22375 2.53103 0.532282 0.182596 0.476724
H 5.779 11.1068 6.23471 -0.68324 -0.697643 -0.76477
H 4.36958 8.85267 8.65628 0.120762 -0.996629 -0.171358
H 12.0011 2.2671 12.3865 0.097912 -0.623756 -0.844596
H 4.76726 5.40954 1.26239 0.536529 -0.442021 0.012647
H 5.93849 0.49996 7.52945 -0.152422 -0.097167 -0.632846
H 1.68359 7.82907 10.4911 0.335353 0.234896 0.524822
H 12.3754 12.2816 4.36407 -0.203255 -0.614142 -0.090094
H 12.219 4.46696 10.4366 -0.071113 0.012921 -0.141347
H 8.01124 7.54388 1.94503 -0.185907 0.119169 -0.605307
H 11.3503 8.97271 8.99669 -0.176779 -0.5132 -0.562858
H 8.43793 2.35572 0.5833 -0.42494 1.389762 -0.897712
H 11.8743 4.25751 1.18934 0.340765 0.770477 0.911322
H 2.03077 0.76138 2.79337 0.031237 -0.079423 -0.054999
H 0.23574 4.23953 3.33787 -0.471029 -0.162828 0.771646
H 8.60208 5.51894 2.86901 -0.123199 0.215334 -0.014625
H 2.37517 9.81215 11.4149 -0.185455 0.488034 -0.028161
H 10.5029 7.88164 5.11939 -0.498566 0.654102 -0.935926
H 0.05242 1.57603 2.5064 -0.403642 -0.186622 -0.821116
H 11.6816 3.59333 4.47214 -0.064149 0.638476 -0.096363
H 7.15487 11.8849 11.093 -0.108467 0.101954 0.284093
H 11.4895 9.87497 2.93087 0.017221 0.588176 0.160499
H 8.58133 4.34201 0.89288 -0.882976 -0.762915 -2.140301
H 5.42214 0.57306 10.7745 0.159455 -0.309014 -0.037598
H 5.8354 1.04597 2.52278 -0.306638 0.720313 -0.688408
H 5.32496 4.9303 7.31595 -0.093577 0.744488 0.38331
H 10.1366 10.7656 0.87463 0.071124 0.482821 -0.984411
H 0.73344 2.7053 10.7165 -0.162249 0.754755 -0.715716
H 5.92619 7.15682 0.7116 0.529428 0.695736 -0.050165
H 8.54115 11.7344 11.8523 -0.936848 -0.234741 0.881391
H 10.5879 2.2031 0.79901 0.656755 -0.056012 -0.193775
H 3.13854 8.7198 6.65607 -0.403408 -0.234777 0.495292
H 0.77266 5.08557 1.16062 -0.160276 0.031599 0.064309
H 10.5164 11.0565 8.57051 -0.884605 0.625444 -0.199678
H 1.61492 6.59609 9.63216 1.088028 -1.246438 -1.081904
H 5.59414 1.31996 12.2007 0.021345 -0.475015 -0.565306
H 5.31593 2.36831 4.56863 -0.955388 -0.720324 -1.718151
H 0.36352 2.20619 3.81894 0.701135 0.044596 0.214869
H 7.28664 7.14054 8.39935 -0.72474 -0.372185 0.228415
H 0.00555 11.1049 5.39056 0.992877 -0.566682 1.418374
H 5.72013 1.1685 6.08171 0.280606 0.038964 0.433765
H 1.27569 4.70543 10.9561 0.200905 0.033182 0.507892
H 9.89538 1.40407 4.95086 -0.57865 -1.024031 0.616704
H 7.89622 9.65065 10.8353 -0.346473 -0.26565 -0.20205
H 1.56471 1.79864 11.5446 1.770237 -0.387729 0.974063
H 6.78797 4.50774 2.42825 -0.932873 0.020327 -0.32324
H 4.36457 1.28863 2.2777 -0.868356 -0.023194 -0.322231
H 0.47182 11.2413 12.0171 -0.438951 0.148555 -0.328992
H 7.85278 1.0666 2.90295 0.244782 0.052083 0.151737
H 4.75661 3.83803 6.48171 -0.985724 1.641842 0.0216
H 6.35755 9.75077 5.72047 -0.099718 -0.097278 0.253216
H 5.92083 3.08568 11.0311 -0.95175 -1.372078 0.045416
H 8.18856 11.4956 8.2776 0.872045 0.377637 -0.783735
H 10.5512 12.3468 5.09627 -0.822404 0.208632 0.070727
H 6.31416 9.55173 1.25384 0.093631 0.945689 -0.322101
H 0.74301 10.3898 1.44018 0.590267 0.325338 -0.309043
H 2.47843 7.21759 4.87155 -0.036944 -0.241069 -0.254637
H 2.69415 1.47452 0.90512 0.681473 -0.947835 0.729047
H 9.3522 8.12403 11.3245 0.367388 -0.537332 -0.595893
H 9.59968 7.06064 2.16469 -1.752048 0.724638 -0.241069
H 11.8281 11.0977 9.55544 -0.490102 -0.042571 0.196487
H 5.79917 3.34339 2.18755 -0.544321 0.855924 -0.229339
H 10.7027 7.5739 0.38993 -0.491975 -0.036638 -0.766119
H 7.55746 4.16179 11.89 0.550505 0.012098 0.776682
H 9.48067 11.3181 3.63113 1.008513 0.383435 0.199928
H 9.02666 12.1237 6.97278 -0.021745 -0.532231 1.129917
H 4.67212 10.6762 4.07437 -0.208437 0.155737 0.743409
H 1.46707 10.103 7.21796 1.569685 -0.247805 0.247724
H 6.86162 8.12524 12.1765 0.052781 -0.182068 0.834205
H 4.33866 7.96647 1.78661 1.329609 -1.580157 -0.289154
H 10.0032 5.69456 10.5741 -0.633024 1.2448 1.07714
H 3.69515 5.42075 10.0506 0.890303 0.831152 0.88201
H 4.26907 8.86695 10.0864 0.336353 -0.307664 0.899701
H 12.2028 7.64353 9.23587 0.21535 -0.262749 0.059147
H 8.22658 10.18 6.65066 0.049145 -1.22837 0.180299
H 0.47649 5.28333 5.51999 -0.085708 -0.149172 0.199358
H 5.24286 11.0065 2.68094 -1.442581 0.050605 0.038861
H 2.18031 3.82605 0.34882 0.192355 0.150816 -0.464719
H 10.8836 7.51626 7.72589 0.170205 -0.475403 -0.264439
H 8.14364 10.9283 3.31471 1.360368 -0.860844 -1.363554
H 3.58438 6.52783 5.8636 -1.784242 1.014048 -0.211614
H 4.58699 6.76303 10.1245 -0.052705 -0.085966 -0.009197
H 3.12737 4.8088 8.06881 0.327245 -0.232568 -0.041521
H 6.40829 4.98092 9.27306 0.522498 0.440887 -0.939196
H 12.2957 8.70583 4.20993 -0.786182 -0.928343 0.404583
H 10.1082 6.23829 6.8856 -0.233581 -0.210249 0.24876
H 0.25888 0.04235 11.0683 -0.398885 0.300495 -0.106242
H 1.80706 11.602 1.32327 0.102004 0.079983 0.076305
H 7.76972 8.65725 7.0571 -0.108609 0.598382 0.731375
H 8.29512 0.82214 0.728 0.000258 0.350768 -0.054478
H 7.74466 8.19667 10.2381 -0.335792 -0.287597 -2.145444
H 1.82517 4.48836 8.96894 -0.089664 -0.20218 0.199249
H 8.95057 8.49696 5.36945 -0.202117 0.249724 0.60874
H 12.3095 9.06097 5.67854 -0.906992 -1.083313 0.01207
H 11.6117 6.61518 6.57727 1.90936 -1.477873 -0.829624
O 11.3604 10.6593 8.80551 1.217064 -0.851189 0.486682
O 11.3284 7.95923 8.88302 0.484144 1.711393 0.903954
O 7.30047 0.70587 3.62503 -0.190944 0.026356 0.024398
O 5.65814 2.77907 5.3327 0.034761 0.229895 1.465882
O 0.60478 10.2013 6.83566 -0.878465 -0.120147 -1.3306
O 5.21677 1.58217 1.9418 1.553793 -0.657016 0.934506
O 10.7489 6.99248 6.7912 -2.412077 1.055828 1.378547
O 9.67155 0.43975 5.17159 1.042367 0.304264 -0.178182
O 12.1421 9.40271 2.3984 -0.524809 0.112025 0.146942
O 7.33646 8.10821 8.49879 -0.781253 0.631575 0.112212
O 0.2099 3.85259 4.26113 0.046365 0.084633 -0.603786
O 5.91029 0.34253 6.56264 0.800302 -0.301269 0.717536
O 1.09774 7.10238 10.2285 -1.232924 1.050933 0.444045
O 10.065 7.43417 11.1588 1.02834 0.629152 0.250301
O 6.14223 10.5176 1.41955 0.470535 0.865071 -0.66799
O 1.72289 7.41018 3.23364 0.152471 0.071833 0.063482
O 2.74461 4.78875 8.96946 0.305787 0.769903 -0.318126
O 8.6408 7.1562 2.57027 2.032109 -0.269926 0.53782
O 10.1613 4.80371 10.2977 1.240801 -1.546255 -1.530611
O 2.7801 7.15601 5.796 1.570906 -0.891214 0.585036
O 5.24231 1.38259 11.2837 -0.022384 0.866939 1.059346
O 9.09032 10.6841 3.02252 -2.160194 0.526072 0.967673
O 2.92359 9.02502 11.4125 -0.345447 -0.011435 -1.186906
O 9.05541 11.4957 7.76441 -1.128444 0.407558 -0.524632
O 4.48656 4.75079 6.84546 0.770922 -1.752395 -0.366802
O 5.80889 4.34 2.23416 1.38602 -0.918817 0.282049
O 6.62506 7.86698 0.71733 -0.509348 -0.513181 -0.18032
O 4.76115 8.3425 9.42233 -0.658713 1.06572 -0.743872
O 8.44077 3.96987 12.3225 0.212749 0.605425 1.369219
O 0.77371 1.78818 11.0237 -1.920595 -1.330166 -0.135295
O 4.36416 11.0665 3.23994 1.749344 -0.443076 -0.75726
O 1.35137 10.8969 0.82261 -0.597258 -0.744124 0.192744
O 9.2165 5.07068 7.69925 0.478812 -0.067965 0.298736
O 6.66153 5.50153 8.45217 -0.23137 -0.702939 0.746494
O 9.48 7.78952 4.89445 -0.508254 -0.023364 -0.154207
O 3.22547 9.43265 7.33845 0.713973 -0.125419 -0.67783
O 11.5423 2.45661 0.81293 -0.748774 0.495651 1.256935
O 0.74541 4.16948 10.3432 -1.234484 0.601974 -0.656991
O 8.51911 4.56964 2.65624 -0.10456 -1.121097 0.72802
O 5.50469 10.2148 5.82444 0.099371 1.096678 0.322261
O 2.02187 4.76351 0.09499 0.762435 -0.112597 1.014004
O 0.53082 1.37034 3.31678 -0.29403 0.036922 0.292441
O 3.64256 8.58557 1.77786 -1.63113 1.186644 -0.039839
O 9.95605 10.9588 12.3268 -0.446156 -0.263665 -0.191115
O 11.8404 8.40467 5.05356 2.471979 1.958955 -0.356642
O 7.8725 8.69852 11.0235 0.325206 1.170559 2.218061
O 12.3087 5.05225 1.65705 -0.391328 -1.030282 -0.915521
O 0.36534 5.72875 6.38857 1.322805 1.005246 0.095461
O 7.97143 9.27679 6.31122 0.596889 0.815846 -1.001376
O 2.89052 1.89151 0.07397 -0.755734 1.66208 -0.955863
O 6.18414 3.96523 10.8057 0.93155 2.040419 -0.309907
O 12.2671 11.5604 11.2501 0.813615 0.000567 -0.223442
O 4.31783 6.1554 0.82577 -0.141626 0.511985 -0.234169
O 11.9069 11.463 4.67441 -0.608333 1.453733 -1.59458
O 2.73789 0.38184 2.21102 -0.693356 0.402446 0.468501
O 4.39377 5.94315 10.6395 -0.881784 -0.740251 -1.133606
O 8.58107 1.63694 1.18795 0.467516 -1.720064 1.136309
O 10.9209 7.34864 1.31135 0.577428 -0.66104 0.333087
O 7.56068 11.9613 11.993 0.856335 -0.171716 -0.711145
N 7.75164 2.05385 8.57313 0.137981 -0.359888 1.068209
N 6.33491 7.78236 4.21106 1.245839 2.068328 -2.100499
N 3.01451 0.99611 9.16703 0.888284 2.447716 -1.054369
N 3.25572 4.48573 4.0884 0.41256 -1.979717 4.936504
N 2.4194 0.71431 5.3564 -0.433951 0.046796 -0.162983
N 3.37042 1.97415 8.74281 -0.791586 -2.625942 0.99488
N 3.15933 4.87426 3.09079 -0.617388 1.722842 -4.838458
N 5.88045 7.07376 4.8971 -1.338085 -2.119103 2.014888
N 3.35906 0.52345 5.89899 -0.045809 -0.071444 0.165951
N 7.86758 1.59392 9.57959 0.013667 0.609205 -1.114915
N 11.2952 1.95233 8.25869 2.373938 -1.405963 -0.164909
N 12.2562 1.37511 8.18394 -2.435682 1.427393 0.099429
Cl 9.63356 3.41148 5.19428 0.017099 -0.037668 -0.047019
Cl 6.04499 11.3529 9.42941 0.33961 0.090945 -0.138497
193
energy=-1086.38538751 config_type=nep2xyz pbc="T T T" virial="-2.2620397256189895 -10.228076732671285 4.473539254721156 -10.228076732671285 -6.331400210738688 0.31318975557564327 4.473539254721156 0.31318975557564327 -11.991473813023513" Lattice="12.4 0.0 0.0 0.0 12.4 0.0 0.0 0.0 12.4" volume=1906.6240000000003 Properties=species:S:1:pos:R:3:force:R:3
H 9.48772 5.17308 10.2116 -0.410962 0.120239 -0.549825
H 2.5219 11.7697 9.08123 0.222538 -0.248344 1.436303
H 2.26374 7.4583 1.08531 -0.40136 -1.067831 0.936452
H 6.86713 1.89506 3.57224 -0.21471 -0.248311 0.254086
H 7.76396 6.85623 10.0902 0.047928 0.753297 0.740632
H 7.0249 0.74735 8.42221 -0.581681 1.18625 -1.169943
H 7.45064 4.97 5.9227 1.080871 1.186074 -0.610005
H 5.61213 10.0813 10.3824 -0.808897 -1.132274 -0.805707
H 6.06035 1.66976 6.10124 -0.202851 -0.184723 -1.270024
H 0.81544 8.89032 7.45654 0.224877 -0.317252 0.431793
H 11.6312 5.17771 3.15004 -0.169143 -1.205273 0.657528
H 8.93244 7.85601 12.0054 -0.43448 0.117033 -0.75207
H 7.39378 4.71495 10.3681 -0.063498 -0.363433 -0.105837
H 1.87316 2.65076 1.65709 -0.536604 1.579945 -0.092449
H 9.02186 8.34826 1.65264 0.206249 -0.295588 -1.019153
H 2.2998 11.6145 11.4532 0.936926 0.12766 -1.775774
H 1.89379 4.21146 11.4512 -0.200314 0.398829 -0.605602
H 0.68849 2.4167 7.64465 -0.365123 0.665208 0.793555
H 0.0493 6.7325 9.68884 0.755252 0.065475 0.732972
H 10.1494 7.9189 8.09963 -0.77263 -0.320949 -1.567987
H 9.97667 11.0805 8.20663 -0.9012 -0.442233 -1.13355
H 0.0957 9.3638 0.9146 0.552477 1.417934 -0.026084
H 4.3614 7.78174 0.34808 0.316173 -0.035266 -0.45646
H 11.2187 7.15666 3.12409 -0.297217 -0.038235 0.727146
H 8.85835 4.67108 6.08457 1.155898 -0.743135 -0.130231
H 0.83344 6.96942 1.59661 -2.237796 0.407945 -0.146454
H 4.14261 11.6271 7.1986 0.035472 0.013847 -1.758528
H 6.11743 9.81887 8.29236 -0.111762 -0.692562 1.102575
H 9.68584 2.18654 11.244 -0.544293 -0.120714 1.727087
H 1.01822 4.08313 10.0918 0.491658 0.172119 0.087048
H 5.8626 11.61 12.0514 -0.385066 0.104038 -1.21904
H 2.45232 7.2106 6.16204 -0.344775 -0.7722 0.590332
H 12.0462 12.2799 5.80731 -0.195533 0.604894 -0.438165
H 0.57688 6.19752 6.75531 0.622013 -0.345376 -0.355366
H 7.92147 9.03907 2.53 -1.266537 -0.014845 0.07947
H 11.5246 11.0558 8.19109 0.420056 -0.311391 -0.70118
H 4.8264 1.57064 3.68538 0.291916 -0.850383 0.883791
H 0.62375 4.11324 0.59271 0.028209 0.613763 0.197879
H 1.11213 0.96352 7.05993 0.02944 0.025642 0.452261
H 10.8781 4.65202 11.8328 0.640401 0.260446 0.510549
H 7.84741 2.97892 3.04766 0.571295 2.080499 -0.166866
H 3.86479 11.5759 10.8983 -1.25572 -0.47287 -0.46373
H 9.70832 4.55681 3.23164 0.68187 -0.258191 -0.357996
H 9.05154 0.86953 0.75073 -0.153504 0.128948 0.56168
H 10.7267 3.37191 0.22407 -0.285218 -0.162242 0.499584
H 5.56498 0.14117 1.17039 -0.190076 -0.525033 0.576089
H 12.1557 10.8129 1.53788 -0.899049 0.059344 0.700804
H 9.75617 2.48052 8.7638 -0.149707 0.10628 -0.336032
H 5.64221 2.29668 1.22876 -1.473222 -0.741493 0.397053
H 2.52591 11.5036 3.52327 -0.148491 0.895263 0.255114
H 6.09451 3.52232 7.47758 0.244188 1.049664 -0.210977
H 1.33617 6.03886 10.4232 -1.28116 0.595678 0.083036
H 0.72957 11.6886 0.22361 0.452753 0.059268 0.651103
H 6.12085 7.27323 11.5856 -0.335192 0.715856 0.428414
H 7.00877 12.2162 1.19285 1.802745 0.160302 0.093454
H 8.57207 2.72358 12.2262 0.879161 -0.619018 0.128827
H 1.95024 11.1933 7.7784 0.078499 -0.279284 0.125211
H 1.71559 5.2076 0.95772 -0.155731 0.959596 0.677073
H 11.7823 2.67045 9.23482 0.323891 1.464993 -1.300117
H 2.59507 6.31633 7.54133 -0.268398 0.953814 -0.612678
H 4.04897 1.97299 1.55064 -0.298681 0.135253 -0.181205
H 7.6327 1.94288 6.32484 0.090353 -0.079198 -0.404728
H 8.26852 1.09715 2.18603 0.404966 -0.188183 -0.063102
H 4.43306 9.10967 9.85837 -0.547281 -0.113216 0.2043
H 0.60682 11.4587 6.49781 0.695921 -1.838435 0.924627
H 5.79934 12.3948 10.6168 0.582847 0.550341 -0.466992
H 11.5189 6.41997 6.95349 -0.690528 -0.055896 -0.084426
H 10.0963 0.22863 5.22905 0.550983 -0.729218 -0.619551
H 6.20111 10.1229 2.03248 -0.215231 1.770957 -0.703295
H 1.68519 0.65548 0.46553 -0.541293 -0.523423 0.302675
H 7.07462 5.05563 0.50168 0.235977 -0.548319 0.673863
H 1.91309 12.39348 4.71652 0.175522 -0.221873 -0.625097
H 5.84714 10.642 7.06396 0.802213 0.432523 0.096483
H 7.39634 11.7159 8.62667 -0.200141 0.13466 0.217035
H 5.28259 4.93925 7.57832 0.408139 -0.474307 0.251328
H 4.38146 10.7534 5.85746 -0.736956 -0.886762 -0.81625
H 10.7719 8.90467 9.09073 -0.136264 -0.920861 -0.021356
H 11.6716 3.87031 8.05106 -0.214826 -0.175633 0.616491
H 9.86743 11.0938 5.40361 0.837723 0.374791 -0.257096
H 10.1888 7.48534 5.60837 -0.776526 -0.100106 0.803524
H 3.23377 9.48231 1.46609 -0.709723 1.414343 1.164177
H 3.18447 7.87588 4.18629 0.256222 -0.022122 -0.112821
H 2.30249 1.53276 2.66796 -0.429342 -1.086802 1.870189
H 0.07809 7.60184 11.8578 1.01339 -0.856133 -2.07444
H 8.93457 6.67695 0.56966 -0.416772 -0.374121 0.124558
H 11.6249 0.15429 9.8333 -0.284755 -0.169656 -0.394754
H 7.73928 5.27231 1.99542 0.044691 -0.160363 -0.808869
H 11.2072 7.54051 0.29068 -1.618708 -0.322815 0.025842
H 9.0186 1.2551 9.33974 -0.112205 -0.060244 0.060367
H 9.43025 11.9179 2.0674 0.412648 0.20899 -0.225744
H 10.4654 11.3977 3.36995 -0.473851 0.024757 -0.400734
H 5.04966 9.23143 3.94467 -0.570211 0.435581 0.023527
H 1.28081 8.31347 4.43392 -0.354895 -0.257437 -0.489004
H 6.15595 6.72925 0.62139 -0.291153 0.243335 0.117102
H 3.24462 8.8177 12.195 0.362673 -1.097723 0.1713
H 7.24803 8.34607 9.99212 -0.003437 -0.446452 0.703668
H 1.91696 8.16483 10.0984 0.325813 0.429926 0.638605
H 1.1507 1.26729 8.67106 -0.248993 0.056105 -0.556546
H 0.72441 9.48774 6.06939 -0.185892 0.139033 -0.366207
H 8.06044 10.3019 6.76976 0.914606 -1.166368 0.488693
H 11.2604 5.29156 1.55335 0.219354 -0.623844 0.434904
H 3.63271 9.77529 3.58274 0.048562 0.204997 -0.150309
H 10.5433 6.3013 9.94001 -0.430869 -0.369642 0.374606
H 9.26073 9.16866 6.68666 -0.583648 -1.063038 -0.289653
H 9.63254 10.2421 2.48546 0.689541 0.653949 -0.442635
H 2.33822 6.93211 3.21835 0.118596 0.076084 0.928119
H 2.49645 9.64278 10.4303 -0.282428 1.439666 -0.237264
H 3.23036 4.94319 9.27237 0.333884 0.86376 -0.544332
H 7.26375 5.10803 8.85862 0.210928 -0.52102 0.16958
H 9.94845 7.99667 3.51004 0.212846 0.238432 -0.045772
H 10.8307 3.50749 4.89202 0.423676 0.359312 -0.256611
H 0.37421 0.40273 10.8458 0.789771 -0.120364 1.676742
H 1.91601 10.5117 1.68606 2.01932 -1.113597 0.84466
H 9.05244 6.60031 6.35887 0.832115 1.916452 -0.2998
H 4.89018 0.51502 4.94369 -0.387961 -0.112033 -0.419012
H 5.65071 8.73726 1.88813 -0.310605 -0.602539 -0.656241
H 3.73424 6.40136 9.33316 0.181747 0.687781 0.434889
H 8.52063 5.08519 3.90459 -0.291833 -0.374699 0.195957
H 12.157 8.88106 4.26541 1.180486 -0.464123 -0.271516
H 11.6186 4.77368 5.36282 -0.028573 -0.082134 -0.875707
O 10.7559 11.2382 8.71827 0.587557 0.384389 1.746935
O 0.57589 9.71396 7.02354 0.088186 0.274776 -0.385116
O 7.40831 0.18759 9.07777 0.832373 -0.959912 0.732566
O 6.74235 1.94806 6.70319 0.200557 0.436659 2.016933
O 0.7291 9.11178 4.28301 -0.752741 0.652133 0.959826
O 2.40407 0.02471 3.86926 0.002756 -0.511117 0.102455
O 11.373 4.25909 4.53453 -0.449511 -0.030345 1.203303
O 10.4628 11.7369 4.89163 -1.285679 0.484547 1.483105
O 0.45516 10.3286 1.11047 -0.591313 -1.665716 -0.872776
O 5.38927 9.21588 9.86324 1.377445 1.377629 0.318585
O 11.2027 4.22755 0.28316 -0.258086 0.121819 -1.296458
O 5.49096 11.6152 11.0679 -0.409944 -0.833718 1.324286
O 2.01988 6.96347 7.01618 0.315453 0.00129 0.116863
O 12.0891 7.87519 0.26171 0.409002 1.650289 2.253502
O 9.60961 7.47761 6.43937 0.167146 -1.51586 -0.952293
O 1.73962 6.76523 1.64258 3.177225 0.379218 -0.51941
O 3.63369 5.67871 8.72134 -0.504666 -1.493979 0.035265
O 8.86671 8.9487 2.40724 0.88052 0.856705 1.237074
O 7.64093 7.70514 10.6277 -0.044802 -0.856892 -1.391427
O 2.60409 7.08995 4.19019 -0.309036 0.219387 -0.633172
O 4.97409 1.67793 1.67654 1.937417 0.497448 -0.336423
O 10.1885 11.1598 2.40838 -0.409302 -1.262089 0.873482
O 2.87891 11.3736 10.6269 0.536309 0.33048 2.14962
O 12.241 3.40026 8.68823 -0.523824 -0.869065 0.87604
O 6.17141 4.52166 7.54186 -0.25567 -0.301124 -0.289481
O 7.32985 5.70366 1.20008 0.087154 0.518643 -0.210903
O 5.61151 7.31905 0.03578 1.726537 -1.155697 -0.375299
O 6.60618 10.2957 7.61387 -0.7273 0.75269 -0.927394
O 9.65305 1.96478 9.56856 0.065961 -0.228801 0.34256
O 1.13992 0.10143 12.2575 0.362724 0.490283 -0.207855
O 4.17432 9.45499 4.34187 0.147366 -0.303817 0.106453
O 2.88251 10.2974 2.02143 -0.78002 -0.18618 -0.943433
O 8.35959 5.326 5.59092 -2.534151 -0.847548 1.447049
O 7.89208 5.11593 9.62465 -0.677157 0.57527 -0.116987
O 8.75524 4.57377 3.10093 -0.435381 0.551645 0.204047
O 2.44735 11.9393 8.1394 0.366829 -0.364989 -1.460189
O 9.47109 2.24366 12.2684 -0.611557 0.349578 -2.260335
O 12.1072 5.74449 6.5963 0.014766 0.294034 0.698879
O 7.75143 2.06527 3.21848 -0.218894 -2.336592 -0.000206
O 4.61405 11.5661 6.29792 0.114214 0.834196 2.098638
O 10.4013 5.43359 10.3809 0.839773 0.309601 0.094776
O 8.66131 0.37863 1.54277 -0.491644 0.652299 -0.337301
O 3.53957 8.29795 0.58838 -1.667309 1.285808 -0.158332
O 0.69289 6.84602 10.4306 0.485984 -0.507486 -1.144226
O 10.832 7.74786 3.84732 -0.134509 -0.24293 -0.266658
O 6.15701 9.28892 2.47591 0.603992 -1.019488 1.127771
O 1.57812 4.26994 0.77192 -0.213309 -1.811944 -0.967819
O 11.6703 5.69279 2.34963 0.061544 2.100795 -0.904329
O 9.03681 10.0903 6.80819 -0.010731 2.361481 -0.450052
O 2.43315 1.90893 1.82088 0.900381 -0.699619 -2.009699
O 10.6349 7.94039 8.90779 1.218172 1.054084 1.780109
O 0.07509 0.58849 9.97034 -0.312408 0.962626 -2.042206
O 1.83464 4.4798 10.476 -0.140541 -0.463356 0.421367
O 0.55661 12.3328 6.16011 -0.528608 1.142213 -0.885497
O 1.32997 1.69175 7.77176 0.417127 -0.883766 -0.497029
O 2.67055 8.70613 10.4532 0.046151 -1.565991 -0.496
O 5.30029 1.28437 4.5123 -0.046872 0.628758 -0.629558
O 9.37311 7.52304 0.3935 0.618279 -0.259432 0.358225
O 6.18807 11.7504 1.08265 -1.69075 0.304635 -0.04478
N 9.12123 10.5071 11.1803 -1.662389 -0.130818 0.212259
N 5.94945 8.03694 5.96266 -1.4936 -1.249409 1.999309
N 4.64574 1.89569 9.86757 -0.104971 0.034293 -0.142908
N 5.73892 4.15036 4.07997 -0.069751 0.191315 -0.017585
N 2.19738 3.64373 5.00267 0.371294 0.727588 0.596886
N 4.35109 2.9113 9.54967 -0.08283 -0.239614 -0.059635
N 4.95114 4.88798 3.84014 0.11872 -0.041422 -0.089948
N 5.31775 7.59418 6.77855 1.557605 0.989478 -2.004815
N 2.63159 4.4218 5.66692 -0.381849 -0.900893 -0.567599
N 8.01595 10.3614 11.2412 1.94449 0.228724 -0.064571
N 12.3683 1.80208 3.44848 -0.789882 0.065219 -0.388534
N 11.4106 1.96515 2.91234 0.658062 -0.252977 0.212662
Cl 9.89638 2.15642 6.19265 -0.114073 -0.002766 0.213375
Cl 6.54865 3.30239 11.8481 0.423203 0.213302 0.24621
193
energy=-1086.02862921 config_type=nep2xyz pbc="T T T" virial="-9.835702972475216 -5.869172211420004 -5.440098200209601 -5.869172211420004 -16.23189983262151 -10.618391756348066 -5.440098200209601 -10.618391756348066 3.978978381859686" Lattice="12.4 0.0 0.0 0.0 12.4 0.0 0.0 0.0 12.4" volume=1906.6240000000003 Properties=species:S:1:pos:R:3:force:R:3
H 9.56311 4.55209 9.50907 0.723799 0.671753 0.71651
H 1.76335 0.50674 7.34514 0.245465 -0.50099 -0.139629
H 2.76485 6.97258 0.56149 -1.145645 -1.173703 0.344014
H 6.99796 1.77124 4.27726 -1.19626 -0.342194 0.286107
H 7.76199 7.97 8.17863 0.857003 0.057015 0.936376
H 8.62442 1.9389 9.05368 -0.829835 1.147783 0.462337
H 6.92958 6.33679 7.0583 -1.39895 -0.406408 0.692636
H 8.08273 11.4705 9.3375 -1.62804 -0.307705 0.312602
H 5.89716 3.53399 5.09258 0.789617 0.821443 0.668116
H 0.91545 9.25399 6.57959 0.233256 0.638588 1.012182
H 0.49861 4.32845 4.08905 0.485331 -1.011179 1.76772
H 9.37569 5.38381 11.5707 -0.084025 -0.426257 -0.215553
H 6.70578 4.28426 10.6742 0.574652 0.236692 0.133821
H 1.92533 2.67604 0.87052 0.424399 -0.322212 0.999376
H 9.38798 6.70128 1.33729 -0.418243 1.011278 0.285533
H 3.93395 11.9224 10.0744 1.137668 0.032901 0.20034
H 1.31392 4.65258 10.3596 0.119747 0.328374 -0.241637
H 0.07357 1.87196 8.14762 -0.482677 -0.514636 -0.201795
H 11.854 7.45565 10.3142 1.569519 0.779715 -0.171659
H 10.8501 7.50074 8.24413 -0.444708 0.215028 1.273868
H 12.26693 10.076 8.50251 0.086386 -0.192541 -0.74292
H 0.70064 9.62211 1.45155 -0.138228 -0.35733 -0.959702
H 4.45283 7.81032 11.8832 0.528929 -0.097305 -0.398484
H 11.0608 5.95389 3.85809 0.927444 -0.5368 0.019179
H 8.33078 6.41202 6.64028 0.312722 0.271931 -0.34811
H 1.30431 6.80863 1.07397 -0.428179 0.166862 0.103262
H 3.84057 12.0735 6.27411 -0.552514 -0.054822 0.360464
H 6.94098 11.141 7.71513 0.771406 -0.313415 1.129387
H 8.65332 1.55838 0.48864 -1.007411 0.929174 -1.298616
H 0.80166 5.17943 8.90955 0.294063 -0.134096 0.303864
H 5.64898 11.3626 11.7282 -0.251269 -1.089677 2.247598
H 1.4552 7.21324 5.84332 0.018872 -0.189477 -2.189214
H 11.2238 10.7799 7.09822 0.230807 0.535694 -0.103655
H 11.4354 5.03018 7.18014 2.12927 1.577006 0.500721
H 8.14974 7.42178 1.92422 -1.399485 -0.001682 -0.225287
H 11.1491 10.6069 9.52849 1.067085 -0.331984 -0.404494
H 4.95411 1.22256 3.32574 0.601252 1.162806 0.048032
H 0.18096 3.90705 0.00065 0.737494 0.435082 0.138828
H 11.5179 1.459 6.88386 0.433168 -0.051408 0.202789
H 10.2336 4.05432 0.59115 -0.452817 0.161564 -0.295213
H 8.32157 2.2387 3.81025 1.036788 0.363694 -0.06645
H 2.84348 12.0305 8.88262 0.150193 0.206739 0.076193
H 10.1999 3.74385 2.98233 1.537693 -0.253946 -1.831974
H 7.27457 11.6086 2.14929 1.080517 0.799578 0.481424
H 10.3278 2.4201 0.9372 0.564042 1.889385 0.186638
H 5.28165 10.8082 1.83873 -0.243677 0.280917 0.057503
H 0.2575 10.288 2.72382 1.284353 0.553187 -0.397568
H 10.0407 0.70609 10.4144 -0.027982 -0.722758 0.990898
H 5.35084 1.64054 0.98265 -0.26695 -0.750054 1.403141
H 3.65727 2.47191 4.20615 0.06538 0.270682 -0.615537
H 5.94166 4.89921 7.12415 -0.357074 -0.397984 -0.160499
H 0.85735 6.70038 10.4698 -0.329541 1.376919 0.037492
H 0.43425 11.7644 1.4426 0.219764 -0.39471 0.453042
H 6.51588 8.05067 10.3598 0.314943 -0.403189 0.374291
H 5.89909 9.53807 1.28881 0.125009 -0.188391 -0.428276
H 8.91841 0.50083 1.44728 0.531519 -0.258421 0.584231
H 1.81565 11.3662 7.33647 -0.145879 -0.294533 -0.532952
H 1.48828 4.84453 0.26434 0.388141 1.58644 0.864649
H 0.73757 2.3819 10.2609 -0.604777 -0.741389 0.830234
H 2.18048 7.27503 7.17588 -0.401815 0.337089 0.303042
H 3.92899 1.44272 1.49914 -0.370701 -0.059956 0.312452
H 7.21368 3.84127 5.90795 1.480129 -0.832134 0.391371
H 7.92785 0.17169 3.33415 -0.04214 0.177407 -0.641095
H 6.60505 10.9328 9.99961 0.567814 1.144221 -0.470275
H 9.86483 11.5125 6.752 0.103963 0.839458 -0.457969
H 5.9205 0.24837 10.974 0.123688 -0.309157 -0.166206
H 0.35853 6.31983 7.13544 -1.11181 -1.024155 0.070736
H 9.12203 1.62769 5.75827 -0.707165 -0.527556 -0.899368
H 5.71461 7.27788 1.59091 -0.236412 -0.411019 -0.039558
H 1.06953 0.82814 1.27272 -0.096289 0.074837 -0.099716
H 7.17767 3.32267 1.00537 0.17754 0.468108 0.526259
H 2.39805 3.14083 4.73485 -1.007788 0.475211 0.35504
H 6.00399 11.4363 6.52008 -0.733592 0.783171 -0.701261
H 9.51976 1.03132 8.34739 -0.456575 -0.395048 -0.051252
H 4.93706 5.88968 7.72192 -1.506689 0.794253 -0.067048
H 4.69094 11.3899 5.12226 -0.140049 -0.952027 -1.082639
H 9.69791 7.79588 9.33454 1.143768 -0.476406 -0.388825
H 11.9431 1.11065 10.268 0.733816 0.618891 0.833708
H 9.91962 2.52336 6.63475 -0.027853 -0.752081 -0.098275
H 10.331 8.94229 6.54926 0.179432 -0.964066 0.040537
H 3.35099 9.00652 1.72921 -0.053606 0.123652 -0.809836
H 1.95719 7.5265 3.19462 0.072599 -0.230614 0.062827
H 2.41716 2.52075 2.47057 -0.40551 -0.316807 -0.631338
H 0.16269 8.05044 12.2724 0.235267 -0.222223 -0.843769
H 8.48101 5.02754 0.58498 0.811341 0.587782 -1.183586
H 0.55222 11.0871 10.6313 0.476028 0.31299 0.469043
H 7.84383 4.01046 2.36598 -0.708665 -0.247528 -1.240249
H 11.3478 8.62099 0.64025 1.677524 -0.847886 0.494108
H 10.5487 0.38592 11.9413 -0.439711 -0.083718 -1.279386
H 8.99624 10.6671 3.19466 0.907348 -1.297938 -0.017214
H 8.42019 9.15343 4.86769 -1.021953 0.039156 1.366751
H 6.1078 9.88757 3.75884 -0.590114 0.439268 0.228378
H 0.27098 8.91763 4.09022 -1.127091 1.484625 0.25215
H 6.78921 6.57614 10.8668 -0.707298 0.658972 -0.033622
H 3.22318 8.61288 11.293 0.088781 -0.106089 0.338554
H 8.01346 9.29989 8.99821 0.147074 -1.455845 0.242294
H 1.49477 8.8868 9.97742 0.064822 -0.183368 0.061528
H 2.01534 11.6977 11.0245 0.341838 0.073926 -0.813026
H 0.23287 10.4372 6.00272 0.302492 0.36418 -0.530114
H 7.28343 10.4745 6.18409 0.487426 -0.991836 0.077079
H 0.3966 4.45717 2.61005 -0.0762 -0.115257 -0.841575
H 4.5799 9.69989 3.44474 0.152385 0.694767 0.024469
H 10.5211 5.73342 9.84736 -0.023762 0.653755 -0.564637
H 7.43051 8.29673 6.00638 0.9752 0.621634 -0.770614
H 9.32232 9.06855 2.90036 0.399586 0.792036 0.221707
H 0.809 6.46542 3.64254 0.817841 1.31451 0.068125
H 2.63205 9.9488 9.56103 0.133978 1.545445 -0.06238
H 2.8642 5.90141 8.39416 -0.529446 -0.612279 0.820177
H 6.55306 4.94646 9.33163 -0.319982 0.524058 -0.632169
H 9.91779 6.77695 3.33592 -0.632497 0.617401 -0.311828
H 0.66176 2.7936 6.14076 -0.202075 -0.035131 0.314053
H 0.75295 11.9827 12.2952 0.046471 0.595757 -0.470236
H 2.40914 9.53224 2.85672 -0.407906 0.605005 -0.496752
H 10.4814 7.44054 5.901 0.38555 0.98924 0.521129
H 4.98473 0.90607 4.84083 0.127554 0.245938 0.510285
H 6.54766 7.77744 0.35169 -0.155708 -0.406996 -1.617967
H 3.51479 7.234 8.83111 -0.417997 0.131165 0.152651
H 9.59483 4.55105 4.12964 -0.335552 -1.573595 -0.674643
H 11.3183 9.90113 4.07995 -0.169524 -0.568402 -0.069025
H 0.70173 4.38344 6.28253 0.230183 -0.849645 -0.097288
O 12.0948 10.3564 9.39628 -0.881284 0.778988 1.651191
O 0.76465 10.2381 6.79506 -0.515478 -1.620214 -0.477515
O 8.8453 1.01843 9.06318 1.306448 -0.750951 -0.603285
O 6.4429 4.23826 5.54577 -2.051978 -0.233644 -0.923677
O 12.2919 9.88496 4.18452 0.615409 -1.606592 0.115581
O 2.87353 2.99525 3.91047 0.909417 -0.286981 -0.074252
O 1.00028 3.59913 5.70822 -0.024697 0.878912 -0.339903
O 9.86526 1.5538 6.35773 0.58329 1.198032 1.188582
O 0.88744 10.4544 1.92019 -0.787005 -0.696518 1.759713
O 7.24094 10.9397 9.20531 1.652041 -0.437698 -0.656841
O 10.7598 3.35602 1.00412 0.713964 -1.452111 0.382299
O 5.62186 11.7102 10.8578 -0.243818 1.445694 -1.105521
O 1.31897 7.52564 6.71957 0.084222 0.468515 1.257443
O 12.2828 8.2637 0.78542 -1.843676 0.825804 0.090669
O 10.7613 8.05215 6.64219 -0.574598 -0.164236 -0.853191
O 2.1064 6.28501 0.97345 1.292956 1.27718 -0.465783
O 3.27554 6.70065 8.05925 1.150235 0.277946 -0.39093
O 9.09827 7.42328 2.0066 1.722099 -0.832345 -0.462493
O 8.1673 8.29213 9.03731 -1.302705 1.554132 -1.135329
O 1.26732 7.35649 3.8571 -0.990597 -0.977537 0.102635
O 4.84672 1.20275 1.7489 0.493216 0.503556 -2.124282
O 9.54715 9.85134 3.48116 -1.186281 0.222741 -0.327502
O 3.04047 11.7332 9.8079 -0.571826 -0.180797 -0.043341
O 0.09891 1.8012 9.82854 -0.077809 0.137227 -1.413196
O 5.70082 5.38214 7.94495 1.469164 -0.776255 -0.480334
O 7.22858 4.12874 1.58175 0.885915 0.097298 0.803712
O 6.35086 7.46228 11.1207 0.200605 -0.430913 -0.403011
O 6.95659 11.2802 6.72612 -0.045244 0.448319 -0.236096
O 10.5764 0.08548 10.9865 0.353156 0.726591 0.035644
O 0.38277 0.20163 0.9136 -0.24997 0.812986 -0.374558
O 5.26948 10.3986 3.68424 0.168157 -1.100069 0.277049
O 3.19749 9.01164 2.67722 0.682478 -0.620752 0.903177
O 7.49827 6.92476 6.5691 1.008775 -0.050471 0.111485
O 7.04836 5.04229 10.1504 0.074607 -0.545591 1.010339
O 9.50475 3.68697 3.60516 -1.574376 1.746071 2.266187
O 2.40424 12.1512 7.39176 -0.264924 1.0432 -0.136877
O 9.40541 1.16443 0.9068 0.491431 -0.706498 0.226941
O 0.03585 5.35825 7.35042 -1.404213 -0.282295 -0.307291
O 7.92843 1.52419 4.33193 0.156071 -0.087248 -0.035342
O 4.71428 12.0071 5.85154 0.222633 0.535179 0.722487
O 10.1557 4.92226 10.2167 -0.717054 -1.127279 -0.225673
O 8.11192 12.0431 2.50001 -1.36116 -1.420782 0.243514
O 3.64895 8.27295 12.1355 -0.67996 0.016236 0.304067
O 0.43601 7.61407 10.6235 -1.101251 -1.840647 0.018284
O 10.4153 6.59416 4.14883 -0.317847 -0.046644 0.743874
O 6.50091 7.74067 1.30621 0.331719 0.80975 1.887109
O 1.12791 4.11679 12.1748 -1.404678 -2.401345 -1.112081
O 0.09384 4.86295 3.41861 -0.44994 1.109311 -0.727739
O 7.74501 9.19852 5.63228 0.292208 0.226723 -1.209236
O 2.21103 2.03938 1.5886 -0.17753 0.623142 -0.404281
O 10.6522 7.45443 9.24388 -0.750638 0.062738 -0.763621
O 1.14668 11.4287 11.3767 -1.288424 -0.754439 0.22679
O 1.52542 5.24207 9.59603 -0.493887 -0.258318 0.03768
O 10.2663 10.7432 7.13825 -0.527153 -1.054289 0.510401
O 0.04389 1.53154 7.20957 0.289542 0.250886 0.277656
O 2.4512 9.08391 9.88817 0.149534 -1.870559 0.211403
O 5.14709 1.6503 4.22529 -0.001783 -0.717719 -0.248983
O 9.27198 5.50396 0.14701 -1.026377 -0.311257 1.883654
O 5.62672 10.435 1.01746 0.359319 0.271654 -0.044281
N 8.35096 9.97941 12.079 0.561166 -0.404496 -0.21444
N 4.59938 9.37769 7.8763 -1.513507 -0.591044 -4.66432
N 2.98951 2.52695 8.73093 -0.121865 -0.65826 4.392422
N 4.23452 3.96501 0.05831 -0.077834 -0.318586 0.10017
N 4.53838 6.0328 4.65001 -1.514074 -1.769174 2.895771
N 3.01121 2.71312 7.66726 0.33441 0.721828 -4.25153
N 4.38505 5.00658 12.1312 0.091882 0.377358 -0.094196
N 4.22684 9.24427 6.80647 1.591923 0.554359 4.639821
N 4.94267 6.58264 3.80975 1.399701 1.852063 -2.936798
N 9.18692 9.29797 11.822 -0.405581 0.428262 0.220184
N 0.96926 0.70967 4.5827 0.145737 -0.124044 -0.161081
N 12.3148 0.47704 4.81079 -0.077306 -0.187239 -0.322381
Cl 9.43242 4.45728 7.20174 -0.054997 0.008812 -0.241935
Cl 6.82559 2.30323 11.6255 -0.121596 -0.621843 0.075309
193
energy=-1085.67352026 config_type=nep2xyz pbc="T T T" virial="-9.89491842287967 -0.5826819360135951 6.315215923650654 -0.5826819360135951 -5.734961630700265 -4.544143207142703 6.315215923650654 -4.544143207142703 0.5947249496408673" Lattice="12.4 0.0 0.0 0.0 12.4 0.0 0.0 0.0 12.4" volume=1906.6240000000003 Properties=species:S:1:pos:R:3:force:R:3
H 9.12589 3.53183 9.22053 -1.55485 1.925942 1.152629
H 4.55735 12.1684 8.96853 0.989809 -0.360023 -0.886013
H 2.12027 6.2938 0.97645 -0.172112 -0.065324 -0.059375
H 10.3842 1.16844 5.67739 -0.327634 -0.235178 0.409095
H 5.78448 6.76887 8.89637 0.033031 -0.498343 0.05074
H 6.81831 2.28368 7.33464 0.095908 -1.044731 0.647101
H 8.37224 5.42931 9.3497 -1.444548 -0.827672 1.809061
H 3.42295 9.42406 11.0293 -0.054802 -0.066922 0.250132
H 5.84413 2.80742 5.60242 0.404606 0.35235 0.955651
H 1.81355 10.655 7.34196 0.023897 -0.865735 -0.320521
H 0.14485 4.39266 3.15098 0.200751 -0.243783 0.361703
H 7.17448 7.29077 0.21569 -0.927442 0.667515 -0.979556
H 7.25508 3.97894 10.7633 -0.973181 -1.155881 3.820701
H 1.55571 1.75217 11.983 0.19789 -1.319632 1.683593
H 10.0864 10.3252 4.38749 0.14592 0.269701 -0.14416
H 3.00412 11.6596 12.2474 0.18152 -0.260456 -0.773653
H 2.47795 4.16913 10.0687 0.837285 -0.041824 -1.341026
H 3.35147 2.20676 4.71895 0.58313 -0.262577 0.516782
H 12.0514 6.67542 10.4514 0.386333 0.023924 0.351508
H 10.4344 5.53516 9.32608 0.281045 0.636715 0.983002
H 11.6678 7.78082 7.50158 0.023832 -0.43624 0.319588
H 11.645 9.06165 1.3113 0.211843 0.57082 -0.941854
H 4.27128 7.49903 1.62731 0.638307 0.02438 0.402771
H 10.5004 8.77041 6.39907 -0.106343 -0.338294 0.165318
H 8.89608 5.62489 8.02305 0.091353 -0.040243 -1.174677
H 0.7699 6.49804 0.30558 -0.842643 0.768603 -0.794063
H 5.0622 11.5558 6.87229 0.255556 0.00324 0.696449
H 3.32238 9.1652 6.23313 -1.076554 0.37448 1.523236
H 9.86027 10.9723 9.37702 -0.010444 -0.434037 -0.457208
H 2.70058 3.49081 8.5565 0.40006 1.77688 1.07119
H 6.67919 10.6765 0.00252 -0.352473 0.550636 1.074596
H 0.88469 7.46903 6.17176 0.436394 0.018749 0.218721
H 12.3311 0.67042 5.51081 0.256766 -0.256771 -0.406309
H 0.65288 4.72192 7.31337 -0.170223 0.027932 -0.30799
H 9.14011 11.3983 3.81066 0.173391 0.072921 -0.130221
H 10.0302 7.57754 7.8522 0.582272 -0.380794 0.231067
H 5.16806 1.29638 4.03268 0.330158 -0.065888 -1.443554
H 0.7955 3.46843 11.1326 1.702081 0.332247 0.303342
H 2.14758 1.11561 5.00974 -0.063845 1.078193 0.165336
H 11.278 2.83616 10.0029 1.172689 -1.026064 0.223635
H 10.4023 2.69711 5.30005 -0.347005 0.334218 0.343863
H 4.3597 11.197 11.6384 1.188742 -0.187536 0.183272
H 11.1227 6.25168 3.77388 0.942882 -0.78998 -0.239612
H 10.4172 0.08678 10.9554 0.185504 -0.466169 -0.059692
H 12.171 1.56049 9.69421 -0.324169 0.669168 0.574852
H 6.93164 12.1573 1.92368 0.495657 -1.291886 -1.891481
H 11.3094 10.1922 2.256 0.191445 0.904148 -0.6337
H 10.1979 9.39489 8.80359 -0.557041 -0.017623 -0.37325
H 5.82351 1.84079 1.9557 -0.114471 -0.519138 -0.429491
H 2.51064 11.8044 2.47216 0.574844 0.820545 -0.450502
H 5.60836 4.38469 7.54931 -0.107894 0.438804 1.05083
H 1.00479 7.45336 10.405 -1.013698 -0.590189 0.867361
H 11.7062 10.9972 0.43453 -0.280746 -0.451973 -0.635635
H 6.15356 6.8527 3.16676 -0.411653 0.790182 -0.052537
H 8.22562 11.9202 0.9749 -0.451354 -0.231631 0.33836
H 9.64779 0.69306 9.88149 -0.916355 1.003818 -0.957225
H 5.97997 0.34346 8.3703 0.321175 0.113515 0.19104
H 1.53735 4.60965 11.9462 0.196489 -0.550177 0.253391
H 2.46674 1.48493 8.31427 0.461774 0.091143 -0.340599
H 1.3095 7.5212 7.68366 1.630527 0.571154 0.985419
H 4.52301 0.83654 1.93542 1.630015 0.093791 0.50907
H 7.17111 3.66834 5.94482 -0.640103 0.034859 0.378123
H 8.8417 1.42759 0.37216 0.445422 -0.524061 0.069002
H 4.50662 8.42643 10.508 -0.747921 -0.22875 0.36908
H 0.86871 11.7225 5.17261 -0.943735 0.035085 0.139644
H 6.43871 10.3249 10.9901 0.156574 -0.21467 -1.318216
H 11.6 4.68098 6.77235 -0.743313 0.565944 -0.900491
H 9.03123 12.1175 5.92618 0.152322 -0.224792 0.732232
H 7.2972 10.3782 2.61407 0.499866 -0.316456 -0.31174
H 0.16852 12.0992 12.1813 1.175391 1.080697 -0.700247
H 8.50726 5.71114 1.69386 -0.087982 -0.339008 0.12562
H 2.6153 0.8783 3.11786 0.21908 -0.110181 -0.561855
H 3.41733 8.88871 7.79027 0.096581 -0.144275 0.314811
H 8.03398 1.88882 8.21588 -0.603387 -0.512951 0.091946
H 4.56346 4.71228 8.74413 -0.036012 -0.32439 0.033183
H 4.74053 10.8538 5.48292 0.528799 0.011347 0.095366
H 11.7573 5.04452 8.90201 0.740647 -0.291867 0.010601
H 1.36341 2.18249 7.52644 0.971605 0.364149 -0.314116
H 9.70894 11.3515 7.21265 -0.156724 1.026728 -1.031076
H 6.632 9.05442 8.92426 -0.154184 -0.622194 0.001286
H 2.76881 9.2793 1.82965 0.155018 0.36834 0.185378
H 2.54891 7.61283 3.73713 -1.096139 -0.315237 0.89716
H 1.83034 0.82463 1.01198 0.489002 0.76153 0.088089
H 11.2786 7.3587 12.2799 0.63248 0.446529 1.175199
H 6.33089 8.57171 12.1047 0.116056 0.270475 0.341807
H 2.15928 11.7796 8.67822 0.871618 0.76945 0.78659
H 9.16924 6.68716 2.7154 0.311896 -0.229148 0.96589
H 10.4452 7.07083 1.14426 0.116465 0.294267 0.265868
H 8.50029 10.0925 8.96854 -0.597343 -0.991302 -0.222905
H 10.1481 0.70677 0.85874 2.129543 0.402498 1.736972
H 12.0251 1.33476 2.04457 -1.239296 -1.600016 -0.455451
H 4.55039 8.67661 4.55419 0.429601 -0.128858 -0.271848
H 1.06914 9.35582 4.96622 -0.513669 1.614287 0.478786
H 6.10331 8.47477 3.03157 -0.044445 -1.525931 0.154579
H 3.64878 8.01978 0.26894 0.152424 -0.1568 -0.144712
H 6.15228 7.56306 10.2355 0.395648 -0.615071 -0.210045
H 0.19531 10.3441 9.06741 0.249879 0.395798 -0.465531
H 2.84858 12.0038 10.175 0.250756 0.270168 -1.099074
H 0.87246 11.844 7.15527 -0.863821 2.040436 -2.189018
H 7.34711 0.78474 4.70803 -0.091405 0.150469 0.037002
H 0.56511 5.58022 2.23641 -0.252655 -0.04801 0.605668
H 3.51173 9.68826 3.93357 0.868021 -0.182603 1.482748
H 9.82985 3.09955 7.92868 0.386326 0.63532 -1.192585
H 7.04934 11.8815 5.47391 0.00015 0.228188 -0.728318
H 11.1048 0.30626 2.77662 -0.202047 -0.330095 -0.002579
H 1.31782 6.64822 3.97037 0.140191 0.346511 0.190263
H 12.241 9.10834 9.96355 0.111915 -0.781712 0.275983
H 2.29837 6.12279 9.13491 0.23518 -2.117613 -0.356072
H 6.74657 4.16622 9.34167 0.101162 0.446934 0.22888
H 10.3996 8.10758 4.89845 0.106455 0.149477 0.80471
H 12.0427 2.36413 3.79062 0.390083 0.273758 0.087907
H 11.979 10.8163 11.1419 0.491452 0.831805 -0.114307
H 1.47095 9.93311 2.31721 -1.122569 -0.018392 0.025548
H 6.38631 10.6461 8.96884 0.020947 0.322141 -0.491261
H 5.00618 0.7016 5.40076 0.182979 -1.006957 0.838104
H 8.18711 9.34003 3.40511 0.204299 0.080641 -0.036299
H 2.85117 7.26647 9.99462 0.231809 0.433711 -0.06035
H 9.96127 5.8978 4.83818 0.3742 0.135702 -0.3278
H 12.0545 9.90539 5.42338 2.195704 0.822071 -0.301771
H 1.21299 2.5222 3.41201 -2.094208 0.647009 0.094954
O 10.801 8.17177 7.85066 -0.777797 0.44347 0.415617
O 1.10948 11.1823 7.75469 0.561587 -1.787168 2.859432
O 7.15582 1.52779 7.93343 0.320858 1.017353 -0.590818
O 6.29778 3.37647 6.31454 0.253536 0.132999 -1.265345
O 0.6588 10.2227 5.31304 -1.825386 -3.670922 -1.0237
O 2.74983 0.35655 2.27042 -0.480162 -0.574933 1.05011
O 0.24712 2.81556 3.15804 1.499157 -1.501781 0.177374
O 9.75594 12.1368 6.6069 0.031004 -0.609648 0.194774
O 11.8314 10.0626 1.41996 -0.651004 -1.634336 2.045679
O 3.66307 8.4715 11.0287 0.688645 0.304968 -0.563164
O 12.0641 2.29817 10.3332 -0.949688 0.506705 -0.757733
O 5.97296 10.3216 11.8229 0.025888 -0.131034 0.235756
O 0.62277 7.29104 7.08897 -1.946454 -0.662224 -1.388009
O 11.2834 7.50577 0.86452 -0.621588 -0.540546 -0.655744
O 7.04673 9.91652 9.10669 0.603769 0.853344 0.544972
O 1.26634 5.84384 0.78611 1.381944 -0.391851 0.547007
O 2.24836 7.05569 9.26106 -0.277178 1.698287 0.218783
O 10.0014 10.9701 3.63951 -0.120518 -0.397421 0.269091
O 5.84643 7.64907 9.29904 -0.317524 0.559304 0.384169
O 1.77465 7.45554 4.3435 0.51289 -0.115026 -1.083702
O 5.49178 0.93442 2.22808 -1.313005 0.368254 0.116768
O 11.4304 0.50245 1.8846 1.690807 1.975112 0.782965
O 3.41663 11.2156 11.4663 -1.387054 0.262238 1.072836
O 2.35032 2.17864 7.6111 -1.290568 -0.508593 0.884
O 5.50655 4.79824 8.46605 0.107336 -0.036155 -1.125488
O 8.74844 6.63073 1.85646 -0.246507 0.283826 -1.068926
O 5.53452 7.61211 3.11713 0.340294 0.653931 -0.134665
O 2.81355 9.24277 7.13248 1.045014 -0.112708 -1.770568
O 9.52418 10.1475 8.81444 0.739215 2.044818 0.899958
O 11.836 11.5189 11.8925 -0.621056 -1.09646 0.984082
O 4.08223 9.50184 4.76739 -1.509002 0.015698 -1.805996
O 2.41185 10.0791 2.31737 1.018855 -0.730278 -0.010146
O 8.8985 6.06167 8.87759 1.446863 1.370032 -1.147257
O 7.53551 4.2597 9.9474 0.754024 0.522083 -3.338542
O 10.3659 6.59558 4.25745 -1.183625 0.542793 0.163111
O 5.45196 11.9235 8.52959 -1.268629 0.175436 0.747619
O 10.285 0.0027 9.98804 0.194791 -0.878124 0.440293
O 12.2156 4.23175 7.33104 1.040393 -0.614874 1.120191
O 10.8571 1.85576 5.19104 0.74919 -0.270785 -0.674321
O 5.30418 11.5246 5.93168 -0.418121 -0.039984 -0.542489
O 9.51703 2.82323 8.77357 1.241582 -2.97522 0.22741
O 9.38845 0.60472 0.32854 -3.107247 0.268116 -1.984872
O 3.4479 7.75566 1.1956 -0.835019 0.205946 -0.035293
O 0.20417 7.31363 11.0201 0.539542 0.428843 -1.692401
O 10.4024 8.94939 5.44302 0.214329 0.697443 -1.436063
O 7.29544 9.5278 3.10799 -0.704669 -0.069101 0.278684
O 1.72079 3.76121 11.4671 -2.097237 0.004276 -0.752292
O 0.26775 5.36877 3.17385 -0.043685 1.129421 -0.597038
O 7.68994 12.2937 4.83538 0.089158 -0.546006 0.452912
O 1.49183 0.88092 0.09575 -0.888062 0.24476 -1.973949
O 11.3624 5.43069 9.70469 -0.976531 -0.252353 -0.713206
O 2.88504 12.2934 9.20877 -0.8215 -0.218704 0.287154
O 2.92992 4.34814 9.13841 -1.522966 -1.477739 0.146635
O 0.8061 0.23891 5.54338 0.550979 0.839653 0.305545
O 2.47071 1.90795 4.48846 -0.874252 -0.639136 -0.825513
O 12.0456 10.0349 9.80703 -0.20556 0.260811 0.62767
O 5.18668 1.53875 4.96024 -0.306325 1.166823 -0.125453
O 6.56678 7.64931 11.9104 0.633522 -0.895287 0.729328
O 7.41105 11.4435 1.32981 -0.198818 2.060937 1.369054
N 9.52985 8.37131 11.3347 -0.347023 1.114593 0.5838
N 6.99759 8.23475 6.41348 4.254383 5.256545 1.98031
N 4.39795 2.68445 10.7754 -3.245071 1.932645 2.219474
N 3.48144 4.49488 3.05728 0.724244 1.87569 3.227789
N 3.80232 5.57466 6.25545 -1.462889 -0.139369 -0.049482
N 5.21314 2.18101 10.278 3.318209 -2.178376 -1.973502
N 3.29045 3.97461 2.12684 -0.636022 -1.908995 -3.260138
N 6.36187 7.4338 6.10907 -4.139247 -5.229868 -2.005957
N 2.70293 5.41548 6.33024 1.457872 0.011026 -0.075212
N 9.33622 9.26697 11.9654 0.054869 -0.842051 -0.819964
N 10.3306 3.66155 1.00393 -0.353703 -0.531964 0.433219
N 10.9507 4.35495 0.41586 0.388358 0.479246 -0.45349
Cl 9.18734 4.47919 6.09441 0.210836 0.071533 -0.10173
Cl 6.8403 3.29148 0.84428 0.336759 0.092085 0.03678
193
energy=-1085.94859413 config_type=nep2xyz pbc="T T T" virial="-22.685527111508136 -2.4342238799401374 6.654229137300587 -2.4342238799401374 -4.90738525058031 3.3819447912665552 6.654229137300587 3.3819447912665552 5.175163800620705" Lattice="12.4 0.0 0.0 0.0 12.4 0.0 0.0 0.0 12.4" volume=1906.6240000000003 Properties=species:S:1:pos:R:3:force:R:3
H 2.37048 4.98996 12.064 1.166634 0.069622 -0.159497
H 3.33878 9.75734 5.88223 -1.285825 -0.402825 0.392461
H 3.13366 7.70735 2.09089 0.463881 0.043724 -0.706286
H 8.28193 5.21373 2.77354 0.278506 -1.793509 -1.204445
H 9.51114 3.98843 11.3498 0.427476 0.675323 -0.782802
H 8.91695 0.19559 2.50663 -0.506542 -0.23123 -0.031259
H 9.26244 4.61128 7.34565 0.129215 -0.054796 -0.06873
H 4.87004 8.88678 8.64206 1.693436 -1.110935 0.549486
H 6.37147 3.52689 6.27319 -1.960273 -0.654092 -0.725199
H 10.8268 8.00041 10.4785 -0.203844 -0.449745 0.427802
H 0.84675 6.37658 5.69273 -0.566407 -0.632704 0.073383
H 11.7217 6.79072 1.40862 0.96752 -0.980695 0.602014
H 7.84153 5.92553 8.21978 -0.76989 0.138229 0.068851
H 4.01204 2.19772 0.19905 -1.676251 -0.463677 0.545944
H 9.02287 7.52985 4.57729 -0.446222 -1.179736 -2.331081
H 3.55949 11.3069 10.8611 -0.256481 -0.031108 0.439463
H 5.06852 4.2464 1.28152 -1.635346 -0.224317 -0.062357
H 3.39896 11.4382 2.42148 -0.542348 0.376788 -0.384823
H 11.4725 10.3394 11.9195 -0.080928 -0.132115 0.523156
H 5.45569 5.04387 9.09032 0.176514 -0.050607 0.598519
H 12.1828 11.3561 6.75445 -0.075838 0.210235 1.187549
H 12.1947 8.85415 2.23176 -2.342557 -1.660498 -2.254134
H 5.25054 7.99278 0.4729 -1.977374 -0.852526 0.331138
H 7.62419 9.93205 1.6541 0.059219 -0.269541 -0.677713
H 9.46374 4.65407 8.90888 0.35139 -0.607962 1.033579
H 1.77779 8.31823 2.62344 0.539638 -0.283047 0.171518
H 5.30684 11.1432 6.367 -0.595498 0.576299 -0.114823
H 2.90168 9.44121 7.86338 -0.455718 -0.066315 -0.769603
H 11.5453 2.1933 0.58334 0.255402 0.100125 -0.176006
H 6.41872 4.40385 1.72228 0.838191 0.060967 -0.426526
H 6.00411 11.4651 8.89278 0.119426 0.68736 -0.526395
H 2.44276 8.31371 9.93666 0.223211 0.282504 -0.436501
H 12.1379 0.60225 3.03638 1.32373 -1.462433 0.656308
H 11.6661 3.7483 10.458 0.343568 0.589478 0.640553
H 8.1145 7.15445 2.60039 0.786637 -0.44889 0.131402
H 11.5882 9.75557 9.204 -0.089902 -0.882009 0.230982
H 9.31357 0.34912 0.47316 -0.267276 0.249344 0.126164
H 0.86669 5.23533 1.38681 0.400266 -1.062911 -0.908677
H 1.89943 12.1602 2.29762 1.218924 -0.497772 -0.364315
H 11.818 4.77376 3.32295 -0.651038 -0.501906 0.853892
H 8.14583 3.79009 3.34339 0.333575 -0.480423 0.000984
H 3.67101 0.35249 10.2129 -0.204232 -1.730214 -0.345768
H 10.5351 8.63703 5.31539 -0.25982 0.261906 0.190818
H 10.6456 1.5963 2.5848 -0.220849 0.417574 -0.330772
H 10.3638 4.83218 3.93674 0.379605 -0.485153 0.08966
H 7.46987 10.6739 12.1041 0.407129 -0.027902 -0.283659
H 0.15168 10.2241 2.8382 0.375034 0.469031 -0.434534
H 8.48896 3.71864 0.85239 0.214462 -0.367021 -0.016448
H 6.91022 0.60984 11.532 -0.713464 1.12339 -1.315361
H 6.41188 0.63739 2.5114 -0.465468 0.456154 -0.904002
H 4.37756 4.76852 6.70065 0.104967 -0.87882 -0.15817
H 10.9035 9.34325 0.71974 0.247456 0.17834 -0.474599
H 0.1652 2.08948 11.3471 1.299647 -1.172341 0.716086
H 6.31209 6.10448 0.35228 0.327132 0.337317 0.161787
H 8.92114 10.0279 12.0728 -1.251699 -0.400125 0.157771
H 11.0982 3.69693 0.46063 0.009986 -0.202851 -0.17745
H 2.35043 8.48005 5.69895 0.475899 0.680603 0.701023
H 1.1837 6.4785 2.23398 -0.55645 -1.065701 0.230342
H 10.2376 11.103 8.29694 -1.021352 0.574827 -0.13171
H 1.35566 7.18428 9.70223 0.885115 -0.213667 0.315083
H 6.75312 0.26021 0.59921 0.217353 0.235825 -0.482082
H 5.30302 2.95512 5.21113 -0.02886 0.542531 0.45447
H 11.136 2.55847 3.70563 0.040076 0.276512 -0.102674
H 5.66441 7.5057 8.34011 0.307129 0.596231 0.14818
H 0.45472 12.0731 4.08551 0.131662 -0.024014 1.072663
H 5.73754 0.5499 8.73223 -0.021589 0.586583 0.366313
H 0.7761 3.84525 11.1784 -0.101363 0.857123 0.836835
H 8.87953 1.35026 5.65187 -0.264157 0.324004 -0.32831
H 7.66301 8.65265 10.951 -0.626294 1.043044 0.0595
H 1.43158 1.6151 12.2509 -0.376946 -0.195392 -0.247751
H 6.14348 3.60888 3.65186 -0.741086 -0.617287 -0.492662
H 5.05598 0.27274 1.90174 -0.866469 -0.603214 0.13062
H 1.0824 10.9097 11.1015 -0.402042 0.219032 0.295846
H 8.5251 12.33529 3.99768 -0.149673 0.557931 0.380909
H 3.3414 5.35974 7.77247 -0.044848 -0.205072 -0.160499
H 5.81921 9.83596 5.99232 -0.519299 -0.041102 -0.416658
H 5.34663 3.70876 9.96033 -0.217057 1.459697 0.404651
H 8.22194 12.2068 8.01893 -0.29049 -0.460604 -0.053555
H 9.963 0.78891 4.73939 0.330862 0.135602 -0.112125
H 7.53519 10.8414 2.91678 -0.184992 -0.47108 -0.581733
H 3.22942 9.24702 12.3988 -0.678083 0.913494 0.157525
H 2.87332 7.10281 4.38435 0.321924 -0.08988 -2.273176
H 3.15132 1.27213 1.13146 0.096625 -2.074653 1.301614
H 9.40465 7.4724 11.0212 0.797477 0.040039 -0.320585
H 9.59694 7.09448 2.17166 0.244278 -0.531531 0.491719
H 11.2229 11.7892 9.34874 0.253184 0.944967 0.736206
H 5.37676 2.43445 2.84212 0.270008 0.513225 0.318289
H 10.7865 7.44097 0.36469 0.103047 0.094919 -0.347218
H 7.46871 3.38605 12.1466 1.876799 -0.35817 0.15292
H 10.1957 10.8645 2.69736 -0.278591 -0.956954 1.669979
H 9.01421 12.0517 6.69095 0.20932 -0.035349 -0.036632
H 4.72889 10.4343 4.04767 0.185016 0.590193 -2.086419
H 1.04532 10.4891 6.15273 -0.185551 0.653806 0.176609
H 7.23497 7.01337 11.8668 0.023084 0.263446 -0.512488
H 3.95648 7.10558 0.0644 0.370205 -0.301025 -0.228843
H 10.1313 5.3771 10.6784 0.169434 0.37152 0.527833
H 2.87167 6.53625 11.0079 -0.183395 0.485093 -0.222741
H 3.11083 10.4013 9.09929 0.210288 0.116693 -0.062005
H 0.29485 8.67072 9.7838 -0.876304 -0.052883 -0.365379
H 7.78654 10.2973 6.86552 -0.004029 0.37789 1.083514
H 11.9823 5.42428 5.33519 0.087868 -0.214246 -0.006316
H 5.53562 10.1601 2.63246 -1.757658 0.960308 1.066257
H 2.05831 3.57844 0.31968 1.510732 -2.066662 0.8938
H 11.2277 7.87322 8.15209 0.486012 0.604566 1.177374
H 9.14635 9.98964 3.33251 -2.611474 -1.193719 -0.457737
H 3.26476 6.44585 5.83712 -0.296429 0.211345 -0.106009
H 4.19075 5.67911 10.8198 -0.060844 -0.566546 0.45574
H 0.55999 5.65897 7.75293 0.219661 -0.642337 0.728567
H 6.5847 5.65901 7.40162 -0.497382 -0.63724 -1.431973
H 11.5709 9.18342 4.18552 0.024757 -0.479452 -0.062678
H 10.3126 6.52521 7.82707 0.182492 -0.021466 -0.394665
H 0.26582 12.2069 11.4371 0.331083 0.457671 0.253073
H 2.65144 10.5658 0.72644 0.028605 -0.097919 -0.705367
H 6.72812 9.25244 7.64466 0.204067 -0.156744 0.673023
H 10.3842 11.6748 0.53332 0.185983 -0.319537 0.583398
H 7.11153 7.61682 9.74892 0.342198 0.98925 0.924184
H 0.75073 4.89422 9.20992 -0.092738 0.258776 -0.744751
H 8.3291 8.45104 5.64996 0.406578 -0.175609 0.329593
H 11.8747 9.7933 5.54996 -0.157182 0.711703 0.642809
H 11.5049 7.06802 6.78423 -0.220658 -0.944578 -0.12325
O 11.0099 11.0098 8.86857 0.68249 -1.195593 -0.827072
O 11.7962 8.73401 9.36058 0.908767 0.697445 0.114417
O 8.14581 0.08042 3.10901 -0.502204 -0.346465 -1.176147
O 5.36792 3.38397 6.10003 1.868556 0.492778 0.626711
O 0.23802 11.0768 5.97131 0.737093 -1.490327 -1.276196
O 5.74021 0.9313 1.81483 1.417884 -0.01033 1.362472
O 10.7888 7.34807 7.44022 -0.238065 -0.300803 -0.072319
O 9.2089 0.50035 5.29207 0.510537 -0.135547 1.022544
O 0.40282 9.28792 2.75833 1.777543 1.619986 2.382633
O 5.80386 8.40862 8.70526 -2.836187 1.044295 -0.660068
O 11.2376 4.41096 4.08069 0.604139 1.119406 -1.16096
O 6.16989 12.2161 8.27762 0.021703 -1.404704 0.003455
O 1.91644 7.63371 10.3895 -1.354969 -0.189101 -0.422638
O 10.3953 7.35073 11.1093 -0.962555 -0.037705 -0.103461
O 7.34622 9.91121 2.58084 -0.003757 0.662249 0.819335
O 2.36634 7.51648 2.65355 -0.595059 0.482634 0.343482
O 1.01617 5.65228 8.63007 -0.038989 0.156287 0.089184
O 8.97095 6.71609 2.85773 -1.105844 1.397947 -0.557111
O 10.1894 4.41121 10.6703 -1.172024 -0.92126 0.552321
O 2.65996 7.0323 5.29114 -0.901544 -0.460103 2.289645
O 7.30189 0.06913 12.2006 0.969285 -1.768962 1.872126
O 9.99688 10.2978 3.5221 3.133534 2.129627 -1.587142
O 3.45545 11.7836 10.0226 0.405273 1.695254 0.253552
O 8.79753 11.584 7.53484 0.192568 0.358782 -0.239855
O 3.92563 5.56236 7.02757 0.101199 0.890758 0.182894
O 5.26493 3.20424 3.4576 0.505218 -0.128133 -0.08707
O 6.7845 6.97277 0.32274 -0.525815 -0.610643 1.067305
O 3.16993 9.47173 8.79006 0.455621 -0.155996 0.625804
O 8.46118 3.28402 12.3697 -1.843337 0.663765 -0.494018
O 0.52514 1.34079 11.9786 -0.64416 1.001618 -0.784233
O 4.67796 10.6028 3.02554 1.77361 -1.332023 1.191977
O 2.6407 10.0608 12.2718 0.789628 -0.630771 0.163586
O 9.55738 5.16266 8.10424 -0.357124 0.772497 -1.165981
O 6.86165 6.09423 8.18513 1.346698 0.198126 0.83026
O 9.14884 7.96876 5.38624 0.357336 1.503339 1.901862
O 2.41503 9.41204 6.1306 0.824384 0.372139 -0.571306
O 11.3015 2.98896 1.08043 -0.250058 0.221279 0.616295
O 0.22006 3.48512 10.471 -0.354661 -0.952377 -1.615848
O 8.15455 4.22476 2.47009 -0.278428 2.077287 1.384124
O 5.02923 10.4213 5.77487 1.021655 -0.541361 0.608516
O 1.70928 4.39195 0.04842 -2.381549 1.818657 -0.440517
O 10.9986 1.61518 3.48512 -0.18575 -0.351909 0.218673
O 4.23437 7.86946 0.62517 1.673249 1.449271 0.411619
O 10.7123 10.1048 0.14262 0.045892 0.034162 -0.45907
O 11.5185 8.93966 5.14566 -0.159009 -0.717369 -0.457957
O 7.72184 7.8031 10.5005 0.870204 -1.95234 -1.067498
O 0.47633 5.74557 2.09588 0.11034 1.673966 0.781708
O 0.02122 5.94119 6.05603 0.803911 1.075743 -0.24269
O 7.31772 9.45164 6.88971 -0.05739 -0.703934 -1.997435
O 3.09451 2.03866 0.60009 1.523168 2.412342 -2.098416
O 5.19851 4.72646 9.97581 0.094156 -1.061403 -0.81598
O 0.17879 11.2946 11.0854 0.220132 -0.933234 -0.29519
O 5.90473 4.44854 0.89433 0.706012 0.134937 0.181381
O 0.39459 12.1893 3.14424 -1.112273 0.950227 -1.446151
O 2.7846 11.9675 1.82414 -0.654792 0.177356 0.919463
O 3.52996 5.99675 11.4991 0.056829 -0.471217 -0.323273
O 10.0487 0.04724 1.03801 -0.308484 0.527686 -0.12263
O 11.1017 7.52102 1.30198 -1.350045 1.019292 -0.348715
O 7.93427 9.79529 12.118 1.155048 0.947524 0.296907
N 9.58116 1.19702 9.88767 0.255351 -0.348493 0.315813
N 5.52189 7.38579 4.31073 0.300853 -0.859954 -0.713392
N 3.70183 2.38774 8.4221 1.185967 -0.204994 1.967792
N 1.72095 3.535 4.01664 0.53431 0.034804 0.64036
N 2.68106 0.6797 5.10718 -0.224069 -0.179658 -0.118277
N 3.06506 2.48057 7.54349 -1.668073 0.199346 -1.881538
N 2.37353 3.609 4.91149 -0.499073 0.171198 -0.870889
N 5.77097 6.52643 3.64959 -0.223466 0.908489 0.714131
N 3.76364 0.70358 5.31378 0.392158 -0.058625 -0.033398
N 9.11247 2.02962 9.3399 -0.256708 0.401786 -0.287427
N 0.25726 1.84752 6.26242 0.261938 0.976469 -1.089958
N 12.3409 1.21995 7.10188 -0.505844 -0.73339 1.242089
Cl 8.45225 3.44108 5.54898 -0.013932 0.328495 0.269616
Cl 5.80503 1.8894 10.5001 -0.205221 -0.016293 0.155969
193
energy=-1087.38878982 config_type=nep2xyz pbc="T T T" virial="-15.881521917376672 -5.6902287371973825 3.075597657070044 -5.6902287371973825 -8.535700112128897 -4.351728693961513 3.075597657070044 -4.351728693961513 -17.78148582024528" Lattice="12.4 0.0 0.0 0.0 12.4 0.0 0.0 0.0 12.4" volume=1906.6240000000003 Properties=species:S:1:pos:R:3:force:R:3
H 9.01867 4.5332 9.62644 0.542075 0.156271 0.021998
H 2.49265 12.164 6.80983 0.071183 -0.499646 0.737144
H 2.63492 7.09347 0.87979 0.167732 0.689922 -0.58368
H 6.69406 2.01642 4.2026 1.441812 0.109292 -0.439143
H 7.76984 7.22287 9.14678 -0.376037 0.197896 -0.11406
H 7.98943 1.63739 9.02864 -0.482912 1.105076 -0.080579
H 6.86235 5.54224 7.65329 -0.578099 0.372559 -0.026239
H 7.41014 11.4892 9.0328 -0.268928 -0.336013 0.498273
H 5.38117 2.22213 6.02037 0.237401 -0.339962 0.666701
H 1.90241 8.34492 7.22554 0.319696 0.954791 0.545171
H 12.0699 4.6936 3.90291 -0.135341 0.339534 0.431289
H 9.36147 6.24709 11.549 -0.164218 -0.152597 0.431866
H 7.29817 3.00777 10.5948 -0.168536 0.499823 -1.464614
H 1.66352 2.71083 1.16992 0.356653 -1.733428 0.131882
H 8.53553 7.71783 1.28233 0.336841 0.260841 0.008846
H 4.31322 12.0742 10.1862 0.725557 0.588705 0.751447
H 1.4463 4.10586 11.1954 0.307461 0.366055 -0.592719
H 0.89002 1.40786 7.05933 0.257425 -2.111005 -1.749101
H 11.8617 7.22913 9.74722 0.43267 -0.33189 0.700695
H 10.2175 7.62711 8.19025 0.864713 -0.125569 0.405294
H 11.7676 10.8171 7.57847 0.645134 0.050797 1.167855
H 12.1472 9.20598 1.23703 0.147062 1.069353 0.89016
H 4.61625 7.55299 12.2999 -0.423409 0.570332 -0.354006
H 10.7978 6.52278 3.47661 0.039276 0.685029 1.131562
H 8.26631 5.4475 7.36298 0.560157 0.034573 -0.200908
H 1.0479 6.98868 1.22856 0.946329 0.120272 -0.243076
H 3.98066 11.7066 5.61903 1.299981 0.284055 -0.756924
H 6.7728 10.7776 7.27412 0.045497 -0.314339 -0.389795
H 10.1522 1.88354 11.6069 -0.833656 -0.286057 -0.198066
H 1.15143 3.5767 9.68604 1.064957 1.914347 1.418012
H 6.13312 12.3155 11.5076 -0.459513 -0.266019 -0.553891
H 1.94099 6.72447 5.64405 0.33915 0.156971 -0.683058
H 10.8464 12.0582 6.27656 -0.14243 -0.618918 -0.626985
H 12.3702 5.39192 7.33219 0.09549 0.367855 0.032594
H 7.36351 8.47729 1.90419 0.560535 0.357588 0.584327
H 11.2825 10.4009 9.04715 0.689988 -0.148239 -0.309414
H 4.71683 1.92817 3.37969 0.30976 0.468166 -0.54069
H 0.22325 4.06493 0.5647 1.256309 -0.354929 -0.246923
H 0.39346 12.34718 6.1121 1.014955 1.721047 1.146859
H 10.543 4.8769 0.68462 -1.747461 2.094487 -1.624473
H 8.06409 2.93838 4.10977 -0.158246 -0.664876 -0.234779
H 3.68171 11.6689 8.8508 -0.390093 0.152729 -1.167353
H 9.87128 4.45762 3.69091 -1.558598 -0.239444 2.034582
H 9.33364 0.79096 1.43612 -1.878792 -1.256596 1.150454
H 10.6251 3.27903 0.69652 -0.549586 0.156215 -0.003455
H 5.7269 12.1969 1.09449 -1.271036 1.03626 0.581183
H 12.3979 9.71923 2.78797 -0.339785 0.456555 -0.487763
H 9.89694 1.49973 9.44739 -0.604414 -0.146741 -0.009764
H 4.92587 1.75211 0.9503 0.619836 0.170128 0.244127
H 3.08872 2.13259 4.12092 -0.013368 -0.014502 0.187119
H 5.6404 3.44841 7.73943 -0.299523 -0.407774 -0.741824
H 0.49373 6.08702 10.2594 -0.083151 -0.132134 -0.054142
H 0.12466 11.2827 0.93906 0.351765 1.10003 -0.010638
H 6.74079 7.13396 11.4389 -0.018627 -0.537203 0.104491
H 7.26455 12.0148 1.22493 -0.604368 -0.259363 -0.639098
H 8.79346 2.14863 0.1454 -0.776898 0.477184 -0.82119
H 2.74282 10.644 7.36764 0.63454 1.041375 -0.650973
H 1.54386 4.78281 0.83898 0.932536 1.540999 0.503531
H 12.2156 2.14564 8.83551 -0.109757 0.192864 0.129601
H 2.57301 6.09184 7.06254 -1.71108 1.488704 -0.945975
H 3.50278 1.60698 1.42903 -0.096568 -0.720049 0.42017
H 6.81747 2.07637 6.52282 -0.537562 0.039952 0.574692
H 8.18523 0.80357 2.6493 -0.167123 1.273161 0.643802
H 5.97423 10.8862 9.30363 1.504428 -0.345135 -0.024561
H 11.4979 10.7644 5.52353 -0.033133 0.329648 0.274333
H 5.75517 1.24662 10.9698 -0.081625 0.961035 -0.201599
H 11.0819 4.65048 7.75788 0.532848 0.014396 0.005331
H 8.78409 0.77083 5.23888 -0.024096 0.063066 0.059649
H 5.83046 10.1653 1.63904 0.724116 0.062608 -0.137788
H 0.89885 0.38173 0.76038 0.4069 0.352948 0.351088
H 7.53462 4.28216 1.63656 -0.108289 0.26342 -0.422595
H 1.9013 1.39351 4.70181 -0.625517 -0.798569 1.010915
H 6.06497 11.1511 5.91945 0.559306 -0.285867 -0.059176
H 8.72917 0.72157 7.90647 -0.538139 0.514831 0.485716
H 4.93886 4.83637 8.32766 0.413698 -0.608817 0.091839
H 4.54122 11.0078 4.31489 -0.091324 0.559523 0.371261
H 9.57302 7.87917 9.51004 -1.158438 0.288535 1.151778
H 0.31637 3.47527 8.22406 -0.287046 -0.424678 -0.353518
H 9.85622 1.59469 5.95442 -0.487202 -0.164471 0.358043
H 9.95975 7.2831 5.4636 0.041826 -0.033383 0.236399
H 3.10339 9.5409 0.97627 0.389367 -0.839911 -0.977358
H 2.69441 7.88398 4.01494 0.68532 0.798149 -0.148463
H 1.86624 1.71074 2.43328 0.028835 0.081873 -0.308213
H 11.9383 7.71731 11.9839 0.422941 -0.195728 -0.530608
H 8.67938 5.83541 0.61228 0.736924 1.041367 -0.705774
H 0.79838 10.8272 10.0288 -0.45737 0.192136 -0.447459
H 8.11453 5.21655 2.72587 -0.372339 0.155711 -0.879263
H 10.7834 7.62806 0.55893 -1.247197 -0.519231 0.138734
H 9.96653 2.94826 10.0507 0.403732 -0.02782 -0.516709
H 9.09765 11.3371 2.84693 0.06431 0.705251 -0.718623
H 9.34114 10.2148 4.14325 0.187243 0.077184 -0.132275
H 4.66801 9.04848 3.27162 0.641013 -0.156508 0.03847
H 0.44029 8.75422 4.65712 0.236494 0.142592 -0.245556
H 6.11229 6.02674 0.1163 0.729955 0.422919 -0.698412
H 3.37299 8.18468 11.3976 0.581333 -0.006588 1.291228
H 7.42931 8.73402 9.50082 0.208734 -0.316871 0.233213
H 1.71148 7.8489 10.1345 -1.930739 -0.896508 0.438919
H 2.23159 10.9174 10.6002 1.675522 0.556796 -0.323889
H 1.10806 9.57019 7.85511 0.133062 -0.097255 0.278218
H 8.45075 10.2773 5.88009 -0.229626 0.229083 -0.469307
H 11.4063 4.77259 2.44236 -0.085963 -0.105025 0.584489
H 3.42928 9.84103 2.75331 0.554531 -0.676774 1.811268
H 10.5166 5.18398 9.55248 -0.5942 -0.1311 0.028306
H 9.64854 9.29077 5.84246 0.60649 -2.062222 0.77043
H 9.09064 9.74759 2.49189 -0.043107 -0.166575 0.144187
H 1.86283 6.79534 3.32777 0.019637 0.000291 -0.415077
H 2.57683 8.7686 9.27174 0.138715 -0.486822 0.872433
H 2.732 5.29417 9.12877 1.503977 0.928944 -0.149232
H 6.91898 3.51634 9.03454 -0.317655 0.252107 0.834217
H 9.59706 7.53235 3.28875 0.257228 0.299602 0.632584
H 1.1446 3.37168 5.13604 -1.039377 1.529795 -0.035992
H 0.80461 11.6586 11.7734 -0.085086 0.339136 0.68246
H 1.87467 10.0192 1.78115 -0.465664 0.191055 -0.332504
H 8.93181 7.22997 6.67066 0.100348 -0.00838 -0.272494
H 4.7964 0.80049 4.33246 -0.14151 0.321271 1.060204
H 5.33965 8.77578 1.26934 0.344435 -0.016694 0.117601
H 3.43084 6.68919 9.10432 -0.277642 2.284219 1.248433
H 9.21955 4.12917 5.19789 0.2598 0.163716 0.047083
H 11.3797 8.66881 4.22113 0.383642 0.298611 -0.300339
H 1.14229 4.84584 5.74592 -0.324823 -0.176246 -0.330711
O 12.0996 10.5847 8.53672 -0.908999 -0.216511 -0.069163
O 2.02386 9.24082 7.69228 -0.928936 -1.257729 -0.570409
O 8.41759 0.79019 8.83891 1.012308 -2.273918 -0.852689
O 5.89089 2.07659 6.86237 0.481072 0.119177 -1.333258
O 12.1314 9.33228 4.32076 -0.535402 -0.553547 0.61054
O 2.1132 2.04473 4.03491 0.247938 0.768028 -0.30249
O 0.56291 4.20241 5.28137 1.479092 -1.346503 -0.044385
O 9.45338 0.69837 5.94442 0.470532 -0.027111 0.068593
O 0.01569 10.0172 1.82478 0.303683 -1.102092 -0.689413
O 6.93258 10.6219 9.13368 -1.172991 0.969274 -0.329444
O 10.9766 4.13957 1.02653 2.058508 -2.2502 0.888167
O 5.63875 0.32576 10.7451 0.991382 -0.320605 1.010305
O 1.77295 6.57778 6.59356 1.404681 -1.466618 2.013566
O 11.6726 7.95594 0.48905 1.079559 0.091909 0.023949
O 9.82594 7.54117 6.4171 -0.43829 0.127374 0.152368
O 1.95223 6.62746 1.39232 -1.587426 -0.722802 0.632969
O 3.50599 5.84378 8.73039 -1.443804 -3.69033 -0.941999
O 8.34279 8.28872 2.05673 -0.266275 -0.18051 -0.686013
O 7.80995 7.89781 9.85792 -0.059595 0.095403 -0.130009
O 1.91621 7.32723 4.13406 -0.482917 -0.267243 0.398658
O 4.43717 1.32757 1.67528 0.021032 0.388355 -0.517928
O 9.49402 10.4615 3.07195 -0.15503 -0.969936 0.293456
O 3.71846 11.442 9.77812 -0.713202 -1.364468 0.483408
O 0.60702 2.53747 8.41403 -0.564446 0.183474 0.101742
O 5.76649 4.30984 8.17111 -0.145546 1.617413 0.313116
O 7.78612 5.22008 1.78187 0.437159 -0.490547 1.419343
O 6.19577 6.95699 12.2303 -0.640351 0.076156 0.521075
O 6.83312 10.6519 6.29769 -0.177763 0.497073 0.355421
O 10.469 2.11236 9.94311 0.767596 0.204388 0.754214
O 0.30861 12.1258 0.33568 -0.265736 -1.652461 -0.580646
O 3.86777 9.40732 3.66701 -1.144059 0.875874 -1.084502
O 2.79498 10.2462 1.54266 -0.243051 0.673842 0.574911
O 7.60729 6.16138 7.45007 0.324482 -0.556296 0.421197
O 7.58463 3.09741 9.62159 0.559361 -0.310815 1.096552
O 8.99804 4.32736 4.25871 1.032606 0.157701 -1.908346
O 3.19187 11.537 7.18136 -0.647263 -0.16896 -0.755778
O 9.68775 1.79977 0.08786 1.588341 -0.091239 1.164939
O 11.9435 5.00707 8.11005 -0.8254 -0.479058 -0.352063
O 7.68964 2.00518 4.00006 -1.285271 0.13911 0.447605
O 4.67384 11.8485 4.85626 -1.245604 -2.124783 0.81159
O 9.82361 4.80643 10.1285 -0.309807 0.101932 0.304514
O 8.64072 0.23232 2.02731 1.826687 0.31963 -1.63491
O 3.78195 8.11008 12.3603 -0.141582 -0.449215 -0.641595
O 0.19781 7.00747 10.4033 -0.290312 0.344315 -0.311616
O 10.3756 7.37052 3.88599 -0.623978 -0.363917 -1.481769
O 5.91893 9.22697 1.91687 -0.859084 -0.305942 -0.472514
O 1.24278 3.97697 0.44265 -2.638783 -0.634671 -0.148978
O 11.3698 5.14693 3.36477 0.528143 -0.576628 -1.062143
O 9.32278 10.0756 5.43805 -1.110228 1.61534 -0.232599
O 1.91989 1.72932 1.43939 -0.878738 1.070487 -0.122829
O 10.4299 7.66112 9.15827 0.540431 0.017255 -1.765765
O 1.30736 10.9855 10.836 -1.417366 -0.347358 0.491262
O 1.51657 4.39661 10.2442 -1.007842 -1.927749 -1.090742
O 11.6024 11.4068 6.26688 -0.390168 0.075197 -0.830392
O 1.1274 0.66658 6.32738 -0.617611 0.977582 0.666307
O 2.59166 8.19278 10.1008 1.816384 1.238152 -1.419799
O 4.81353 1.82601 4.35039 0.150189 -0.086655 -0.942909
O 9.29245 6.50637 0.09473 -0.351935 -1.125373 0.564695
O 6.43626 11.665 0.76913 1.389082 -0.502532 0.201312
N 9.93255 11.0624 11.1696 0.91564 -0.187702 -0.427825
N 5.42699 7.98033 8.12778 2.133436 -5.419035 2.084123
N 3.92195 2.36546 8.89058 -2.348159 -0.440554 -1.911602
N 5.70406 7.06996 4.82476 3.843771 0.78419 -1.699067
N 3.9152 4.97993 2.59124 -0.499584 -1.395344 -1.231629
N 3.14855 2.27186 8.07849 2.483593 0.254273 2.009779
N 6.72648 7.28205 4.38114 -3.891728 -0.840886 1.81755
N 5.03852 8.90825 7.76119 -2.38517 5.354918 -2.161968
N 3.55832 4.23136 1.84182 1.007504 1.392482 1.459426
N 8.91431 11.196 11.5594 -0.798482 0.107278 0.360854
N 11.4163 2.18737 3.33177 0.550487 1.69128 -0.584435
N 11.1259 1.18767 3.66562 -0.368489 -1.829419 0.477915
Cl 9.27327 3.39222 7.09175 0.317893 0.666874 -0.113708
Cl 6.7358 2.98114 0.07931 -0.051137 -0.217609 0.200148
193
energy=-1086.17291628 config_type=nep2xyz pbc="T T T" virial="-21.638296635012498 -2.3963098073941995 3.585105195065757 -2.3963098073941995 -12.158267171719016 0.08126654156189937 3.585105195065757 0.08126654156189937 -21.19288363396984" Lattice="12.4 0.0 0.0 0.0 12.4 0.0 0.0 0.0 12.4" volume=1906.6240000000003 Properties=species:S:1:pos:R:3:force:R:3
H 9.45809 5.12073 9.9056 -0.090805 0.542735 0.120806
H 1.81001 11.8783 6.18921 -0.608946 -0.053439 0.131256
H 2.66056 6.7264 1.18777 -1.488029 0.634141 0.320006
H 7.18198 1.49797 3.9427 -0.877325 0.423912 0.258119
H 7.60204 6.44551 10.4292 -0.279055 0.952961 0.635133
H 6.2931 1.51068 8.25974 -0.217418 1.817788 -1.49629
H 7.49727 5.93628 7.07529 0.320847 0.552361 0.020568
H 6.11353 10.2905 10.1512 0.019398 0.376078 0.368993
H 6.2299 2.49835 6.03584 -0.702604 -0.211126 -0.40978
H 0.92417 8.3169 7.49534 -0.084223 -0.959115 -0.6378
H 12.0225 4.62762 3.18762 -0.47154 -0.250841 -0.292812
H 9.13988 7.34663 12.0135 0.093156 -0.137692 0.004394
H 6.77851 4.30472 10.8267 0.377472 0.590993 -0.553309
H 1.8793 2.28993 0.98344 -0.397446 3.289174 -1.052123
H 9.27926 8.11878 1.60203 0.209239 0.729686 0.601805
H 3.36136 11.1576 11.9962 -0.07931 -0.045794 -0.965867
H 1.67345 4.84158 11.2949 0.498692 0.617116 -0.348829
H 1.10018 2.29953 7.18455 -0.18077 0.010737 0.731163
H 12.1704 7.66442 9.51494 0.04202 0.017135 0.322157
H 10.8671 7.98096 7.7997 -0.144395 -0.014208 -0.467344
H 11.4928 10.9437 7.745 -0.152191 0.120269 -0.848312
H 12.1409 9.18395 0.92677 -0.173327 -0.557409 -0.166335
H 4.72791 7.44209 0.38135 2.312408 -0.542934 0.184104
H 11.1417 6.50344 3.43281 0.739677 -0.36068 0.106864
H 8.8477 5.28711 7.27003 0.142069 0.293913 -0.093343
H 1.05422 7.0761 0.99139 0.651533 -0.258 0.605376
H 3.86886 11.6844 5.91314 0.906717 -0.141133 0.337583
H 6.75584 10.336 7.94788 0.119523 0.094935 -0.091708
H 9.48086 1.88867 11.1998 0.300329 -0.152099 0.418544
H 1.17916 4.40837 10.0305 -1.376152 -2.358185 -1.774041
H 6.35648 11.8714 11.8868 0.324976 0.087288 0.803354
H 1.73268 7.04521 5.69806 -0.85915 -0.218005 0.098345
H 11.1912 12.2876 6.04364 -0.328148 -0.032637 -0.358012
H 0.14366 5.55248 7.45748 -1.140215 -0.664414 -0.263093
H 8.30161 8.57877 2.73999 -0.41358 0.654849 0.349944
H 10.94 9.73317 8.7686 0.314262 1.019955 -0.572182
H 5.35443 1.3703 3.40946 -0.584181 0.121199 -1.017884
H 0.64149 4.02971 0.38815 -0.039396 0.089967 -0.308076
H 0.28204 1.08959 6.51488 0.177444 -0.041626 0.191
H 11.1601 5.09246 11.4194 0.156574 -0.340099 1.129023
H 8.26249 2.69625 3.71628 -0.002147 -0.249472 0.322787
H 3.79307 11.4283 10.4407 -0.894205 0.144409 1.51849
H 9.79683 4.34354 3.4993 0.097131 -0.017224 0.432193
H 9.21254 0.89779 0.78493 0.01916 0.79594 0.531793
H 11.0812 3.68397 12.1585 0.058294 1.832048 0.423893
H 5.75577 12.3027 1.29684 0.634126 -0.435746 0.56281
H 12.2191 9.99874 2.39603 -0.174982 0.116416 -1.142583
H 8.49688 0.39586 9.7099 -0.05943 0.18496 0.148858
H 5.23321 1.8487 1.0529 -0.602184 -0.255189 0.356401
H 3.07285 1.0901 4.26579 0.320669 -0.089611 -0.622205
H 5.33196 4.52413 7.72356 0.729998 0.617168 -0.52249
H 0.82566 6.61921 10.1472 -0.023232 0.089518 0.229761
H 12.3479 11.325 0.8945 0.649639 0.585347 -0.258446
H 7.14128 7.34781 0.07439 -0.793713 0.103228 0.332188
H 7.32063 12.1754 1.48878 0.788776 0.476238 0.088881
H 8.79035 2.6566 12.3128 -0.275978 0.144441 0.193384
H 2.10641 10.5032 6.83344 -1.527379 -3.10937 0.859544
H 1.82152 4.70543 1.06031 -0.025926 -0.442113 -0.464785
H 0.35239 1.48427 9.79807 -0.053648 0.394938 -0.223674
H 2.1309 6.54484 7.09227 -0.092038 0.009318 0.028034
H 3.79224 1.24478 1.53977 0.068785 0.195159 -0.432811
H 7.36458 2.81324 6.96597 0.052325 0.165154 0.530367
H 8.56806 1.14419 2.36804 0.531229 -0.098462 -0.311554
H 5.37583 9.04458 9.50396 0.494492 0.454542 0.04797
H 12.0815 11.1192 5.3755 0.326335 1.311685 1.367514
H 6.20328 0.14912 10.4332 0.058616 0.311285 -0.305122
H 11.2545 4.47783 7.26073 0.829591 0.704567 0.286497
H 8.92093 0.79294 5.12441 1.184083 -0.000322 0.117938
H 6.56119 10.0349 2.19032 0.115191 1.236967 -0.691539
H 1.08315 0.34742 0.51541 -0.90491 -0.017114 0.850038
H 7.01082 4.15169 1.3041 0.156275 -0.186956 0.15695
H 1.64936 1.33985 4.68603 0.882276 -0.806583 -2.14379
H 6.34296 11.138 6.66762 -0.661303 0.123797 -0.10183
H 6.74686 0.02118 8.13798 -0.115296 0.254344 -0.014878
H 4.79374 5.86759 8.14511 -0.928594 1.071416 0.303533
H 4.59517 11.0434 4.73412 0.601105 0.670815 1.157853
H 10.1654 7.20677 8.97626 1.323132 0.992894 0.063257
H 11.949 2.6947 9.12148 1.34228 -0.613558 0.701939
H 9.29698 11.7267 5.28953 -0.401734 -1.22741 0.336365
H 10.6492 7.7073 5.18913 -1.073855 0.258466 0.861234
H 3.16848 9.24073 1.01405 0.083209 0.711224 0.432182
H 2.79329 8.47213 4.10439 -1.503757 -0.950591 -0.493366
H 2.05761 1.39356 2.24724 -0.397542 -0.142185 -0.47469
H 12.3991 7.83027 11.6846 -0.346066 0.015479 1.210067
H 9.41995 6.1929 0.64614 0.174482 0.593917 -0.210002
H 12.1507 11.3151 9.83664 0.343819 1.360102 -0.130858
H 7.84838 4.61579 2.68176 -0.831678 0.202353 -1.527783
H 11.2249 7.39134 0.3234 0.523657 0.540474 0.028494
H 9.31843 1.35655 8.9416 0.175843 1.420966 -2.15138
H 9.7199 11.678 2.19399 -0.566443 0.873501 -0.549148
H 10.3102 11.4868 3.61789 -0.389147 -0.850306 -0.036583
H 5.06743 9.41654 3.34254 -1.958561 0.59581 0.291985
H 0.6452 9.40114 3.98458 1.109873 -0.829544 0.524148
H 7.05832 6.46343 1.36017 -0.525183 -0.474523 0.089696
H 3.60804 7.86821 11.742 0.164161 0.008535 0.201068
H 7.09534 8.00788 10.2685 1.124023 -0.440344 0.732382
H 2.03663 8.47178 9.96753 1.621519 0.292286 0.601685
H 1.15454 11.4836 10.5581 -0.968936 1.451678 -0.635446
H 0.55361 9.6401 8.17284 0.705219 -0.25244 -0.197983
H 7.91296 10.4398 5.8189 1.076512 -0.432939 -0.900855
H 11.2715 4.89687 1.75718 0.297962 -0.101573 -0.22681
H 3.51346 10.0373 2.89692 1.405289 -0.731868 1.049567
H 10.7936 5.12229 9.20724 0.332961 0.955107 -0.213787
H 9.06726 9.39803 5.52399 -0.301334 0.930836 -0.766235
H 9.75667 10.0942 2.72787 -0.606873 -1.056582 0.279914
H 1.79673 7.5589 3.15461 0.377907 -0.029892 0.469848
H 3.19256 9.54003 10.2484 -0.188236 1.376223 0.354076
H 2.77299 5.93523 8.89323 -0.152533 -1.101732 0.544697
H 6.49724 5.05997 9.40274 1.158696 -0.194966 1.091102
H 10.3591 7.73505 3.22014 0.529315 0.633223 0.483309
H 0.82376 3.18647 5.09864 -0.061659 -0.447196 0.349915
H 12.3579 12.2156 11.8681 -0.00707 0.062959 -1.331892
H 1.81325 9.88491 1.27112 0.113175 0.522477 0.337756
H 9.42564 7.47173 6.32069 0.893568 0.428543 -0.764649
H 5.26376 0.62173 4.78189 -0.147698 0.289292 0.115452
H 6.5058 8.48382 1.99677 -0.096726 0.098561 -0.12571
H 3.09522 7.3468 8.96822 0.711987 1.135893 0.10695
H 8.98398 4.15957 4.88442 0.437075 0.142066 1.402064
H 11.5917 9.35542 4.37586 -0.151845 -0.435768 0.154924
H 0.92633 4.74295 5.06947 -0.417286 -0.689676 -0.152017
O 11.4167 10.6073 8.64324 -0.202573 -1.364814 1.232768
O 1.32404 9.11498 7.82406 -0.546979 1.42882 0.598581
O 6.42798 0.72544 8.74056 0.450429 -2.226162 1.95579
O 6.39197 2.68092 6.96735 0.318889 0.360079 -0.216079
O 12.3164 9.97429 4.25009 -0.646544 0.648848 -0.486972
O 2.19416 1.0234 3.84764 -0.995633 0.95477 2.941651
O 0.42423 3.9709 4.71277 0.369781 1.641955 -0.155015
O 9.66658 0.2066 5.43365 -0.595996 0.968024 -0.597805
O 12.2477 10.0643 1.39559 0.623507 1.031068 1.313339
O 6.24874 9.48168 9.60653 -0.652272 -0.758502 -0.466409
O 11.378 4.66164 12.3138 -0.812977 -1.838828 -1.403382
O 5.98258 11.799 11.0083 -0.539992 -0.810921 -0.883004
O 1.343 6.60084 6.50597 0.954726 0.203777 -0.386666
O 12.1004 7.88327 0.29476 0.443344 -0.805608 -2.007026
O 10.0937 8.13652 5.94129 -0.03259 -1.057389 0.399394
O 1.74261 6.69744 1.61995 0.606811 -0.40573 -0.719122
O 3.36843 6.56053 8.47747 -0.834209 -0.220917 -0.361789
O 9.22752 8.67877 2.44926 0.076474 -0.786055 -0.690556
O 7.72577 7.40348 10.7758 -0.459661 -0.168799 -0.579255
O 1.89988 7.94686 4.06739 1.334243 1.202157 0.068879
O 4.75448 1.22873 1.68373 0.571025 -0.47423 -0.004306
O 10.1951 10.9873 2.7679 0.583631 1.892619 0.428941
O 3.04993 11.1586 11.057 0.838404 0.11892 -0.380606
O 0.426 2.43296 9.53479 -1.48631 0.322789 -0.63332
O 5.56618 5.48547 7.73384 1.002721 -2.018715 0.116972
O 7.42597 4.89153 1.79858 1.102328 0.328473 1.338236
O 6.64059 7.2529 0.93846 0.600463 0.154208 -0.806423
O 7.07844 10.9867 7.28498 -0.031758 -0.32159 -0.000465
O 9.29484 0.94208 9.77207 -0.114185 -1.288013 2.052318
O 0.14611 12.3215 0.42208 0.158233 -0.744761 1.108618
O 4.09902 9.70636 3.68211 0.73443 0.124255 -1.129295
O 2.76669 10.0796 1.39871 -0.103668 -1.185886 -0.950807
O 8.45369 6.16491 7.04709 -0.499911 -0.650321 0.141979
O 7.14972 4.97596 10.1829 -1.290285 -0.641386 -0.93372
O 8.93258 4.15197 3.94242 -0.312759 0.095353 -1.698568
O 2.46147 11.3139 6.6049 2.004092 3.276691 -0.889817
O 9.6355 2.20844 12.1401 0.014024 0.022473 -1.080568
O 11.7737 5.07233 7.8681 0.459751 -0.402134 -0.478919
O 8.10634 1.71678 3.75949 0.521525 -0.233274 -0.404522
O 4.80627 11.6946 5.51741 -1.132923 -1.295068 -1.366589
O 10.262 5.68067 9.83348 -0.667871 -1.575646 0.579186
O 9.02357 0.54522 1.68682 -0.324205 -1.333637 0.050263
O 3.83415 7.69404 0.2899 -2.247817 0.666883 -0.463901
O 0.52631 7.5652 10.1714 0.067914 -0.035353 0.145477
O 11.2012 7.44927 3.68136 -1.016971 -0.21144 -0.516171
O 6.56258 9.21038 2.67113 -0.329363 -1.200278 0.744026
O 1.61872 3.96614 0.42556 -0.104361 0.880035 0.741024
O 11.1908 4.90233 2.72456 0.125577 0.136471 0.562194
O 8.58746 10.1954 5.10211 -0.388687 -0.576032 1.549347
O 2.011 1.4191 1.24293 0.928125 -3.392654 1.533474
O 10.8369 7.95682 8.77108 -1.309018 -0.688091 -0.161888
O 0.32815 12.0299 10.3028 0.924069 -2.313464 0.546569
O 1.60278 5.1655 10.3471 0.99786 1.340136 1.78098
O 12.0518 11.8265 6.13288 -0.102242 -1.238557 -0.669842
O 1.00513 1.73391 6.42147 0.350482 0.02471 -1.186222
O 3.04435 8.60584 10.1871 -1.767111 -2.03881 -0.415329
O 5.42317 1.52046 4.35623 0.508056 -0.287327 0.857038
O 9.68894 7.11289 0.40761 -1.042572 -0.957629 -0.199469
O 6.53521 11.6575 1.31239 -1.433104 -0.121347 -0.456475
N 8.91062 9.83953 11.9225 0.762056 0.423824 -1.022285
N 5.36838 8.58046 6.21232 -4.30406 0.682905 3.619227
N 3.35287 0.88616 9.20361 -0.385676 3.701279 -0.512186
N 6.42086 5.95611 4.44729 -1.462388 -3.787689 1.094903
N 4.14274 3.86664 2.75816 -0.571432 1.311888 0.517269
N 3.21948 2.00004 9.07323 0.542493 -3.59586 0.366519
N 6.02842 4.9298 4.72855 1.686056 3.949018 -0.843609
N 4.49999 8.73424 6.94444 4.328679 -0.743334 -3.629003
N 3.79394 4.81009 3.2367 0.208315 -1.213683 -0.699476
N 9.58288 10.0789 11.0683 -0.753522 -0.246305 1.027123
N 11.3854 1.85537 2.34284 0.14164 0.262874 -1.483112
N 11.3742 1.80778 3.43771 0.092576 -0.180642 1.573624
Cl 9.36352 3.20383 7.42782 0.325181 0.112473 -0.148766
Cl 6.48818 2.71681 12.3588 0.330949 0.296038 -0.425225
193
energy=-1086.91682599 config_type=nep2xyz pbc="T T T" virial="-15.454673245640874 -2.0500017643435577 3.2275395523200556 -2.0500017643435577 -11.879504726838725 -5.492613831768052 3.2275395523200556 -5.492613831768052 -11.115546875228059" Lattice="12.4 0.0 0.0 0.0 12.4 0.0 0.0 0.0 12.4" volume=1906.6240000000003 Properties=species:S:1:pos:R:3:force:R:3
H 2.92741 5.3341 0.36604 -0.949529 -0.069599 -0.012771
H 3.89781 9.95383 6.88474 0.759471 0.135018 -0.764611
H 2.28802 7.99363 2.77498 0.153549 0.516321 0.234458
H 8.58933 3.94958 3.22788 0.182177 -0.206341 0.022767
H 9.71068 4.16818 10.8641 -0.580841 -0.185114 0.74128
H 7.42314 0.69665 4.79158 -0.181835 -0.330682 -0.747886
H 9.39829 4.44611 7.01647 0.336553 -0.113575 0.732545
H 6.20215 8.19079 8.72885 1.774921 0.103019 -0.559763
H 6.70823 2.88758 5.52331 2.248055 -0.073841 -0.128171
H 10.6145 7.88915 10.2979 0.719712 -0.991524 0.476791
H 1.38482 6.06017 6.503 -1.017894 -0.710271 -0.728943
H 11.1983 6.22758 1.23846 0.314505 0.036237 -0.310047
H 7.82962 5.03303 8.06313 -0.56768 0.186274 0.827177
H 3.81644 2.07921 11.9518 -0.666606 0.057052 0.679442
H 9.02956 7.50715 3.74416 0.291614 -0.286619 -0.519161
H 3.34533 8.85494 0.20065 -0.167279 0.19451 -0.553307
H 4.52142 6.1784 12.163 -0.004354 -0.608656 -1.366142
H 3.42174 11.9271 2.70167 0.248126 -0.705256 0.733809
H 10.673 11.4187 11.9777 -1.019545 0.050279 0.539724
H 5.4974 4.50123 11.1236 0.575862 -0.802712 -0.395143
H 0.12634 10.3874 7.41717 1.57228 -0.343209 -0.884272
H 11.6346 8.72535 1.95064 -0.76148 -0.916554 0.122624
H 4.21958 9.25423 2.33021 0.330049 0.526103 0.531076
H 6.67575 10.9268 0.80551 -0.282679 -0.095793 0.150659
H 9.76712 4.83493 8.71894 -0.419852 0.095151 -1.365925
H 1.75776 6.62847 2.88287 -0.514136 -0.72574 -0.014012
H 5.68646 11.2669 6.10951 -0.23376 -0.824962 -0.202043
H 4.12888 8.57123 8.78142 -0.249167 0.754947 -0.963156
H 11.8481 2.11956 12.3764 0.021829 0.258774 0.127921
H 4.72731 5.41081 1.20867 0.919191 -0.499562 -0.080619
H 6.20119 12.288 7.63468 0.067283 -0.166286 0.68824
H 1.8543 7.78941 9.97321 0.576709 0.246791 0.486383
H 12.1038 12.2349 4.16457 -0.366252 -0.808573 0.701234
H 11.7259 4.43308 10.1622 0.288277 -0.651458 -0.018271
H 8.03157 7.54712 1.82789 0.301289 -1.137172 0.648721
H 11.4995 9.29306 8.95502 -0.106248 -1.430855 0.17525
H 8.44723 2.36519 0.96286 -0.83063 1.478011 -1.006554
H 11.9005 3.97458 1.21461 -0.516198 -0.459787 -0.287418
H 2.11178 0.48766 2.7162 0.546562 -0.498019 -0.462273
H 12.2209 4.19015 3.24123 0.321457 0.446898 -0.538415
H 8.41196 5.3496 2.59552 0.248046 0.061863 -0.19214
H 2.3095 9.45265 11.6833 -2.428077 1.747031 0.238996
H 10.4562 7.66206 4.68439 0.652318 0.503752 -0.166905
H 12.2977 1.28075 2.16411 -0.373009 0.304011 -0.161282
H 11.4239 4.0182 4.55938 1.446292 -0.971051 -0.637717
H 7.41508 12.097 11.1505 0.228273 0.117237 0.994509
H 10.8919 9.90182 2.84343 0.669135 -0.770654 -0.756805
H 8.84858 4.55643 0.54626 -0.405922 -0.768573 -0.577427
H 5.31027 0.33173 10.757 0.195068 0.084867 0.19521
H 6.19684 1.23018 2.64967 0.622864 -0.338617 0.708384
H 5.3934 5.39374 7.62273 0.37785 0.369108 0.045941
H 10.393 10.5446 0.80375 -0.785349 0.512443 -0.238159
H 0.59566 2.61202 10.7303 0.050953 -0.272651 0.487846
H 5.83075 7.18805 0.85565 1.177183 0.168722 0.136131
H 8.36914 11.512 12.2997 0.051227 0.806269 -0.40689
H 10.4117 2.1499 0.68392 0.289754 0.077001 0.420721
H 3.12558 8.54303 6.9981 0.421984 0.738741 -0.543077
H 0.63122 5.03705 1.13104 -0.038652 -0.349793 0.149186
H 10.6524 11.0545 8.40536 0.005802 0.070829 0.055091
H 1.54666 6.5189 9.17084 0.668451 -0.542543 -0.192748
H 5.614 0.9498 12.1999 0.308373 -0.289961 -0.006916
H 5.54098 3.02238 4.51289 0.303217 0.082296 -0.506012
H 0.2393 2.15607 3.44234 -0.205605 -1.443249 -0.454648
H 7.20634 7.0432 8.40815 0.094996 0.568902 0.048888
H 0.0495 11.3208 5.42805 -0.687407 0.040265 -0.459796
H 5.68105 0.56554 6.34402 -0.009971 0.779415 0.010041
H 0.73034 4.9615 10.5097 0.568791 0.206255 0.561122
H 9.71828 1.23661 5.12695 -0.242679 1.611276 0.166988
H 7.14251 9.94285 10.6638 0.269703 -0.199993 0.38299
H 1.61475 1.76634 11.687 -1.866098 0.292715 -0.795233
H 6.71306 4.60234 2.11056 -1.237232 -0.447107 0.080504
H 4.74067 1.21054 2.15338 -0.099249 0.008795 0.008436
H 0.3678 11.4138 11.9304 -0.52444 -0.112295 -0.539872
H 8.1014 0.93629 3.45213 0.264469 0.178691 -0.428685
H 4.63572 4.45988 6.67421 -0.096768 2.120349 0.340514
H 5.8814 9.75263 5.96089 0.195007 -0.138149 -0.185095
H 5.88016 2.91504 11.0033 -0.37319 -0.447521 0.10096
H 8.2056 11.7005 7.98754 0.371665 0.062955 0.163807
H 10.3696 12.3042 5.12345 -0.423903 -0.473709 0.499012
H 6.30203 9.46669 1.17622 0.335777 -1.852224 -0.549785
H 0.57867 10.2252 1.42291 -0.076189 0.387632 0.285739
H 2.55037 7.17453 4.94661 -0.443704 0.318341 -1.170959
H 3.06669 1.75106 0.89314 -0.006411 0.057805 -0.119602
H 9.31725 8.081 10.8219 -0.053422 -0.92483 1.400133
H 9.5404 6.96873 1.87638 -0.255206 0.366639 0.140749
H 11.657 11.2763 9.70021 0.249535 -1.104511 -1.593094
H 5.7538 3.38918 2.01679 -0.39611 0.447006 -0.035223
H 10.5704 7.30039 0.1711 -0.051807 -0.003519 -0.603662
H 7.66006 4.07321 11.9474 0.416155 0.008957 -0.036045
H 9.1734 11.3322 3.68067 -0.133302 -0.802031 -0.197611
H 9.13618 12.1043 6.78311 0.090301 1.059405 -1.146211
H 4.63216 10.6048 4.43691 0.259424 0.061193 -1.045322
H 1.58202 9.73661 7.04539 0.715159 0.137594 0.555487
H 6.8676 7.87133 12.2737 0.27463 0.27052 0.635905
H 4.11397 7.80947 1.6243 0.534664 -0.668538 0.000972
H 10.3038 5.59668 10.7687 -0.439678 -0.538643 -0.735552
H 3.74441 5.50803 9.88417 1.059593 0.279957 1.395852
H 4.10572 8.42061 10.2928 0.168081 0.500648 0.519673
H 12.3531 7.82616 9.37717 -1.172447 0.513988 -0.398474
H 8.22753 10.2167 6.62913 0.468959 -0.467336 -0.117421
H 0.49325 5.04815 5.57399 0.341 0.104074 0.280636
H 5.2555 10.9126 2.95594 -0.219116 -0.382821 0.250243
H 2.43425 3.91308 0.15261 0.174277 -1.167288 0.051937
H 10.9407 7.41324 7.80949 0.296595 0.646152 -0.048854
H 8.16652 10.3211 3.0124 1.931315 0.341408 0.283813
H 3.61216 6.64001 6.02107 -1.513061 0.825612 -0.182881
H 4.8258 6.64431 10.032 0.115214 0.433969 -0.212148
H 3.29353 5.46965 8.04907 -0.60179 -0.871405 1.090741
H 6.76636 4.73825 9.31356 0.492532 0.580425 -0.939857
H 0.31565 8.4484 4.14889 -1.419318 -0.66718 0.36173
H 10.1138 6.1971 7.14814 -0.433415 0.142946 0.381818
H 12.37641 0.37123 11.2224 0.310097 0.48139 -0.290629
H 1.90674 11.131 1.05444 -0.755368 -0.475802 0.339123
H 7.68726 8.74538 6.93518 0.566716 1.037692 -0.70008
H 8.35973 0.81954 1.07344 0.456684 1.091641 -0.133473
H 7.56926 8.68639 10.0077 0.127201 0.110164 0.717234
H 2.01162 4.61433 8.68352 0.676521 0.369853 0.285802
H 9.1152 8.32846 5.23559 -0.253134 -0.089549 -0.124631
H 12.3833 9.05986 5.47758 -1.145505 -0.775904 -0.305567
H 11.6294 6.40006 6.67496 -0.84467 1.10934 0.130117
O 11.5274 10.7745 8.77153 -0.368404 0.962152 1.649689
O 11.4322 8.22385 9.05977 1.181651 0.805119 -0.056521
O 7.26797 0.62771 3.82208 -0.224498 0.079693 0.81099
O 5.79084 2.99457 5.43469 -2.615484 0.152289 0.786072
O 0.79892 10.1498 6.67784 -2.314185 0.572824 0.332026
O 5.59799 1.64091 2.01487 -0.763213 0.258035 -0.774045
O 10.7356 6.98873 6.89661 1.975323 -1.830894 0.181732
O 9.47376 0.33989 5.31979 1.00998 -1.101763 -0.548689
O 11.5898 9.65152 2.17341 -0.116338 1.531989 0.265831
O 7.1736 8.04598 8.3868 -2.01755 -0.835306 0.700511
O 12.3475 3.83484 4.14189 -1.764645 0.540773 1.177274
O 6.45034 0.11827 6.71756 -0.335239 0.161496 -0.893218
O 1.22034 7.07853 9.88277 -1.323886 0.781986 0.222604
O 10.0692 7.45975 11.0582 -0.835661 1.61963 -1.570159
O 6.19003 10.3585 1.44478 0.231263 2.273669 0.462678
O 1.71038 7.45478 3.36477 0.657757 0.403246 -0.460798
O 2.70876 5.28411 8.89274 -0.256099 -0.153298 -2.330234
O 8.65765 6.9952 2.41084 -0.266399 1.102707 -0.301355
O 10.305 4.70523 10.3089 -0.00652 1.59523 -0.452847
O 2.75699 7.18312 5.8816 1.927388 -1.3067 1.727889
O 5.24744 1.13158 11.3226 -0.548995 0.606829 -0.053586
O 9.14798 10.4516 3.23501 -1.881119 0.461702 0.027127
O 3.06783 8.93733 11.6445 2.522825 -1.882593 -0.064826
O 9.08032 11.5748 7.57711 -0.281324 -1.262153 1.550904
O 4.58879 5.42025 7.04775 0.01668 -2.421578 -0.670769
O 5.7242 4.37961 2.1031 1.111269 -0.261864 -0.001993
O 6.72624 7.66682 0.83424 -1.214552 0.014393 -1.12142
O 4.65794 8.22654 9.50702 0.205752 -0.561151 0.381704
O 8.64122 4.06448 12.1147 -0.157215 0.17946 0.544429
O 0.67326 1.75124 11.2499 2.060127 0.987145 0.423179
O 4.42476 10.7169 3.44658 0.016908 0.28327 -0.156315
O 1.17827 10.5543 0.71869 0.841339 0.580505 -0.717725
O 9.3768 5.10602 7.79357 0.457597 -0.362655 0.524933
O 6.95211 5.285 8.4979 -0.731231 -0.320198 0.429603
O 9.47422 7.56404 4.67987 -0.755302 0.56716 0.731306
O 3.3601 9.39273 7.44595 -1.434389 -1.425617 1.169521
O 11.3293 2.50823 0.71801 -0.177204 -0.552002 -0.151058
O 0.30287 4.1898 10.1374 0.391918 -0.091141 -0.467342
O 8.43211 4.38753 2.37403 -0.231727 0.452614 0.356251
O 5.19459 10.4221 5.81532 0.508408 0.562614 0.815031
O 2.10193 4.80318 0.24085 0.267791 1.799467 -0.043311
O 0.27454 1.21091 3.05183 0.511965 1.140535 0.808938
O 3.69558 8.65396 1.78839 -1.210424 -0.122433 -0.185335
O 9.90958 11.1667 0.1953 1.982751 -0.781828 0.005701
O 11.9528 8.43493 4.79972 2.249667 0.991214 0.153315
O 7.63508 9.12087 10.9101 -0.28969 -0.554075 -1.07839
O 12.1814 4.82905 1.59858 0.31706 0.785267 0.078605
O 0.57975 5.45047 6.47144 0.166157 0.963118 0.199926
O 8.03768 9.35614 6.1873 -0.725226 -1.035553 0.780039
O 3.0641 2.38723 0.14961 0.802411 -1.118375 -0.686308
O 6.22097 3.80643 11.1343 -0.221064 1.316955 -0.07314
O 12.1676 11.82 11.2209 -0.180302 -1.257031 0.303735
O 4.47107 6.22428 0.72138 -0.619515 1.071963 1.455599
O 11.7193 11.5439 4.79488 1.193722 1.05705 -0.60878
O 2.8551 0.10847 2.1726 -0.97156 1.324395 -0.492393
O 4.54269 5.83335 10.4826 -0.821011 -1.105681 -0.12977
O 8.7686 1.64029 1.45896 0.479993 -2.345974 1.02206
O 10.7984 7.12267 1.1073 0.331953 -0.31143 1.061127
O 7.64392 12.1906 12.1152 -0.311051 -1.10328 -0.516817
N 7.78137 2.52703 8.91076 0.230577 -2.222482 1.014208
N 6.13205 7.93215 4.03957 -1.156962 1.950177 -2.450202
N 2.94366 1.053 8.86801 0.413148 1.63906 -0.120648
N 3.24156 4.43486 4.16012 1.215802 -0.664564 1.809661
N 2.18064 0.4572 5.23758 -0.699971 0.178858 -0.01276
N 3.20104 2.13589 8.78902 -0.371526 -1.676128 0.096705
N 2.65981 4.69833 3.27537 -1.10493 0.505765 -1.694905
N 6.49209 7.26815 4.81918 1.02472 -2.101802 2.401948
N 3.22909 0.18247 5.42308 0.768351 -0.029133 0.280252
N 7.86103 1.53548 9.42639 0.025336 2.183569 -1.019561
N 11.536 2.10793 8.77117 0.581196 -1.211968 -1.029464
N 12.0872 1.36129 8.15372 -0.744828 1.102133 0.760273
Cl 9.41721 3.54372 5.35487 -0.057783 -0.072392 -0.234213
Cl 6.22485 11.2588 9.35367 -0.215911 0.253066 -0.012176
193
energy=-1087.46187898 config_type=nep2xyz pbc="T T T" virial="-12.719231222485801 -8.312416451369502 4.633966000481291 -8.312416451369502 -1.9022963442430607 1.866690912649386 4.633966000481291 1.866690912649386 -6.260927160639176" Lattice="12.4 0.0 0.0 0.0 12.4 0.0 0.0 0.0 12.4" volume=1906.6240000000003 Properties=species:S:1:pos:R:3:force:R:3
H 9.485 5.27629 10.1156 0.446456 -0.049869 0.206227
H 2.69336 11.3543 8.98567 0.257822 0.78156 0.031298
H 2.45239 7.32843 1.36576 -0.220393 0.033435 -0.358161
H 7.05064 1.28035 3.67609 -0.782419 -0.443203 0.543455
H 7.71372 7.0445 10.0107 -0.004761 -1.545205 -0.466551
H 7.05704 1.01433 8.74072 0.054915 -0.481913 0.887325
H 7.40142 5.41312 5.97018 0.457083 0.1012 0.001132
H 5.5866 9.97849 10.3963 0.302176 1.105346 0.65051
H 6.19589 1.61218 6.63257 -0.963873 -0.678037 -1.413262
H 1.27485 8.8643 7.22145 0.537531 -0.278007 0.186745
H 11.7305 5.01744 3.25659 -0.725589 0.957343 -0.676541
H 8.83356 7.65732 11.6808 0.293485 0.155163 0.363521
H 7.42314 4.42764 10.4874 0.08922 1.029956 -1.150606
H 1.69769 2.64582 1.27654 0.623166 -0.690715 0.327173
H 9.04942 8.31971 1.39952 0.007192 -0.257193 -0.379207
H 2.41946 11.4724 11.3888 -0.41482 1.269611 1.603736
H 1.81585 4.42406 11.2026 -0.04081 -0.295969 0.812025
H 0.74709 2.42498 7.58055 -0.330802 0.310858 0.689284
H 12.1499 7.37241 9.45776 1.007792 -0.548499 1.21504
H 10.3213 7.66336 8.08171 0.677849 0.031532 -0.183096
H 10.0384 10.9654 8.1977 -0.346865 -0.058473 -0.664347
H 12.2698 9.55171 1.17168 0.271421 -0.222677 -0.276575
H 4.16331 7.81596 0.27702 0.033923 -0.014983 -0.059216
H 11.2329 6.97731 3.37788 -0.328389 0.294952 0.246984
H 8.46213 4.45294 6.20767 0.880023 -1.446167 0.620513
H 0.88898 6.98385 1.55609 2.070655 -0.185606 0.8075
H 3.63379 11.5777 6.92712 0.646097 -0.454592 -0.025421
H 6.08514 9.90355 8.25888 0.406573 -0.043196 0.51523
H 9.39922 2.21932 11.0279 0.428658 -0.345465 -1.244964
H 1.07685 4.23373 9.80769 -0.475722 -0.484061 -0.344836
H 5.70706 11.7231 12.0799 0.166341 -0.319528 -1.181599
H 2.43007 7.21661 5.99076 -0.414838 0.398991 0.487894
H 11.866 12.2561 5.62387 -0.818909 0.216105 -0.233887
H 0.63971 6.51974 6.82867 -1.040737 -0.467996 -0.18748
H 7.78523 9.01059 2.19071 1.017838 -0.229764 0.400907
H 11.0244 10.1715 8.98748 0.034731 0.007021 0.001876
H 4.77524 1.36895 3.94248 -1.093684 0.036808 -0.71812
H 0.45982 4.25315 0.59751 0.237156 -0.146694 -0.256397
H 0.87032 0.97648 6.86184 0.169774 -0.173023 0.663557
H 10.9688 4.95422 11.6907 -0.109408 -0.863782 0.70958
H 7.55397 2.57755 3.10841 -0.125009 1.863727 -0.465219
H 3.96785 11.2282 10.7329 -0.757224 0.65888 0.974257
H 9.68933 4.46107 2.9621 -0.349418 0.297416 0.061347
H 9.17052 0.99559 0.82018 0.656872 -0.139521 -1.131402
H 10.5754 3.62112 0.08704 -0.650813 -0.659613 -0.259687
H 5.69623 0.01361 1.522 -0.20606 0.746837 0.194406
H 11.8208 10.7809 1.98314 0.31138 -0.123111 -0.080068
H 9.75592 1.99663 8.40696 -0.315397 -0.027721 -0.868987
H 5.44654 1.98748 1.06129 -0.794623 -0.421756 0.327676
H 2.1801 11.9522 3.36646 -0.047617 -0.328045 -0.108344
H 6.66773 3.65765 7.36398 -0.000141 -0.198731 0.143021
H 0.73498 6.32161 10.3656 -0.381438 0.083977 -0.651133
H 0.70709 11.6865 0.18016 -0.31862 -0.339287 0.741388
H 6.12813 7.3043 11.9436 1.03133 0.061061 -1.162359
H 7.30865 12.2072 1.27411 -1.062448 -0.452194 -0.14225
H 8.36703 2.61677 12.0667 -0.383011 -0.011429 -0.124679
H 1.95497 10.8711 7.76112 -0.043561 0.236675 -0.407945
H 1.58101 4.96098 1.41188 0.29946 -0.40698 -0.632683
H 11.7092 3.00986 9.23981 0.396188 0.993781 -1.376726
H 2.74033 7.03004 7.56017 -0.394738 0.203476 -0.333038
H 3.8954 1.73048 1.39774 1.110128 -0.741181 0.432972
H 7.68386 2.16695 6.47297 1.50867 -0.355863 -1.510029
H 8.55226 0.91278 2.18248 0.351889 -0.670244 0.408756
H 4.59124 8.92896 9.81215 1.001055 0.074701 0.082668
H 0.48857 11.3429 6.27577 0.401896 0.220958 0.352552
H 6.1058 12.2595 10.5613 -0.634208 -1.072876 0.629436
H 11.5849 6.84671 6.3317 -0.300445 0.175702 0.353606
H 9.74987 0.30428 5.3015 -0.013635 0.089076 0.055645
H 6.38021 10.5005 1.93044 0.01249 -0.119352 -0.122213
H 1.55236 0.64305 0.4016 -0.138712 -0.299348 -0.052488
H 7.53493 4.50743 0.09319 0.013152 0.7676 0.859157
H 1.45549 0.26017 4.58143 0.586153 -0.402481 -0.346498
H 5.8056 10.8952 7.13287 0.432601 0.094397 0.398325
H 6.81888 11.9044 8.81914 0.399822 -0.006452 0.230472
H 5.62533 4.82278 7.42015 1.591998 -0.187784 0.64953
H 4.27838 10.7447 5.57341 -0.415081 1.07251 1.737489
H 9.76912 8.30674 9.29759 0.064178 0.231567 0.676218
H 11.8944 4.23236 8.08444 0.157571 -1.044016 1.35004
H 9.61476 11.1116 5.65376 0.247709 0.4223 0.169152
H 10.2639 7.55303 5.25058 0.219508 0.840309 -0.070274
H 3.39245 9.8887 1.55967 -0.666132 -0.144163 -0.332701
H 2.95432 8.19312 4.27242 0.185679 -0.682217 -0.229132
H 1.80924 1.42886 2.34509 0.062732 -0.240017 1.143846
H 0.1689 8.0777 11.8709 -0.864353 -0.540767 1.245513
H 8.84214 6.57002 0.31569 0.567001 -0.162925 -0.026732
H 12.0607 12.1144 9.58575 0.678764 1.699225 -0.342735
H 8.11069 4.93881 1.52114 0.31278 -0.40318 1.107037
H 11.1936 7.75368 0.11493 -1.076727 -0.487008 -0.054078
H 9.88892 0.78688 9.38632 0.07409 0.036511 -0.233463
H 9.72573 11.7141 2.05282 -0.206088 -0.438875 0.171205
H 10.1559 11.3609 3.67764 -0.624908 -0.634627 -0.339077
H 4.81065 10.021 3.92789 -0.29916 -0.589619 -0.034236
H 1.30011 8.82776 4.36186 -0.572344 -0.404994 -0.207704
H 6.2275 6.46827 0.82483 0.39046 -0.451627 -0.116435
H 3.03971 8.4188 11.7394 0.261209 -0.012478 -0.126178
H 6.82648 8.30377 10.2167 -0.315981 0.329726 -0.005992
H 2.06673 7.94237 9.92701 0.934512 1.08864 0.004344
H 0.82509 1.06116 8.54934 0.199794 0.16313 -0.168924
H 0.60785 9.5456 6.06967 -0.09262 0.111092 -0.315033
H 8.22279 10.2456 6.98939 0.396077 0.226661 0.31076
H 11.3379 5.20331 1.66591 -0.08891 0.476744 0.303281
H 3.37889 10.4116 3.65815 -0.301257 0.007449 -0.515369
H 10.6554 6.31069 9.88645 -0.410566 -1.373193 0.686153
H 9.19304 9.23178 6.33684 0.644091 0.240817 0.664629
H 9.56486 10.0448 2.57193 -0.501019 -0.307878 -0.261763
H 2.18961 7.10881 3.36164 -0.103629 -0.144512 -0.271643
H 2.41089 9.49483 10.2529 1.059097 -0.654857 -0.380058
H 3.08019 5.41095 9.29676 -0.215297 -0.30785 0.039713
H 7.48114 5.06258 8.98609 -0.489066 -0.581643 0.034637
H 10.3389 8.2137 3.2226 -0.565614 -0.246773 0.401363
H 10.7748 3.85927 5.1335 1.123488 0.714072 -0.327265
H 0.70029 0.38002 10.5782 -0.082346 0.315666 -0.520669
H 1.93669 10.4416 1.97805 0.108974 -0.395036 -0.578621
H 9.37887 6.80871 6.13282 -1.752897 -2.144056 0.343623
H 4.90143 0.19119 5.0619 -0.068412 0.833396 -0.356724
H 5.87928 9.00947 1.68047 0.340248 0.057029 0.255213
H 4.14724 6.51615 9.3363 -0.31005 -0.486532 -0.645821
H 8.60549 4.84426 4.03127 0.080217 -0.346737 -1.141774
H 12.1858 9.22136 4.01647 0.623011 -0.567813 0.328845
H 11.7048 5.11122 5.54364 0.163375 -0.38283 -0.195476
O 10.5281 11.0029 9.01946 0.8129 0.021195 0.709622
O 0.82309 9.69897 7.02137 -0.670931 0.541455 0.442614
O 7.08959 0.26769 9.39975 -0.162803 0.63917 -1.362176
O 6.93795 2.0284 7.02527 -0.656818 0.812982 2.824198
O 0.59456 9.491 4.49836 -0.14711 0.739461 -0.298834
O 2.21149 0.3137 3.94684 -0.379339 0.722958 0.313229
O 11.4855 4.49172 4.79905 -0.973771 -0.954733 0.46132
O 10.0577 11.802 5.05847 0.215625 -0.25119 -0.545453
O 0.19152 10.4233 1.49865 -0.421969 0.199627 0.089545
O 5.56695 9.1683 9.87189 -1.682121 -0.926938 -0.855469
O 11.1733 4.36809 0.11579 0.896014 1.471947 -0.168992
O 5.57305 11.5442 11.1024 0.315663 1.000636 0.18946
O 2.14787 7.50266 6.90825 0.807747 -1.466072 0.098801
O 12.0933 7.98258 0.36033 1.741829 0.764994 -0.923529
O 9.90955 7.57277 6.20313 0.916518 1.439435 -0.347671
O 1.84156 6.7917 1.92765 -2.223989 0.082298 -1.075538
O 3.66446 5.93256 8.70993 0.507297 0.839471 0.416239
O 8.79855 8.73276 2.25566 -0.418962 0.986186 0.267493
O 7.51236 7.73302 10.6236 0.383647 1.042061 0.619432
O 2.4181 7.36448 4.29479 0.540224 1.183462 0.90966
O 4.83731 1.42437 1.62102 -0.419276 1.22038 -0.656193
O 10.0781 10.9297 2.679 0.915945 0.913959 0.904539
O 2.96911 11.1677 10.6875 1.247297 -1.762593 -2.649612
O 12.346 3.56571 8.6823 -0.83268 0.241533 -0.168266
O 6.60977 4.6324 7.52954 -2.244175 0.388999 -0.38798
O 7.83812 5.27525 0.66769 -0.57815 0.14697 -1.448764
O 5.72546 7.16451 0.38715 -1.167637 0.507893 1.234213
O 6.56873 10.5808 7.74732 -0.690849 0.099476 -1.005525
O 10.1458 1.70665 9.23045 0.076782 0.199825 1.366759
O 1.22031 12.367 12.1386 0.175469 0.553211 -0.495099
O 3.91009 9.91414 4.30852 1.135523 -0.126086 0.194533
O 2.90366 10.6003 2.00539 -0.013995 0.58306 0.586535
O 8.33456 5.24843 5.72047 -0.462315 1.570441 -0.818631
O 7.78335 5.18029 9.90542 0.296517 -0.757314 0.82715
O 8.72391 4.53768 3.0736 0.11648 0.03821 1.103841
O 2.52307 11.621 8.04929 -0.466619 -0.984177 0.198368
O 9.29498 2.31981 11.9699 0.183937 0.014423 1.487775
O 12.1078 6.12531 6.71021 1.696364 0.444017 0.545739
O 7.85306 1.75133 3.43171 0.873539 -1.664883 -0.233756
O 4.47342 11.3713 6.391 0.106353 -0.515651 -1.59103
O 10.4685 5.39473 10.2616 -0.242567 1.214626 -0.878772
O 8.98654 0.29629 1.48076 -1.204537 1.712134 0.597807
O 3.32326 8.33104 0.27328 0.124966 -0.088051 0.650548
O 0.4148 7.23797 10.2009 0.271051 0.475474 -0.473084
O 10.9049 7.7893 3.89795 0.442351 -0.084217 -1.050221
O 6.39253 9.56244 2.30576 -0.623232 -0.810505 0.024886
O 1.44174 4.22046 0.76243 -0.702859 0.387541 0.521213
O 11.4352 5.68269 2.53635 0.794685 -1.467611 0.062069
O 9.19745 10.1175 6.79593 -1.579355 -0.597009 -0.786679
O 2.08755 1.72517 1.48313 -0.169852 1.225142 -1.444052
O 10.5929 7.8951 8.99959 -0.977653 0.021604 -0.9911
O 0.24685 0.54002 9.69424 -0.6194 -1.892273 0.814845
O 1.80156 4.66886 10.2778 0.421147 1.090519 -0.306615
O 0.35248 12.268 5.99233 0.372021 -0.419158 -0.189976
O 1.18315 1.5561 7.65049 -0.069624 -0.540951 -0.611779
O 2.83786 8.60729 10.025 -1.937501 -0.350854 0.214988
O 5.34381 0.92276 4.54862 1.315145 -0.899291 1.264407
O 9.40248 7.35136 0.0352 -0.663717 0.128514 -0.164881
O 6.39896 11.7779 1.26391 1.065376 0.436411 -0.188845
N 9.33601 10.6446 11.7019 -1.252135 -0.060849 -0.741646
N 5.92413 7.78065 5.83149 -1.786446 -0.7238 5.276342
N 3.89306 1.77532 9.19096 -0.678425 -2.140028 -0.413185
N 5.98507 4.32127 4.48253 1.944115 -2.432872 1.80859
N 2.0865 3.66046 5.19916 -1.168031 -0.445493 -1.855076
N 4.25755 2.77824 9.42146 0.683691 2.107284 0.337231
N 5.34894 4.99239 3.91771 -2.212672 2.342774 -2.02441
N 5.56135 7.63487 6.9087 1.788536 0.733466 -5.2943
N 2.69101 3.8579 6.08639 1.263439 0.458519 1.81458
N 8.42626 10.5864 11.0607 1.266616 -0.021162 0.920418
N 11.9691 1.37576 3.64483 0.126645 -0.617378 0.863059
N 11.6483 2.01281 2.81127 -0.426194 0.806262 -0.988582
Cl 9.82622 2.25417 6.23043 -0.138624 0.173644 -0.10533
Cl 6.39111 3.00758 11.7303 0.158948 -0.022689 0.133108
193
energy=-1086.72446725 config_type=nep2xyz pbc="T T T" virial="8.156357083080916 -7.892910209878789 -2.4755771134922835 -7.892910209878789 2.320112755758405 -4.283933191358183 -2.4755771134922835 -4.283933191358183 -3.9250942260254087" Lattice="12.4 0.0 0.0 0.0 12.4 0.0 0.0 0.0 12.4" volume=1906.6240000000003 Properties=species:S:1:pos:R:3:force:R:3
H 8.83256 1.59632 9.12189 -0.255197 -0.249535 0.121448
H 6.72075 11.1506 7.85928 0.051854 -0.304872 0.650949
H 2.07856 6.13964 0.50117 0.272964 0.30857 -0.005838
H 9.45104 4.05993 8.21299 -0.082971 -0.014092 1.006722
H 6.96438 7.09865 10.5419 -0.685345 -0.173771 -0.171681
H 9.61391 2.61289 6.48088 0.142719 0.415994 0.3309
H 7.06181 5.28062 9.10705 -0.356736 0.000508 -0.611976
H 4.04181 8.79896 9.00573 -0.302372 0.693264 -0.013331
H 5.02996 1.81928 7.13957 0.363865 0.671711 -0.207922
H 1.41779 11.3446 7.54143 0.545383 0.092145 0.435806
H 12.3004 7.30961 2.63952 1.834164 -0.064862 0.401501
H 5.0747 8.50014 0.90204 0.126648 -0.350244 0.305877
H 7.01096 2.503 11.4649 0.377255 0.622641 0.342941
H 3.0097 1.37883 1.27842 0.222161 0.200271 0.617403
H 12.0732 0.61711 2.8649 -1.880442 -0.721043 -0.389481
H 3.58795 10.6275 10.4474 -0.415468 0.297347 0.02481
H 2.51835 4.01533 9.64747 -1.091905 -0.662206 1.251889
H 1.35509 0.0883 3.79754 -0.208012 0.918663 -0.465099
H 12.3493 10.6012 9.57054 0.46294 0.164572 1.06504
H 8.89095 3.1796 10.4138 0.75425 -0.219813 -0.172463
H 10.6317 6.50188 9.04369 0.379943 0.855863 0.678613
H 11.5248 10.2738 4.61368 0.651611 -0.054934 0.799405
H 3.30913 7.86687 12.0177 -0.940413 -0.460636 -0.448335
H 9.60067 8.11907 7.65221 -0.432945 1.017846 -0.850008
H 7.58503 4.8806 10.471 0.333089 0.937047 -0.559688
H 1.2805 4.86001 0.24192 1.245704 1.111199 1.828414
H 5.28585 10.4521 5.96753 1.427001 -0.026691 0.689748
H 4.03798 7.86054 6.74198 -1.79765 -0.059806 -0.467169
H 9.81974 9.73983 10.3468 -0.331362 -0.017112 0.191873
H 3.15762 3.21523 8.38905 -0.34703 1.001346 0.582433
H 5.87403 12.1002 0.64774 0.481019 0.752097 0.24135
H 12.1811 5.37609 8.38208 0.617936 0.233293 0.094956
H 0.65839 3.02146 6.03055 -0.089616 0.44262 0.372133
H 11.5094 4.5607 6.79087 -2.30051 -0.098901 -0.123316
H 10.3962 0.60034 2.39943 -0.390711 0.410243 -0.266629
H 9.10423 6.35292 9.47187 -1.001963 0.119146 0.225504
H 5.70374 0.91053 3.56686 0.230102 -0.078962 -0.112187
H 0.56359 4.90033 10.4782 0.742617 -1.642613 0.587092
H 0.96297 1.37752 4.61537 -0.240914 0.875859 1.65793
H 12.2284 1.8144 9.57888 -0.045533 -0.729281 -0.446629
H 9.5212 5.2647 7.15605 -0.783793 0.933369 0.014577
H 4.98217 10.536 9.80652 0.953111 -0.0023 -0.151732
H 9.56089 9.6667 4.27475 -0.712782 -0.840104 0.547601
H 9.24245 11.7006 9.10604 -0.533187 1.178845 -0.668364
H 12.0924 1.4547 11.1523 -0.413845 -0.727998 -0.095869
H 7.81766 11.6353 2.98657 -0.01605 -0.38965 -0.846312
H 11.0334 11.4649 3.538 0.219053 -0.137101 -0.372337
H 9.31646 8.7897 11.6569 -0.204723 0.681588 0.72707
H 6.74897 2.21484 1.38079 -1.180807 -0.661744 -0.920803
H 2.3097 10.2017 3.16163 0.31532 0.011671 0.574811
H 6.33352 3.68721 7.74412 -0.539015 0.117648 0.125313
H 0.2004 9.72299 10.886 -0.122004 0.04226 0.163752
H 9.52565 11.7991 11.8274 -0.847664 0.158283 -0.070033
H 6.40801 8.11275 2.64606 0.633969 -0.57023 0.23232
H 7.80363 10.2286 3.4628 0.199736 -0.727769 0.310894
H 9.79442 10.4415 8.23509 -0.43772 -0.230569 -0.728544
H 6.44776 0.11873 7.08103 -0.397787 0.69867 0.353909
H 0.82309 3.34082 10.9773 -0.512806 0.891212 -0.600386
H 3.20052 0.96782 7.45339 0.377052 0.174213 0.106448
H 0.47598 6.5845 9.21413 0.115925 -0.61747 -0.557617
H 5.36374 1.49933 0.80587 0.104968 0.54595 0.302612
H 6.19368 1.84335 6.06892 -0.078876 0.528644 0.538907
H 8.64876 1.71291 1.75919 0.17084 -0.646418 0.005431
H 4.93279 7.61705 9.23997 -0.396864 -0.222536 -0.183479
H 0.51241 1.6582 6.81915 0.227275 0.657372 -0.767788
H 6.79908 11.1137 12.3248 1.180648 0.138002 -0.301924
H 0.3567 5.51218 6.35803 -0.724542 -1.305439 0.414103
H 10.9936 1.19311 7.71627 0.647003 -0.128833 -0.189332
H 9.12941 11.5219 4.87213 0.105717 0.258826 -0.014906
H 3.51215 0.10739 0.43976 0.031166 0.392924 0.721731
H 8.64551 9.82664 1.25843 -0.213355 -1.164146 -0.241706
H 1.79104 11.0697 2.0752 -0.319715 0.229642 -0.366737
H 3.2694 8.15028 5.31887 0.254284 -0.123984 0.805509
H 9.2336 1.26632 5.90196 -0.444945 -1.088764 -0.702023
H 5.28559 4.25008 8.76253 -0.94245 -0.28839 0.244595
H 3.91695 10.1547 5.45999 -1.010897 -1.158495 -0.536314
H 10.4163 2.73401 10.096 1.258182 -0.409273 0.787858
H 2.86499 2.13302 6.50167 -0.061381 0.197514 0.424495
H 12.1777 0.13042 8.09634 -0.146801 0.231842 -0.244729
H 6.89186 9.11692 9.79618 -0.450946 0.264032 -0.408856
H 1.56277 8.59916 0.49265 0.896517 -1.664754 -0.771184
H 1.66894 7.28636 5.8709 -0.575229 -0.731072 0.430034
H 4.35593 0.36286 2.39279 -0.276705 0.279464 -0.237779
H 10.5054 8.55961 1.77542 -0.034362 0.162862 0.009141
H 4.89758 9.6568 0.00735 0.074452 0.410522 -0.358692
H 3.70484 11.4372 6.72186 -0.134437 0.66008 0.883555
H 8.32258 8.21959 1.13364 0.413069 0.707137 0.4719
H 11.2792 9.33875 2.89619 -0.220755 0.023169 -0.037996
H 9.89158 7.918 10.035 -0.459164 0.074194 0.305058
H 8.53723 0.36925 0.93997 0.046008 -0.058657 -0.117315
H 11.2606 12.3888 0.61126 0.631585 -0.455191 2.770362
H 4.06809 8.63142 3.20547 -0.528968 0.322428 0.516779
H 0.24103 8.39848 6.03718 -0.991337 0.700199 -0.435676
H 6.11073 9.62626 2.29604 0.444829 0.560013 0.076243
H 2.19516 7.28762 10.9284 0.539977 -0.13412 0.90463
H 5.82531 8.10708 11.2631 0.433915 -0.826621 -1.083617
H 1.71974 11.1504 11.0113 -0.540467 0.216935 -0.032781
H 3.55792 11.3886 8.33343 0.183252 -0.351276 0.176716
H 0.13301 10.5635 7.24761 -0.013009 -0.430386 0.03457
H 7.06402 2.39753 3.4261 -0.134994 -0.395467 0.25411
H 1.1712 6.33009 2.50138 0.912314 -2.946508 -2.264972
H 2.49415 8.25128 3.29399 0.688642 0.300818 0.487585
H 7.68057 0.94778 8.29851 0.495502 -0.043221 0.624535
H 7.49299 0.97428 4.14061 1.114484 -0.803546 0.326795
H 11.5865 11.6418 11.5862 0.151668 0.278473 0.719298
H 0.85353 6.67427 4.67213 -0.617134 0.968767 0.912589
H 2.38679 10.5537 12.2178 -0.385121 -0.140485 0.309967
H 2.4489 5.81026 9.25031 0.159141 -1.615941 -0.216468
H 7.70018 3.54757 12.3854 -0.01685 0.147442 0.53393
H 9.04431 9.01588 6.30793 0.671971 -0.686992 0.37886
H 2.28234 3.66039 1.84165 -0.049477 0.146534 -0.172972
H 8.27765 12.3005 11.0014 0.090824 -0.248296 0.312724
H 0.3361 9.16291 1.19772 0.534774 0.451488 -0.212524
H 7.82235 10.4042 9.63094 -1.866563 -0.795897 -0.617279
H 4.60348 11.8863 3.78039 0.548367 1.387879 -0.321857
H 7.82315 11.623 5.71504 -0.141894 0.208638 0.356615
H 2.74363 7.18982 8.98266 1.735022 1.759072 -0.889093
H 8.54753 8.34859 4.11416 0.261733 0.459374 0.420974
H 11.1652 8.96385 6.3002 0.186734 0.105997 0.230569
H 1.46118 2.52729 2.5209 -1.021206 -0.494602 0.771233
O 9.76881 7.0502 9.22962 0.925813 -0.543424 -0.534568
O 0.57061 11.0974 7.95348 -0.544701 -0.259823 -0.585558
O 9.62696 1.66494 6.66708 0.335901 0.729545 0.615016
O 6.0243 1.99633 7.02925 0.110213 -1.167649 -0.767859
O 12.0804 9.238 6.04758 0.396954 0.203317 0.150801
O 2.01856 11.1181 3.00745 0.097997 -0.258123 -0.03462
O 2.2919 2.73309 2.12873 1.287408 0.317424 -0.976885
O 11.9393 1.09319 8.00853 -0.38732 0.029649 0.226851
O 10.8078 10.6504 4.09422 -0.778356 -0.045217 -0.317839
O 4.12219 7.87459 8.72592 1.216388 -0.246582 0.182068
O 12.0501 2.13862 10.475 0.176115 1.090743 0.64971
O 5.92271 11.2285 0.26849 -1.703778 -1.295516 -0.111293
O 12.0836 5.98278 9.1569 -1.192618 -0.257393 -0.013656
O 11.3732 8.63432 2.2229 -0.221249 -0.013755 -0.328031
O 6.91306 10.021 9.36134 1.972425 0.917504 0.782265
O 1.73635 5.39394 1.03421 -1.46348 -1.894347 -1.768423
O 2.03091 6.66075 9.30623 -1.733723 0.084872 1.128501
O 11.2238 0.10293 2.44118 3.033841 0.379839 0.949892
O 6.23208 7.73927 10.3915 0.023819 0.827921 1.265263
O 0.738 6.96188 5.64762 1.711391 -0.832128 -1.006639
O 6.33272 1.55357 0.70801 0.590743 0.51348 0.571017
O 11.1477 12.376 12.0901 -0.686144 -0.06369 -3.494771
O 4.05129 10.4188 9.60142 -0.158508 -0.02557 0.064886
O 3.4402 1.92631 7.27348 -0.273627 -0.017205 -0.316426
O 6.01213 4.49659 8.19724 1.111375 0.308439 -0.426431
O 8.89494 8.96704 0.80677 -0.353319 0.007381 0.271876
O 5.70219 8.77284 2.469 -1.443951 -0.093677 -0.279319
O 3.13756 7.95637 6.29407 1.386249 0.454086 -0.656422
O 9.84852 8.87483 10.8382 0.937575 -0.712328 -1.526239
O 8.52246 11.6771 11.7197 0.789987 0.496418 -0.269379
O 3.22133 8.791 3.72801 -0.326185 -1.042317 -1.219343
O 1.16006 9.42578 0.69393 -1.650546 1.387666 1.021456
O 7.6721 5.63258 9.80541 0.466042 -1.13777 1.371949
O 7.59772 3.29488 11.4572 -0.215879 -0.272301 -0.640483
O 8.7854 9.15046 4.69102 -0.044547 0.02202 -1.050972
O 6.66857 11.5877 7.00335 0.158685 -0.835279 -0.751176
O 9.73249 10.8814 9.08817 0.95929 -1.003467 1.298923
O 0.03827 4.59889 6.73278 3.065318 1.464281 -0.138173
O 9.75091 4.3735 7.35635 0.831241 -0.87236 -1.057821
O 4.60537 10.8012 5.41272 -0.642286 0.96163 -0.621781
O 8.23926 0.79691 9.09338 -0.086519 0.266819 -0.258975
O 8.93267 0.76441 1.7375 -0.773906 1.277555 0.297542
O 2.3998 7.43967 11.9031 0.799548 0.455475 -0.586148
O 0.08654 10.6289 10.565 -0.083514 -0.182076 -1.064408
O 9.66888 8.94355 7.09799 0.023996 -0.184359 0.551051
O 8.39292 12.1208 5.09436 0.418453 -0.137226 -0.49298
O 1.21404 4.25218 10.9157 -0.316833 0.918565 -0.098694
O 0.85724 7.07219 2.93048 -2.080379 2.96124 2.162221
O 6.75957 1.54051 3.93228 -0.81483 1.545304 -0.030572
O 3.70207 0.66574 1.24015 -0.784999 -0.199694 -2.393667
O 9.61286 3.08398 9.72688 -2.078438 0.382217 -0.792738
O 3.24923 11.8423 7.51998 -0.348565 -0.553314 -0.931928
O 3.10918 4.07689 8.91325 1.563434 -0.419054 -1.616089
O 0.99388 2.11137 6.04307 -0.039176 -0.765151 0.607441
O 0.93863 0.99724 3.74164 0.061634 -1.889304 -1.810051
O 2.51323 11.2606 11.5678 0.8593 0.001409 0.124043
O 4.808 0.34591 3.29471 -0.462534 -2.027466 1.746304
O 4.75928 8.69061 12.3837 0.079533 0.192026 0.168501
O 7.69024 10.7241 2.63872 -0.033809 0.878878 0.279165
N 10.8629 4.82268 11.6407 -0.658211 0.295451 0.453867
N 7.36626 7.35572 6.96961 4.676537 -2.574633 0.806671
N 5.382 1.80274 9.92172 -0.600469 -0.561871 0.443903
N 4.12552 4.20431 12.271 -1.292481 -2.219756 1.143723
N 4.96615 4.77591 5.32259 2.465363 -1.030371 1.029463
N 4.70965 1.0923 10.4469 0.464552 0.511881 -0.417852
N 4.67017 5.02891 11.8159 1.417967 2.144671 -1.180711
N 6.40999 7.81965 6.81828 -4.821994 2.398173 -0.931379
N 4.03851 5.15437 4.899 -2.471899 1.016965 -1.125696
N 9.87215 5.20089 11.9632 0.544042 -0.070852 -0.092578
N 11.3518 3.59825 3.41116 -0.077626 0.172516 0.444796
N 11.0462 3.9819 4.40461 -0.068514 -0.212075 -0.714326
Cl 7.83084 6.75908 2.89416 0.218787 1.461615 0.099298
Cl 7.57737 3.9133 2.40181 -0.037547 -1.772465 -0.549263
193
energy=-1084.73945299 config_type=nep2xyz pbc="T T T" virial="-5.062278398181669 0.4268724721579868 -5.229714368276254 0.4268724721579868 -9.858277672920805 0.18940375977437257 -5.229714368276254 0.18940375977437257 4.779398480262807" Lattice="12.4 0.0 0.0 0.0 12.4 0.0 0.0 0.0 12.4" volume=1906.6240000000003 Properties=species:S:1:pos:R:3:force:R:3
H 8.36934 3.21802 8.88095 0.604096 -0.955547 0.232794
H 4.51246 11.2931 7.55899 -0.967934 0.516552 0.370004
H 2.25065 6.70796 0.83397 0.64105 0.304215 0.169057
H 10.4253 1.13268 4.61882 -0.443625 -0.60482 -0.610481
H 5.46391 6.84988 9.66837 0.216347 0.224169 0.09827
H 7.05795 1.03966 6.25432 -0.138155 -0.49725 2.007515
H 8.56212 5.77194 9.25708 0.067915 0.101474 -0.045472
H 2.9555 9.72737 10.362 -0.116498 -0.317404 -0.054589
H 5.28136 3.48113 6.2289 1.041003 1.479125 0.014587
H 1.74201 9.33145 7.74894 -0.280023 -0.072219 -0.006486
H 0.54625 4.89031 3.56593 -0.766257 1.538645 0.400156
H 5.80121 7.82643 1.7876 0.19067 0.875453 -0.212772
H 7.51634 4.18752 10.816 -0.031957 0.172526 -0.211295
H 2.41449 1.30452 0.18528 -0.036231 0.214753 -0.116547
H 11.0554 11.5349 4.54649 -0.849332 0.540716 -1.645079
H 2.60727 11.7716 11.3188 -0.624616 0.984838 1.612745
H 3.0847 3.73576 10.2727 -0.657676 -0.815344 3.105002
H 2.66022 1.59659 6.04704 -0.246323 -0.090078 -0.710957
H 11.5893 5.88268 10.7428 0.640714 0.335903 -0.312065
H 10.5844 5.17674 9.1331 0.497256 -1.156438 -0.514836
H 11.3646 8.15432 8.16232 -0.954354 1.216944 -0.616699
H 11.6877 9.53793 1.53788 0.204723 0.283564 -0.859486
H 3.87777 8.14752 0.76524 -1.322382 0.368631 -0.356781
H 9.75342 8.93991 6.42134 -0.048062 0.240884 0.330537
H 8.7619 5.76836 7.75261 0.276923 -0.135449 -0.391639
H 1.10199 6.08656 0.20031 -0.535009 -0.134978 -0.158236
H 5.689 11.1163 5.83291 -0.320103 0.043044 -0.320436
H 3.73568 8.9591 6.70273 0.059644 -0.185105 -0.390533
H 9.7379 12.0199 9.74086 0.542426 0.228181 0.308486
H 3.18854 3.40101 8.8473 -0.104102 0.488193 -0.132251
H 6.1583 11.0026 12.3165 -0.171053 0.29624 0.642882
H 0.6891 7.29611 6.62852 -0.996119 0.254279 0.018334
H 11.4257 1.09544 6.56638 1.477822 -0.810846 0.337911
H 12.0176 5.32648 6.6855 -0.112006 -0.593657 0.023367
H 9.56006 11.6819 4.00922 0.221692 0.348849 -0.319546
H 10.0101 7.67415 8.32966 -1.252098 -0.219214 0.164815
H 4.38751 1.99456 4.30159 -0.698153 0.680811 -0.997782
H 1.45671 2.95053 11.184 -0.612655 -0.275371 -0.382722
H 1.2457 1.0777 5.78478 0.60873 -0.15176 -0.520122
H 11.9914 2.9393 9.86556 -2.084653 1.368769 -0.311846
H 9.64527 2.44965 4.98023 -1.11455 0.496921 -0.029704
H 4.06556 11.1964 11.1392 -0.31562 0.059513 0.321516
H 10.9069 6.0021 4.06608 -0.46733 0.950693 0.974603
H 10.147 0.63859 11.0923 -0.192182 0.104497 1.864588
H 12.39818 1.39929 9.84044 -0.598926 -0.099995 -0.103681
H 7.05509 12.2137 1.4761 -0.273228 0.661177 0.277583
H 11.0864 10.5565 2.44928 -1.326541 0.889696 1.755465
H 9.56344 10.0866 8.59853 0.09076 0.829914 1.396069
H 6.15151 1.78956 1.91807 0.553937 1.03382 -0.550554
H 2.77875 11.5269 2.99648 0.196318 1.283371 -0.060598
H 5.45486 5.00787 7.79661 0.579837 1.038357 1.080024
H 0.49016 6.66254 10.1676 -1.122186 -0.504022 1.280568
H 11.7038 11.5601 0.25208 0.308111 0.055753 0.196783
H 6.74642 7.30591 3.9483 1.045337 -2.160656 0.750274
H 8.33091 11.9891 0.59595 0.467217 0.475943 -0.0851
H 9.82426 1.31481 9.69588 0.15958 -0.426864 -0.322896
H 5.98532 11.8541 7.46047 -0.346059 -0.106037 0.01886
H 1.85587 4.10672 12.1936 0.973535 -1.173587 -0.644773
H 2.49681 1.10703 7.89594 -0.140015 -0.119788 0.30069
H 0.68629 6.70021 7.99032 0.14732 -0.353447 0.688577
H 5.15011 0.72842 2.33916 -0.09325 -0.284514 0.250022
H 6.71877 4.29089 6.2231 -1.930507 0.090061 0.325161
H 9.20152 1.74869 0.14286 -0.19073 -0.784069 -0.09512
H 3.89496 8.43271 10.2168 -1.180706 0.526135 -0.106299
H 12.0267 12.11 6.30755 0.113004 -0.866439 0.011466
H 6.02336 10.3793 10.9626 -1.599359 0.042117 1.200205
H 11.2117 4.03659 6.2263 -0.263687 0.13337 -0.119949
H 9.21272 12.1061 5.89297 -0.575681 0.191306 0.582053
H 8.22884 9.89268 2.55248 0.69027 -0.081391 -0.618515
H 0.54178 0.02348 12.2592 1.219649 0.788322 0.937602
H 9.01855 6.96596 1.37774 1.412117 1.208777 2.042545
H 2.75106 0.59349 3.73418 -0.165883 -0.73672 -0.115039
H 2.8945 7.61794 6.69829 0.413409 1.047452 0.27256
H 7.36652 1.17007 7.86474 0.686941 0.627107 0.09525
H 4.69755 4.7015 9.10333 0.842 1.784498 0.210178
H 4.98173 10.9328 4.44251 0.220467 0.215869 0.517152
H 11.5749 4.15381 8.36404 -0.343686 0.769677 -0.045223
H 1.4128 2.34802 8.01664 1.901651 -0.964978 -0.24086
H 9.46316 11.6145 7.40719 -0.402922 0.282734 -0.326924
H 6.56009 9.23453 9.54481 -0.250278 -0.185928 0.069674
H 2.25679 9.20383 1.46211 1.071889 0.435082 0.187055
H 2.0302 8.37085 4.31723 0.914728 0.274831 -0.211252
H 2.57559 0.16955 1.21919 -0.145326 -0.085512 0.610711
H 11.7557 7.50701 0.04853 0.328388 -0.321705 -0.863784
H 5.69091 8.95422 0.38601 -0.704094 -1.572718 2.050002
H 2.45246 11.3862 7.75746 -1.30775 -0.910118 -0.03234
H 9.67111 6.87758 2.82745 -0.056793 -0.955139 1.669344
H 10.8488 7.67429 1.36941 1.118398 0.344406 -0.629583
H 8.27731 10.3894 9.50915 0.402392 1.110528 -0.56839
H 10.5187 1.2884 0.67582 0.601651 -0.773397 0.370622
H 12.2625 1.89699 2.15564 -0.03119 -0.035719 0.312672
H 4.63721 8.73032 4.19778 1.785586 -1.349102 -0.366896
H 0.32421 9.65827 5.24406 0.729246 -2.010799 -1.1439
H 6.87847 8.75485 3.64678 -0.131394 0.286702 -0.174789
H 2.79087 8.44495 11.94 0.034431 -0.085936 0.396596
H 5.50693 7.29505 11.1578 0.127425 -0.264295 1.011279
H 0.70799 9.77355 9.71217 -0.096929 0.324362 -0.526926
H 3.24939 11.9081 9.02208 -0.386322 -0.336004 -1.023883
H 0.33361 9.98165 7.42835 -0.349051 0.143881 -0.62397
H 7.54036 1.12195 4.19139 0.133787 0.97412 -0.478951
H 0.30618 6.03081 2.6206 0.204291 0.806115 -2.483185
H 3.50242 9.43606 3.44815 -0.189838 0.03613 0.418423
H 9.10295 2.77678 7.63364 0.358996 0.059293 -0.47925
H 7.35014 12.1387 4.39666 -0.847277 -1.518959 0.184875
H 11.5554 0.53934 2.60771 0.099999 0.554986 -0.635205
H 0.90233 7.29452 4.27854 -0.107177 -0.120519 -0.278917
H 12.0694 9.32574 10.8221 -0.402575 -0.528803 0.067578
H 2.28241 5.51044 9.48562 0.367883 -0.2507 -0.267662
H 6.664 4.73025 9.51054 0.635639 0.122624 0.294733
H 9.99183 8.11171 5.15819 -0.168891 0.654259 -0.034081
H 11.9241 2.81979 3.99814 -1.180439 -0.411328 1.011873
H 0.22766 11.0616 11.365 -0.649614 0.116794 -0.555924
H 1.14159 9.90326 2.25856 2.924834 0.575111 0.413538
H 6.16368 10.5278 8.71107 -0.373027 0.005143 -0.182904
H 5.04196 0.86695 4.99143 0.315642 -1.20218 0.28005
H 8.75719 9.52986 4.10824 -0.571487 0.240065 -0.86744
H 2.37059 7.09597 9.52623 0.333783 0.575609 0.095207
H 9.70583 5.86438 5.10084 -0.298116 -0.314887 0.095872
H 11.1541 10.1318 5.5296 2.090521 -0.850432 0.148547
H 1.06899 2.80871 3.87236 -0.642467 0.161783 0.048706
O 10.422 8.54141 8.16837 1.590867 -0.574222 0.074477
O 0.99459 9.87386 8.11569 0.871321 0.034549 0.597995
O 6.77957 0.80714 7.20288 -0.38975 -0.189954 -2.000993
O 5.70229 4.39294 6.39177 0.773194 -1.715469 -0.409404
O 12.165 10.3467 5.54441 -3.191112 2.472342 1.174531
O 3.06132 0.09086 2.94035 -0.008017 -0.748536 -0.037234
O 0.24605 3.24136 3.5454 2.063226 -0.07493 -0.768682
O 9.73277 11.541 6.47978 0.539357 -0.13748 -0.02179
O 11.6751 10.5185 1.72885 1.16616 -1.1792 -1.62795
O 2.9243 8.73708 10.2557 1.683443 -0.583719 0.120744
O 0.26603 2.3061 9.97781 2.596336 -1.167217 0.508708
O 5.44933 10.4944 11.8549 1.921234 -0.438939 -1.937672
O 0.04679 7.02316 7.33023 1.037211 -0.028749 -0.923426
O 11.7075 7.97138 0.88194 -0.578014 0.287968 1.448516
O 6.69441 10.1983 9.50313 0.639114 -0.888412 1.070911
O 1.78895 5.84477 0.83503 -0.711271 -0.415904 -0.410702
O 1.8391 6.34395 9.24263 -0.811563 0.190417 -0.107684
O 10.481 11.9439 3.80135 1.096268 -0.996892 1.619951
O 5.59611 7.63465 10.2753 -0.397099 0.103849 -1.224498
O 1.15623 8.17097 4.63384 -0.78906 -0.181749 0.855299
O 6.09694 0.93373 2.33853 -0.351926 -0.722564 0.354251
O 11.8387 1.08574 1.83523 -0.237699 -0.294084 0.115446
O 3.17589 11.3345 10.7126 1.449503 -0.914526 -2.056407
O 2.37689 2.07807 7.84815 -1.38404 1.548775 0.417123
O 5.41828 5.40114 8.78765 -0.950151 -2.377709 -1.230186
O 9.59456 7.45918 2.08664 -2.376025 -0.433698 -3.397352
O 6.21497 8.01039 3.67462 -1.054308 1.573655 -1.259654
O 3.01845 8.48984 7.13817 -0.440944 -0.863293 0.119797
O 9.17031 10.799 9.21455 -0.008413 -1.166534 -0.798339
O 12.1959 11.95 11.8703 -0.508204 -1.472032 -0.183085
O 3.89793 9.28701 4.34273 -1.722956 1.31778 -0.308308
O 2.19621 9.90118 2.21076 -3.671552 -0.169081 0.112659
O 9.10437 6.2068 8.54836 -0.065229 0.120059 0.76287
O 7.59 4.49346 9.8837 -0.403296 -0.342571 0.049196
O 10.1466 6.50417 4.51491 1.174322 -0.550897 -1.114596
O 5.43364 11.0075 7.56789 1.914138 0.012152 -0.676603
O 10.2503 0.506 10.1222 -0.987443 -0.048165 -2.830719
O 12.0142 4.33499 6.66691 0.344618 0.276121 0.153992
O 10.49 2.02672 4.9647 1.703286 0.403395 0.495787
O 5.5514 11.5474 4.95986 0.001325 -0.349996 -0.484705
O 8.89486 2.42854 8.50759 -0.969668 0.427383 0.998392
O 9.79998 0.93927 0.10317 -0.912107 1.669794 0.222575
O 2.85122 8.26319 0.51835 1.164598 -0.779191 -0.395579
O 12.1368 6.68043 10.8801 0.694745 -0.040428 -0.73729
O 9.71352 9.03053 5.45345 0.552675 -1.113356 -0.735719
O 8.03307 9.84825 3.48067 0.015269 0.141667 1.775334
O 2.20683 3.3027 11.6809 -0.378197 1.217317 1.320774
O 0.31067 5.89579 3.54023 0.165211 -2.23715 1.982345
O 8.00304 0.39829 4.61954 0.219874 0.576062 0.14985
O 2.20125 0.37132 0.34192 -0.298936 0.340519 -0.608933
O 11.2357 4.42406 9.25273 -0.309361 0.531803 0.369352
O 3.15574 11.9662 8.00953 0.737434 0.957486 1.496137
O 3.36457 4.14853 9.48681 0.211264 -0.385425 -2.977458
O 12.2365 0.52479 6.76939 -1.174919 1.837767 -0.236133
O 2.12142 1.21625 5.31277 -0.645635 0.278457 0.511125
O 0.39086 9.92299 10.6373 0.290856 0.376482 0.750333
O 4.96107 1.82045 5.02581 0.549372 0.766779 1.02617
O 5.33462 8.15602 0.99114 0.475668 1.136062 -1.946669
O 7.46418 11.6442 0.8048 -0.113579 -1.134052 -0.194958
N 9.0973 7.86972 11.2671 0.58635 0.831675 -0.096668
N 6.91211 7.9193 6.16945 2.472409 -0.064503 -0.804957
N 5.49487 1.44986 10.8997 -2.244059 1.393843 4.155109
N 4.09779 4.93912 1.89244 -1.106967 3.688353 -0.510085
N 2.42774 4.77698 6.09548 0.478548 -0.173557 -0.406949
N 5.9736 1.14463 9.98419 2.251439 -1.379854 -4.038369
N 4.49066 3.94596 2.06487 1.274332 -3.780033 0.644464
N 5.94423 7.89276 6.66695 -2.352351 -0.020911 1.367318
N 3.02231 4.1783 5.37625 -0.533035 0.401892 0.318841
N 9.81218 8.71222 11.1448 -0.701481 -0.854567 0.201106
N 10.9949 3.96108 0.27948 -0.788088 -1.53949 -1.408255
N 11.4175 4.69468 0.96934 0.679923 1.444729 1.384124
Cl 8.74554 4.40356 6.15891 -0.087787 -0.287676 -0.287794
Cl 7.59434 3.48577 0.84482 0.27984 -0.275901 -0.360286
193
energy=-1086.65551044 config_type=nep2xyz pbc="T T T" virial="-3.698359504048711 -1.9617259984472084 -10.596019359491077 -1.9617259984472084 -2.9999123145112976 -4.968100127582626 -10.596019359491077 -4.968100127582626 -9.841248470845088" Lattice="12.4 0.0 0.0 0.0 12.4 0.0 0.0 0.0 12.4" volume=1906.6240000000003 Properties=species:S:1:pos:R:3:force:R:3
H 8.80199 5.05919 10.1834 -1.269848 -0.115878 -0.323489
H 2.23799 0.40362 6.9747 -1.292628 1.586393 -0.068371
H 2.31112 6.49348 0.94157 -0.567483 0.199841 -0.033893
H 7.12655 1.53705 4.01552 0.767071 -0.230949 0.378714
H 6.74845 8.19157 8.05399 0.320076 0.239398 0.306726
H 8.55147 0.85869 10.2128 0.050538 -0.196128 -0.377319
H 6.78346 6.59655 6.86701 -0.470499 0.287996 -0.016815
H 7.75377 11.7702 8.79083 0.833015 0.134411 0.120825
H 6.05855 3.51696 5.2294 -0.068205 1.01527 1.254338
H 0.98698 8.99407 7.22404 0.596451 -1.757878 0.603782
H 0.39032 4.15315 4.55759 0.079606 -0.090056 0.912913
H 9.98394 5.14847 11.9829 -1.032099 0.039151 0.997034
H 6.68562 4.09249 10.8844 -0.141552 -0.39727 -0.383995
H 2.30266 2.67395 0.83641 -0.802494 1.003268 -1.032699
H 9.60378 6.46462 1.44486 -0.048295 -0.188319 -0.342964
H 4.15866 11.2354 10.137 0.259756 -0.102416 0.224982
H 0.8452 4.58081 11.0909 -0.232469 -0.507332 0.329452
H 0.23456 1.43137 8.35162 0.478538 -0.061063 0.4866
H 11.5841 7.66954 9.94028 0.750213 0.774005 2.057523
H 10.1598 8.06062 8.36243 -0.158382 -0.264285 0.10719
H 12.1094 10.38 8.47781 -0.307018 -0.252929 0.298336
H 0.27994 9.46432 1.78129 0.291302 0.787626 0.971048
H 4.27887 7.69664 12.0116 0.708552 -0.412102 -0.419728
H 11.4398 6.47117 4.57608 -0.867272 0.526293 -0.244237
H 8.19152 7.12777 6.69804 -0.942306 0.645829 0.200017
H 0.83378 6.9016 1.37998 -1.009145 1.325764 0.029677
H 3.62861 11.9002 5.93887 0.76324 0.443599 0.63681
H 6.82282 11.6125 6.90081 0.094126 -0.324488 0.564867
H 8.88082 1.83818 0.18442 1.432499 -0.357712 0.811076
H 0.27765 5.03333 9.59883 0.740696 -0.10817 1.115177
H 5.88223 11.34 11.7608 -0.213829 1.060579 -1.262053
H 1.21531 7.03537 5.97492 0.545255 -0.295676 -1.713209
H 11.0367 11.8797 6.96375 -0.348724 -0.199953 -0.128923
H 11.2359 4.8889 7.78963 -0.367205 0.283584 -0.074243
H 8.59696 7.62345 1.84722 -0.696091 0.008851 -0.469667
H 10.6622 10.8782 8.98022 2.027976 -0.370613 0.761014
H 5.2773 2.00292 3.38446 -0.230945 -0.341575 0.673223
H 0.36471 3.43928 0.61285 -0.198404 -0.076735 -0.035256
H 11.2625 1.23971 7.67467 -0.022186 0.09995 -0.130521
H 10.8631 4.21926 1.43815 -0.147548 0.001462 -0.027312
H 8.55262 2.127 3.72426 0.000247 0.161192 0.478989
H 3.46454 11.3399 8.78738 -0.238379 0.64576 -1.306351
H 10.2674 3.75382 3.34956 -1.223043 0.147822 0.634966
H 8.04435 11.6918 1.74795 -0.531517 0.448465 0.822971
H 11.1145 2.72923 1.56843 -0.478793 -0.334597 -0.033847
H 5.96255 11.0232 1.82113 0.084901 0.534391 -0.281939
H 0.36246 10.1493 3.25713 0.346917 -0.031039 -0.406065
H 10.675 0.37155 10.5309 1.083848 0.289727 0.787442
H 6.07048 1.31164 1.11667 -0.173905 0.150621 -0.501382
H 3.61059 2.93206 4.21577 1.269003 0.191426 0.234885
H 5.72447 4.84306 7.45196 -0.077952 -0.544159 -0.806103
H 0.29958 6.86486 10.6718 -0.05067 -0.197623 0.462206
H 1.18477 11.5564 1.41843 -0.363082 -0.667801 0.100872
H 6.16121 7.71914 10.5831 -0.000782 -0.646424 1.128903
H 6.77965 10.0194 1.02954 0.204592 -0.483404 -0.312588
H 9.55017 0.76305 1.16175 -0.347748 0.488174 0.227038
H 1.93434 11.2496 7.23463 0.391193 0.98868 -0.128686
H 1.36039 4.52253 0.47536 0.26339 1.234768 0.369525
H 1.32358 2.52356 10.3062 -0.407688 -1.102299 -0.322389
H 1.89192 6.76038 7.40852 -0.795359 0.377942 -0.770047
H 4.46774 1.53692 1.26761 0.509355 -0.042773 0.012118
H 7.25566 4.37259 5.68788 0.310366 0.226005 0.536802
H 8.58614 0.19451 3.11324 -1.130307 0.30284 -0.127391
H 6.3402 11.7443 9.23428 -0.752397 -0.209735 0.728077
H 9.60277 12.2413 6.52565 0.42959 -0.294308 0.123817
H 6.15674 0.32019 10.9596 -0.739329 -0.761214 0.380637
H 0.04762 5.92869 7.73712 -0.209761 -0.933773 -0.534663
H 8.80642 1.72582 6.1088 -0.153115 0.424717 -0.415626
H 6.26378 7.91665 1.68419 -0.733653 -0.332808 0.883845
H 1.7307 0.58608 0.99231 -0.187153 -0.774413 -0.609503
H 6.88373 4.29868 1.78483 -0.503631 -0.490758 -0.105311
H 2.18974 2.70269 4.64198 -1.060429 -0.159826 0.941958
H 5.84729 11.8577 5.60187 0.057036 0.04729 0.327016
H 9.21942 1.31002 8.91448 -0.223436 -0.720138 -0.107609
H 4.73861 5.80376 8.27033 -0.560831 -0.1387 0.051651
H 4.18032 11.6442 4.55118 0.584491 -0.572075 -1.292457
H 9.11321 7.86098 9.39927 -2.127152 0.364672 0.647726
H 0.32983 1.22344 10.3563 1.221085 1.048398 -0.223058
H 9.64809 2.88495 6.81546 -0.710204 -0.157941 -0.17198
H 9.86113 9.58236 6.67566 0.329335 -0.463983 -0.21896
H 3.44452 8.38449 1.62365 -0.280215 0.057795 0.524293
H 2.21105 7.79088 3.69945 0.419698 0.013963 0.028718
H 2.80925 2.39209 2.25041 -0.249903 0.088735 0.619334
H 11.9655 8.06061 0.22143 0.108278 -0.09105 -1.394639
H 8.74408 4.98584 0.68107 0.046362 -0.130446 -0.10603
H 0.3589 11.1507 10.2288 -0.001911 -0.109436 -0.171926
H 8.00362 4.9196 2.55991 2.191377 -0.721708 2.717177
H 11.1648 7.73117 1.45855 -1.233529 -0.07305 0.518087
H 11.0467 0.60172 12.0231 -0.221817 0.550603 0.479466
H 9.62463 10.6225 3.03045 0.467072 -0.550776 -0.075934
H 8.34477 9.47311 4.48891 4.489056 0.328295 -1.309993
H 6.02566 10.1928 3.6266 0.525286 -1.053816 0.21779
H 0.6973 8.84205 4.67859 -2.558839 1.322354 -0.489275
H 6.4776 6.25907 10.8909 -0.359235 0.054661 1.040556
H 2.78235 8.08716 11.8551 0.695074 -0.227646 -0.159703
H 6.70253 9.48098 9.00322 0.147923 1.203221 -0.336653
H 1.41558 8.43612 10.3048 0.330021 -0.313022 0.064777
H 2.01858 11.4536 10.4029 1.231472 0.014782 -1.234948
H 0.18986 9.92858 6.43767 0.552745 0.419787 1.025872
H 7.08464 10.7448 5.4939 0.285441 -0.062259 0.068446
H 0.07891 4.60408 3.16325 -0.20656 0.259616 0.035607
H 4.61393 10.0697 2.80329 0.56762 -0.146859 1.134881
H 10.0956 5.81596 9.76822 -0.422247 0.012009 -0.02213
H 7.36944 8.66534 5.31053 -0.253767 -0.148317 0.119865
H 9.83671 9.02557 2.73287 0.704283 1.971898 1.385312
H 1.17911 6.66062 3.65385 -0.234025 -0.170761 0.523898
H 2.64901 9.32655 9.92223 0.434738 0.029413 0.119161
H 2.38499 5.76212 9.28136 -0.204512 -0.838563 0.280022
H 6.36217 4.99154 9.48664 0.774542 -0.652037 0.903528
H 10.3323 7.33318 3.76827 0.386062 -0.584502 0.444175
H 0.02852 2.36765 6.01053 0.180734 0.186257 0.250357
H 1.06015 11.7183 11.665 0.248837 -0.433826 0.30565
H 2.41475 9.22658 2.41291 -0.921056 0.876727 -0.132662
H 10.1736 8.06833 6.14363 0.420642 0.194964 -0.633725
H 4.63187 1.45588 4.80556 1.74238 0.762975 -0.997839
H 6.83827 7.59113 0.32773 -0.044818 0.339398 -0.295321
H 3.01632 7.07273 9.35104 0.165574 1.168291 0.382025
H 9.51107 4.35347 4.62794 0.00456 -0.39343 -0.181004
H 11.5882 9.49306 4.2883 -1.880237 -0.966508 -0.548864
H 0.21275 3.80713 6.64347 0.580725 -0.437191 -0.328726
O 11.5883 10.6047 9.29537 -1.666424 0.614106 -0.550872
O 0.68143 9.88585 7.34805 -0.760686 1.369181 -2.261979
O 9.05208 0.4882 9.43536 0.115676 0.899832 0.344025
O 6.32033 4.23773 5.89368 -0.302389 -1.399901 -1.57308
O 0.01031 9.65103 4.71788 3.900689 -0.54242 1.794553
O 2.71237 3.02935 3.92624 -0.373009 0.260343 -1.243352
O 0.59588 3.15573 5.98156 -0.382948 0.122559 0.275937
O 9.40737 1.92382 6.83646 0.750101 -0.316142 0.619438
O 0.74158 10.1731 2.33801 0.097656 -0.581809 -1.023788
O 6.92507 11.2971 8.61549 0.175698 0.121553 -1.476441
O 11.4375 3.57218 1.92501 0.035725 0.141502 -0.399285
O 5.64644 11.8426 10.9025 0.436946 -0.276177 1.126406
O 1.07209 7.07361 6.90592 0.721299 0.249959 2.829628
O 12.0385 7.98372 1.17171 0.64504 0.739517 0.525001
O 9.8118 8.61963 6.85639 -0.257458 0.443882 0.375776
O 1.39369 6.19164 1.10882 2.062234 -2.27663 -0.168892
O 3.08161 6.26283 8.83601 -0.161586 -0.2914 -0.769227
O 9.49539 7.29275 1.97405 0.81862 0.566387 1.030463
O 6.70695 8.53498 8.97899 -0.223452 -1.439383 0.788522
O 1.50047 7.37988 4.23015 0.259319 0.20884 -0.342346
O 5.31584 1.28881 1.71561 -0.296086 0.147186 0.764324
O 10.0817 9.79763 3.3818 -1.425111 -1.326132 -1.530768
O 3.41176 10.8722 9.60915 0.401985 -0.037802 1.05499
O 1.13757 1.65075 9.87923 -0.891665 0.190762 0.733282
O 5.65411 5.5275 8.11957 0.712399 0.604491 0.890961
O 7.42231 5.07891 1.87173 -1.798953 0.94782 -2.522783
O 6.09179 7.07093 11.373 0.481972 0.72532 -2.194096
O 6.83459 11.6532 5.90217 -0.676886 -0.114964 -0.327918
O 11.4519 0.52272 11.1577 -0.95576 -0.619529 -1.669456
O 1.30306 12.1447 0.65017 0.501945 1.650944 0.404739
O 5.21554 10.629 3.37929 -1.451491 0.437313 -1.330207
O 3.24304 8.7568 2.54046 1.028477 -0.441801 -0.633729
O 7.24046 7.44477 6.68794 1.304262 -0.990619 -0.609278
O 6.97732 4.80348 10.303 -0.438615 1.457373 -1.135151
O 9.37417 3.79873 3.82308 1.104417 0.314153 -0.491402
O 2.62515 11.9907 7.21313 0.311596 -2.871183 0.134908
O 9.72785 1.62786 0.71612 -0.985321 -0.148933 -0.677922
O 12.1994 4.97838 7.93369 0.306125 0.46091 0.370403
O 8.09539 1.34728 4.11323 -0.636119 0.521445 -0.046447
O 4.40353 12.1387 5.33383 -0.89174 0.635339 0.85166
O 9.75319 5.02778 10.2271 1.718776 -0.020943 0.783324
O 8.75887 12.0351 2.32776 1.407043 -1.397739 -1.047504
O 3.44092 7.67273 0.07533 -0.685247 0.346602 0.957361
O 12.2672 7.75337 10.7157 -0.738817 -0.381864 -1.739748
O 10.8395 7.26396 4.60767 0.185514 -0.388165 -0.162005
O 7.00403 8.15153 1.14415 0.675949 0.279122 -0.395345
O 1.13878 3.67791 0.06729 -0.228554 -0.835077 -0.014247
O 0.08587 4.93846 4.07673 -0.010372 0.353059 -0.938493
O 7.467 9.43235 4.69794 -4.298233 -0.054515 1.46746
O 2.79765 2.04291 1.3451 0.756532 -1.423313 0.539275
O 10.0093 7.65021 9.25928 2.144716 -0.229325 -0.953621
O 1.20365 11.1509 10.8019 -2.089561 0.141587 1.274982
O 0.83669 5.27243 10.4196 -0.458237 0.667931 -2.200151
O 10.1903 11.4769 6.67555 -0.010099 0.215863 0.049369
O 12.1621 0.87619 7.70524 -0.566631 0.054586 -0.599733
O 2.41797 8.44448 10.2712 -1.07931 0.33413 -0.325139
O 5.27613 2.14109 4.38391 -0.989586 -0.903941 -0.220064
O 9.70208 5.1697 0.58017 1.121167 -0.206247 -1.441242
O 6.54403 10.9643 1.02531 -0.063742 -0.107615 0.161583
N 8.89743 10.1499 11.3046 -0.345533 0.450117 -0.869447
N 4.08909 9.53241 6.2677 -1.749735 2.74356 0.159202
N 3.67617 3.30229 8.22731 0.125759 -2.027979 -0.335079
N 4.01519 4.14707 11.8523 2.968626 0.0169 1.909351
N 4.71516 6.42143 3.96552 0.052146 -0.474042 -0.243876
N 3.80105 2.2106 8.02355 -0.153337 1.992158 0.321301
N 4.95471 4.1359 0.07779 -3.055336 0.12719 -1.881464
N 4.6181 8.58571 6.23923 1.593992 -3.005195 -0.0317
N 4.77592 5.4025 3.53609 -0.060374 0.447311 0.151581
N 9.29515 9.66264 12.205 0.429321 -0.395495 0.82493
N 12.057 1.06326 3.84 1.395896 0.387672 0.56744
N 11.0881 0.73533 3.44856 -1.191648 -0.391664 -0.413086
Cl 9.30703 4.94574 6.92477 0.063591 0.040162 -0.406468
Cl 7.09357 1.96675 11.3137 0.301694 -0.086101 0.382904
193
energy=-1087.50222779 config_type=nep2xyz pbc="T T T" virial="-6.372729643868644 4.689063977847171 2.120581916342917 4.689063977847171 -10.533471849980264 -0.7923041544369158 2.120581916342917 -0.7923041544369158 -2.9892378251598513" Lattice="12.4 0.0 0.0 0.0 12.4 0.0 0.0 0.0 12.4" volume=1906.6240000000003 Properties=species:S:1:pos:R:3:force:R:3
H 2.03801 6.02673 10.0489 1.358627 -1.65481 1.044317
H 2.90021 8.80145 6.66403 -0.006687 0.777629 0.155226
H 3.14281 7.32424 2.05085 -0.809282 0.848733 -0.413566
H 10.0298 5.47794 3.93438 -0.467237 -0.210746 0.315042
H 9.97117 4.21642 9.87754 0.301283 0.042445 0.562279
H 5.16318 1.31027 6.54623 -0.141128 -0.196127 -0.262602
H 7.60584 5.82211 6.39263 0.064983 -0.477807 0.136043
H 6.52884 10.2736 9.57405 0.524655 -1.209277 -0.310648
H 4.68029 2.04927 4.69596 0.465782 0.74937 1.202401
H 11.1169 7.76514 10.5455 0.477428 -0.39966 -2.685184
H 0.22605 5.69094 5.19013 -0.214606 -0.076531 0.069307
H 11.9577 5.49304 0.58347 1.028213 -0.011069 -0.455176
H 5.79517 6.5821 7.42282 0.536043 0.448777 0.234871
H 3.76049 2.02303 12.2981 -0.198715 -0.452887 0.435829
H 9.47673 7.26418 2.01082 0.629529 0.221936 0.386348
H 4.61103 10.8435 12.0454 0.02984 0.135428 0.333514
H 5.52139 5.5798 9.37567 -0.298236 0.110637 2.766499
H 1.94422 1.97377 2.80095 -0.818432 1.319705 -0.115053
H 0.09894 10.7529 11.6231 -0.202238 -0.481721 0.317105
H 7.89713 1.98132 7.41238 -0.30911 0.345468 -0.626976
H 12.1566 10.7278 7.34875 0.31884 0.045417 -0.591867
H 1.23008 10.3213 1.03642 -0.496448 0.329304 1.154932
H 5.31937 7.11776 0.46082 -1.276419 0.381213 -0.152925
H 7.24656 9.3376 2.75513 -0.497862 0.635608 0.1966
H 8.48389 6.75217 7.26233 -0.434727 -0.519979 -0.245767
H 1.93602 8.49415 2.03962 0.854452 -0.637001 0.032616
H 3.93027 10.8753 6.27428 -0.444361 0.491838 -0.364298
H 3.38623 10.5555 8.48441 -0.808248 -0.162937 0.009758
H 12.2408 2.2119 0.4535 -0.228855 -0.205998 -0.856972
H 5.71071 4.53316 10.599 -0.206847 0.406991 0.217594
H 5.51095 12.0124 9.74417 0.025451 -0.11373 0.419137
H 1.74232 7.63941 8.36347 0.041285 -0.28803 -0.399458
H 12.2363 12.0859 3.66643 -0.60551 0.197191 -0.265224
H 12.1932 3.79496 10.3696 0.604289 -0.458189 -0.633995
H 8.34704 7.46347 1.14129 -0.533493 -0.004107 -0.753639
H 11.1101 9.69029 8.5762 0.130106 -1.811566 0.14985
H 7.70398 1.31883 3.05673 0.715169 0.145409 0.736118
H 1.79285 5.27686 12.2376 -0.253097 0.042915 0.877884
H 1.5237 0.55578 3.25503 0.389337 -0.084283 -0.693402
H 1.47913 4.15823 2.09122 -0.050065 0.033285 0.028176
H 9.24434 4.26554 4.52082 -1.800755 -0.69014 2.322988
H 3.99578 12.2769 11.6424 1.046553 -1.312591 -0.032614
H 9.58568 8.31318 4.69172 -0.328026 -0.139858 -0.418694
H 11.293 1.25952 2.15392 0.207423 0.90033 -0.730171
H 0.27491 3.30854 2.39894 -0.585406 -0.446422 -0.353714
H 7.20745 11.0267 1.20123 -0.590778 1.745444 0.15121
H 1.56919 10.7618 2.65816 -1.07458 0.33784 -0.003437
H 8.10527 3.26279 10.7543 -0.176604 -0.186745 0.235869
H 6.45771 1.17646 1.2279 0.210481 -1.020971 0.794067
H 4.66474 0.09881 3.86162 -0.177792 0.738327 0.333111
H 3.78831 4.07764 5.55395 0.351357 -1.037507 0.281121
H 12.0619 9.27493 11.9086 -0.020667 0.422455 0.62086
H 0.6487 2.1146 10.9547 0.838588 0.148835 0.273629
H 7.1126 5.29089 0.68629 -0.199897 0.125713 0.063832
H 8.60393 10.3205 1.47018 0.778017 0.509136 0.441143
H 10.7531 2.93591 0.98323 0.842211 -0.710333 -0.482609
H 1.90769 7.84833 6.01599 -0.472935 -0.506177 -0.422888
H 1.67253 6.2254 1.11211 -0.521427 -1.166218 -0.369728
H 9.48373 11.0464 8.12922 0.258998 -0.271639 -0.389905
H 1.28631 6.09766 8.35975 -0.078112 -0.025037 -0.360469
H 5.82575 0.16016 2.30575 1.337477 0.937589 -0.623784
H 5.69325 3.00102 5.64744 0.705143 0.234432 -0.270721
H 10.3093 0.83204 3.30635 0.125468 0.271879 -0.138608
H 5.67369 9.05503 9.79008 0.226866 -0.958667 0.548878
H 0.40233 11.3366 4.94204 0.139253 -0.031688 0.295586
H 5.6568 12.1598 8.1908 -0.060336 0.03559 -0.923714
H 1.30514 4.08585 10.6653 -0.247719 -1.377071 -1.036513
H 8.13242 12.2727 4.7791 -0.028 -0.139289 -0.087242
H 8.06858 9.6391 12.3091 -0.312862 -0.117051 0.134079
H 1.71635 1.30223 11.9838 -0.784818 0.723944 -0.599569
H 9.26909 3.94126 2.22466 -0.336468 0.251706 1.898675
H 3.49851 1.08159 3.40855 -0.748303 -0.279979 -0.544912
H 1.47524 11.2085 10.0976 -1.230395 0.679417 -0.243755
H 5.99762 0.05326 6.0168 -0.527647 0.312459 1.092929
H 2.72403 4.72527 6.56949 -0.473595 -0.643367 0.377846
H 4.82588 9.86377 6.91712 0.227422 -0.51261 0.011194
H 7.17079 1.09242 8.51307 -1.582304 -0.042434 0.368816
H 8.25014 12.1499 8.13946 0.282341 0.050465 -0.696659
H 7.66472 10.7565 4.76254 0.093454 -0.70264 -0.796312
H 7.93828 8.56236 3.8497 -1.454268 1.041607 0.488887
H 4.4193 9.09192 1.11782 0.44837 0.26603 -0.12187
H 1.61361 6.72575 3.56483 -0.140539 0.340937 0.331942
H 2.9925 1.26692 1.11587 0.048637 -0.11452 -0.544956
H 9.29193 8.57423 11.6019 -0.292685 0.503372 -0.228243
H 10.5114 5.08418 0.71391 -1.087236 -0.429298 0.026255
H 11.4688 11.0212 9.24748 0.545916 0.583892 0.662703
H 8.33282 3.59936 0.98556 -1.389629 -0.546161 -0.205331
H 10.8381 7.00633 11.9203 0.338152 1.190455 -0.589912
H 8.41959 2.48441 9.43877 0.809976 0.27047 1.035105
H 10.4405 11.4888 2.04047 0.577896 -0.147025 -0.330359
H 8.29813 11.1878 6.85028 -0.054007 0.13706 -1.743788
H 5.75142 10.3101 4.39018 -0.043133 0.288762 -0.012904
H 0.88199 9.88752 6.58425 -0.043997 0.213424 0.285373
H 6.77487 6.07133 11.8585 -0.712741 -0.227013 -2.240711
H 4.1771 7.61596 11.7979 0.63724 -0.266065 1.992622
H 10.8541 5.02175 10.9232 -0.172767 0.343096 1.049572
H 3.49936 8.96235 9.89174 -0.007118 -0.202591 -0.222166
H 3.50206 11.0118 9.97492 0.046703 -0.290852 0.287958
H 12.2255 7.59651 8.74449 -0.150319 -0.101199 -0.217386
H 6.4427 9.48673 7.94653 0.385698 -0.311467 0.436547
H 11.5343 4.5206 5.4195 0.006896 -0.000163 -0.521268
H 5.16367 10.7377 3.05062 -0.573592 -0.01176 1.421588
H 3.46292 5.32512 10.4894 0.423388 0.072823 0.16682
H 10.6372 7.51159 8.27743 1.652225 0.578468 0.296451
H 10.8772 10.0794 1.26134 -0.941978 1.54633 0.807615
H 2.3243 5.95491 4.74596 -1.399007 0.437561 0.048554
H 4.29595 7.72818 9.23693 -0.386575 -0.047237 0.412625
H 0.54658 4.61888 7.04232 -1.437183 0.592498 -1.826734
H 4.50677 5.81843 7.39293 -0.117438 0.954654 0.467603
H 10.2495 10.0794 3.52599 0.031858 0.124787 -0.846087
H 10.387 5.68187 8.40929 0.121986 -0.306837 -0.136439
H 0.49837 12.32318 10.7872 0.515378 2.388083 1.119694
H 3.60183 10.3412 1.34299 -2.207764 0.662645 0.584783
H 6.48914 8.5072 6.71735 -0.310144 1.402859 0.445761
H 7.97237 2.16197 4.39368 0.081413 0.139579 0.07962
H 7.90931 9.0924 10.5837 0.145833 0.034341 1.666
H 0.98801 3.96326 8.30253 0.510767 0.176436 0.63438
H 8.47168 7.29522 5.17806 -0.075791 -0.156315 0.352429
H 11.0449 9.94129 4.8489 -0.131616 0.252966 -0.068021
H 10.7504 5.91607 6.84678 0.444055 -0.226518 -0.080417
O 10.8804 10.6217 8.59963 -0.88551 1.413931 -0.602747
O 11.373 8.10197 8.66686 -1.367342 -0.355755 -0.072898
O 5.42978 0.38309 6.77545 0.465152 -0.29799 -1.201142
O 4.79375 2.67226 5.55811 -0.838193 -0.825341 -0.910137
O 0.37178 10.7293 6.5796 -0.161245 -0.24794 -0.082727
O 4.4374 1.05192 3.63706 1.245638 -0.54882 0.368151
O 10.0947 6.06331 7.55347 -0.764785 0.551449 0.590056
O 7.72743 11.5489 5.2994 0.025021 1.005653 1.117401
O 1.8144 10.3045 1.8454 1.248955 -1.218941 -1.16247
O 6.62926 9.23954 9.62556 -0.403528 2.360687 0.088431
O 1.11718 3.56998 2.7834 0.855341 0.212261 0.471935
O 6.07705 11.7815 8.99202 0.125383 0.003384 1.144336
O 1.29639 6.93762 8.88543 0.027731 0.182105 0.797936
O 10.9256 7.90852 11.4415 -1.176624 -0.365432 3.04571
O 7.16106 9.26236 3.73154 1.74791 -1.505171 -0.454989
O 2.17702 7.51522 2.10823 -0.212975 0.012784 0.079256
O 1.23554 4.67417 7.67958 1.188363 -0.884511 1.519357
O 9.23527 7.82085 1.26316 -0.207964 -0.416419 0.585256
O 10.7037 4.88187 9.9871 -0.344978 -0.561878 -1.762983
O 1.498 6.51511 4.52518 1.410002 -0.887514 0.218378
O 6.697 0.43902 1.89218 -1.398124 0.321662 -0.515391
O 10.1851 10.5573 1.83845 0.590779 -1.028858 -0.497688
O 4.54242 11.4806 11.3038 -1.112686 1.599189 -0.019862
O 8.53704 11.2493 7.7886 0.374555 -0.082362 2.169004
O 3.2825 4.8609 5.80242 0.196014 1.782016 -0.398312
O 9.20514 3.74747 1.30221 1.838715 0.251207 -1.589264
O 7.03102 6.19513 0.34766 0.542003 0.237114 2.069626
O 2.91018 10.5133 9.364 0.740389 0.217864 -0.111738
O 8.84777 2.90288 10.2498 -0.510531 -0.02618 -1.298219
O 0.76527 1.43689 11.6709 -0.403004 -1.688999 0.984446
O 5.12645 10.9765 4.0385 0.080157 -0.736507 -1.845206
O 4.49951 10.067 1.31619 1.889766 -0.778472 -0.43189
O 7.60887 6.70642 6.79351 0.097011 0.625857 -0.079639
O 4.95119 6.55312 7.90537 -0.320109 -1.531249 -0.79642
O 9.01006 7.542 4.4104 0.628363 0.165944 -0.018091
O 1.99368 8.44933 6.76494 -0.153897 -0.429815 0.058045
O 11.6076 2.45679 1.16193 -0.850087 0.728803 1.146259
O 0.69246 3.3715 10.2596 -0.628052 2.564546 -0.015988
O 9.77776 4.54698 3.82441 2.103116 0.918493 -2.593216
O 3.86385 10.1099 6.84798 0.126181 0.452878 0.388011
O 2.50437 5.20883 10.5703 -1.591133 2.142777 -0.819366
O 11.1187 0.57657 2.82397 -0.893878 -1.17937 0.991868
O 4.39485 7.51211 0.40958 0.825612 -0.185346 -1.748892
O 12.3042 10.1184 12.3781 0.064077 -0.410541 -0.67363
O 10.1462 9.94118 4.47812 0.407157 -0.512279 1.163376
O 8.45477 9.14639 11.4796 0.339111 -0.641828 -1.616229
O 1.34731 5.32829 0.7373 0.841537 1.501248 -0.458937
O 11.9238 5.3114 5.8092 0.190706 0.016221 -0.149268
O 6.23235 9.43438 7.00305 0.859878 -1.495566 -1.247543
O 3.14264 1.29222 0.1377 0.91712 0.113502 0.129281
O 7.99382 1.30405 8.10497 1.491463 -0.119097 0.766193
O 0.53753 11.5479 10.2568 0.469671 -2.674698 -1.296368
O 5.46307 5.47176 10.4283 0.347505 -0.497346 -2.746052
O 0.52847 11.4814 3.98399 0.745937 -0.04135 -0.030199
O 2.0833 1.04291 2.59077 -0.215335 -0.938138 0.901365
O 4.03886 8.15359 10.0872 0.409933 0.232566 -0.320758
O 8.39851 1.58241 3.74018 -0.605167 -0.802896 -0.791143
O 11.1127 5.50425 0.09562 0.123263 0.208297 0.420553
O 7.67165 10.2062 1.18827 0.103919 -1.936378 -0.743437
N 9.19088 0.27168 12.0084 1.294789 1.02602 3.45363
N 4.56879 7.37912 4.64215 -0.018879 0.471116 1.392565
N 3.96708 2.28701 9.57056 1.415611 1.131835 -2.38594
N 4.42604 4.24626 2.60322 1.923662 0.040832 1.170343
N 1.43351 1.8883 5.71549 0.212367 -0.021002 0.011182
N 4.51167 2.73556 8.69385 -1.464202 -1.144418 2.444368
N 5.37701 4.30378 3.19144 -1.89348 -0.175259 -1.352152
N 4.68198 7.06156 3.59969 0.182499 -0.169673 -1.278261
N 2.31989 1.86968 6.37673 -0.365725 -0.151589 0.047973
N 8.82063 12.3829 11.0332 -1.271884 -1.070899 -3.445112
N 11.1314 1.96937 7.1625 -0.610308 0.131747 -1.228008
N 10.6841 2.0642 6.14645 0.627898 -0.174958 1.305202
Cl 7.76063 3.48408 6.10885 -0.077391 0.415943 -0.066822
Cl 6.07228 2.7918 12.2174 0.258557 0.202773 -0.019161
